>compound Monoiodotyrosine( MIT)
>formula C9H10INO3
>parentmass 307.977064143383
>charge 1

>ms1peaks
135.067872369563 0.501614
164.044665574649 0.551284
261.970962854575 5.35252
290.9503683218 5.5372
307.976619300761 100.0
308.191548343224 2.23648

>collision 10.0
94.0419973746166 1.15687
108.057799937427 0.592443
118.042542284738 1.05731
134.061051705566 0.82837
135.067587355884 8.25501
146.036290559828 0.778086
164.046664999969 14.9677
244.943755987014 3.55184
248.94023480166 14.2751
261.971745654744 100.0
262.172121206916 1.26999
272.939335835331 6.91905
290.950674071162 71.4206
291.158822707362 0.538783
307.977064143383 94.7599
308.191509461743 0.994005

>collision 20.0
94.0412235224678 8.87114
107.048523092061 1.59344
108.056329812129 2.54723
118.04160767811 4.09239
119.048205859843 0.658333
120.052933290432 2.26294
122.03516379967 0.717179
134.059392050659 4.08438
135.066994229369 49.3902
135.213125721715 0.653356
136.051769360515 1.12049
146.034836225339 2.16534
163.038866582313 0.88119
164.045769033368 24.7275
244.944270821208 7.77183
248.939125361267 35.3324
261.970732479938 100.0
262.172080092498 1.1192
272.939311190941 9.86151
290.949685612987 17.6009
307.975309754859 3.8224

>collision 40.0
65.0403380232489 1.12726
66.0466222159897 3.08477
77.0394585878191 1.18276
79.0532635744778 2.00984
80.0586652516373 3.02878
89.0374818798844 1.63257
90.0467396967864 3.94725
91.0541023724413 2.82763
92.0505432511146 2.89996
93.0342917078994 0.591061
94.0414127902745 63.4833
94.1615800496286 1.1947
106.065209950341 5.95004
107.049101601775 22.0745
108.056680820748 23.6226
116.049342072381 1.00077
118.047843108874 19.2792
119.048235031303 3.4094
120.046104510686 14.6791
121.028314201901 6.56111
122.035260811546 4.31411
134.05956045864 40.8092
134.203642179556 0.501157
135.067092280153 100.0
135.213106143037 1.59281
136.049378599899 1.92802
146.035508934322 3.22267
147.041889990075 1.36016
163.038908416072 5.68459
164.046163980209 3.95163
232.940788353231 0.787681
244.944550757638 5.64178
248.939820637615 8.41049
261.971329882364 6.46544

