>compound Mefenamic acid
>formula C15H15NO2
>parentmass 242.115864262734
>charge 1

>ms1peaks
224.103564393447 7.90559
241.107140462779 15.6818
241.599045100493 6.33058
241.988279605862 4.24079
242.115864262734 100.0
242.20351627651 3.4092
242.270886783449 3.00042

>collision 10.0
162.97325058873 9.02869
163.972458922331 3.65477
202.131774863298 3.40157
209.077232288175 3.13542
223.103446649792 6.26887
224.103021242624 100.0
224.622399264029 4.21652
241.103821784475 22.8551
242.115405685271 41.0498
242.284243869462 4.33759

>collision 20.0
84.9577409891567 5.16246
106.061339472933 2.00482
145.947225609634 3.29306
163.981229696996 2.13406
208.071576829449 5.17428
209.079706664357 5.20362
211.091439151822 2.43528
222.089649951939 2.36489
223.097406501497 10.1532
224.105786215564 100.0
242.119591521041 2.36017

>collision 40.0
82.4930825184314 13.3963
85.9656718459921 13.2143
154.06350515666 17.0739
166.059270638155 9.7482
179.069302345626 13.8308
180.07786352815 100.0
181.084220983769 22.5363
194.095309170298 10.551
208.07348949794 89.9837
209.082924516526 99.4776
222.089793703559 10.3548
224.108670829701 25.0695

