>compound Linoleic acid
>formula C18H32O2
>parentmass 303.229560167577
>charge 1

>ms1peaks
303.228932799047 100.0
332.22893279905 1.0e-13

>collision 10.0
303.229560167577 100.0
303.767107173834 0.697422
332.76710717383 1.0e-13

>collision 20.0
137.136144265463 85.5187
303.18517837585 88.2082
303.232318200045 100.0
332.23231820004 1.0e-13

>collision 40.0
91.050093739501 53.4696
182.967528399456 100.0
211.96752839946 1.0e-13

