>compound Ethisterone
>formula C21H28O2
>parentmass 313.214346462331
>charge 1

>ms1peaks
97.064859899134 0.898274
100.110636229024 0.973935
167.085550659176 1.98946
168.08734830341 0.88973
234.951865991591 0.959175
239.108393161909 1.51941
240.112660689035 0.895275
293.107208577034 0.568063
312.195936134073 70.3309
312.358290106468 0.988583
312.425343905462 0.911881
312.478097128876 0.532724
312.615008195044 0.824446
312.694472212164 0.503388
312.761616910865 0.583578
312.969064606511 4.02301
313.045328070359 0.773107
313.214398583295 100.0
313.378617971405 1.7365
313.462348761764 1.19334
313.513277587257 0.941837
313.607214714313 1.04154
313.718316738748 0.882396
313.864115106881 0.866842
313.942320075662 0.71882
314.079034011837 0.882907
314.168757573719 0.587072

>collision 10.0
43.0223734250701 0.830598
97.0654739609808 5.706
100.112726825875 9.51263
101.114410039069 0.552823
105.070365531238 0.681022
109.066077896482 4.3255
109.711802258744 0.682499
118.126439324386 0.852968
123.07677872863 0.706893
131.085016255532 0.692133
135.077385298946 0.648907
156.938397605776 2.15898
167.087050112342 5.78343
199.147934352136 2.04806
213.15713802616 0.835924
227.182764898681 0.551903
232.964332439439 1.13356
234.953875982049 4.97651
235.037936289315 0.631264
237.160428455131 0.52677
239.109795082756 7.94861
240.108743717342 1.10104
254.095172797978 1.38124
264.413167604357 0.667447
277.188213207669 0.846334
295.212526261251 0.988939
312.196986113697 61.3744
312.307074254842 1.49791
312.355245541716 1.10274
312.45464663166 0.710568
312.590829423507 0.592238
312.761527879062 0.544811
312.914952234294 0.551246
313.060512671728 0.858989
313.214346462331 100.0
313.340739527257 1.83703
313.377303906346 1.80712
313.426660429009 0.97622
313.505387500178 1.16324
313.583562711276 0.746863
313.644468498368 1.03911
313.70641197102 0.620493
313.839208500015 0.923159
314.096219550691 0.664985

>collision 20.0
43.0167634618742 2.11469
44.0503676644479 4.29422
55.0170496597358 0.866062
55.0547908609906 1.06093
63.0188343616582 1.57271
72.0802677731382 2.74433
76.9288307772544 2.2717
79.0215687697874 1.86248
81.068226568783 1.67653
85.0623712924697 1.12723
91.0561946915248 1.05551
93.0680919889344 4.00073
95.0853876992175 3.39075
96.7092291619656 0.878417
97.0647116494637 91.5133
97.1479265353478 1.71293
97.3633896863908 1.42132
98.115222752216 0.901246
100.111376327449 72.1083
100.202306821634 1.31728
100.364631284232 1.06166
100.417921698243 1.48443
100.463613615167 0.938363
100.791489532021 1.03845
101.115035007292 8.11213
105.078682223613 1.15279
107.016016751297 1.21607
107.082708458256 1.41245
109.064218413952 69.325
110.037313154401 1.00815
111.083003715724 0.885991
115.053682768484 1.73625
117.067746705948 1.23739
118.122246687798 4.98074
119.081924265642 3.05617
121.098031125421 3.09049
123.079030595906 6.38781
125.107451279372 1.49937
127.046265151639 0.891461
130.970585525794 1.1045
131.080271954627 3.032
133.100762604457 2.38171
135.116768397047 1.55372
137.094269251945 2.02613
143.08463846177 3.01482
145.010730388744 1.33573
145.098445789606 4.98004
147.116683527267 3.20229
149.125871915799 0.911771
152.063096607896 1.76505
154.939270287014 7.43135
156.096394950672 1.13016
156.935345806037 9.59253
157.101162365785 4.304
159.113060257686 1.62397
161.126751158373 2.36263
163.608551113407 0.886464
165.066155513963 3.09486
166.072538212679 1.28275
167.084379158744 100.0
167.20014103141 1.51051
167.313347527955 0.99958
167.75202890145 0.993583
168.087096004238 18.4204
168.149663234321 1.12594
169.099412895819 3.90269
171.115379110061 4.18577
175.141921820306 1.40967
181.098356588842 2.42502
183.11729205923 1.93406
185.13329774702 2.50469
187.14382003683 1.82414
189.12180704188 1.68049
190.284519009788 0.991332
191.016088665892 1.3645
195.127112484983 1.02033
196.010597658875 1.20707
197.134339166145 0.95754
199.141366183447 4.54249
211.144928550974 3.19188
213.164557527065 4.20128
225.158384382555 2.39823
227.18393530061 1.50255
227.825004194315 0.955534
229.162445099824 1.41702
234.943943602657 2.79642
235.149075761775 1.33817
239.010609322754 1.26375
239.105106356637 59.0252
240.106432625111 13.644
240.481234400633 1.54628
243.165803073989 1.43171
245.186581011074 3.57341
249.167928385542 1.29051
270.189743857676 1.04594
277.190164733565 1.75731
288.795914790878 1.16205
293.193496080841 1.27842
295.199397046543 4.69016
312.191157152307 33.1042
312.360441579361 1.28285
313.212425812311 75.071
313.357110063189 1.67935
313.45219766824 1.32074
313.682780896034 1.04198
314.023338241925 1.06237

>collision 40.0
39.0230350157436 2.13591
41.0388851891481 2.25481
43.0188871466435 4.16543
44.0508631162941 6.52048
53.0392813768964 0.668088
55.0178101728067 1.36378
55.0549103826153 3.55858
56.9666976539556 0.729356
57.0725703522369 1.06263
62.0164605734348 1.09294
65.0371054552982 1.24316
67.0560869821946 4.30405
69.033238347598 0.902677
69.0705520508568 4.31695
72.0837490181235 5.30491
74.9280631516764 1.98451
76.9294302784861 5.12092
77.0406587789044 1.23919
78.9235248179334 1.07261
79.0531547566827 8.53147
80.1341341940628 0.711295
81.0711539332967 12.7459
82.2458524147903 0.763751
83.0486400492282 4.05183
91.0551158625073 6.56323
93.0707210989368 3.78688
95.022838598265 0.815282
95.0841703713751 4.23949
95.1186527390619 0.728745
97.0648774476538 49.8491
97.1392300932302 1.57408
97.2397675606324 0.989465
97.5643054032884 0.677336
100.11350898596 14.5937
101.11082234117 1.32167
103.050004841167 0.897502
105.071158001906 6.88031
107.09405048266 0.991383
109.064919431424 53.0896
109.162339226895 0.831711
109.436529621886 0.92953
111.073114272293 0.726897
114.568730310722 0.930468
115.051872812887 1.18988
117.072969437647 2.82882
118.122608836664 0.829509
119.086102247423 7.74842
121.061361587537 1.14498
123.045092345019 1.28331
123.078616336739 3.6568
126.049760736281 1.0045
128.059220886909 0.678766
129.070842013459 2.18029
129.678625042843 0.683406
130.077724275794 0.93175
131.081714409892 4.14996
133.100942122233 2.94113
135.114141155719 1.00907
141.066013326553 1.64884
142.078682806564 1.85032
143.084747069124 3.55387
145.109917437187 1.52223
147.716371398623 0.710475
151.053755961274 2.7991
152.064686218804 14.2573
153.064100387284 1.75529
154.938401262249 2.93431
156.942622527897 0.903459
157.099217967482 0.91439
165.067643196766 21.9302
165.165978446314 1.53644
166.075946966531 10.1691
166.148847202782 1.31797
167.086363586689 100.0
167.200723733495 1.6357
167.238138717777 0.974703
167.267925992551 0.793864
167.317473326521 0.664824
167.440649608086 0.803304
167.580073106276 0.97109
167.682892227892 0.793667
167.758886628604 1.02537
168.007550680355 0.910287
168.093041149785 14.5004
168.181766380374 0.758116
168.622348249059 0.843779
168.733437907538 1.0023
169.098911360969 1.79267
171.115082441652 0.842603
181.06619486105 1.22926
181.103811748852 1.3108
185.144341271785 0.928823
193.116689289535 1.02633
203.390646461877 0.660914
286.390438223264 0.87564
302.118192653218 1.73562

