>compound Danazol
>formula C22H27NO2
>parentmass 338.209074184445
>charge 1

>ms1peaks
298.620112955023 0.702327
338.209074184445 100.0
338.370883692295 1.6249
338.422405814726 0.896761
338.540220208034 0.606977
338.681646931586 0.698974
338.826612817101 0.650379
338.929515987514 0.519333
339.064524939402 0.551005

>collision 10.0
105.068624890752 0.5173
310.209881052283 0.973197
338.204765981557 100.0
338.433331321267 0.819477
339.009592795797 0.511147
339.194299131521 0.702353

>collision 20.0
56.0484325129161 1.65754
70.0286120085354 3.59713
70.0660288649505 2.21559
80.0516603619304 1.05628
81.069060777354 0.955164
84.0427314090071 2.06678
91.0557358503722 2.48811
93.0699234623379 2.31229
96.0597813656672 0.526099
105.070704251022 2.44724
106.066881536408 0.543784
107.084838208595 0.564146
108.08047907909 0.817492
109.06323041659 0.770118
109.09622424481 0.603062
110.059532454075 0.504807
117.069514907906 1.678
119.083653858679 1.48133
120.078109388249 4.09528
121.064044712971 2.52049
121.0959380598 1.23279
122.089476336663 1.65968
128.065548946438 0.546713
129.065650703428 0.801408
130.076859710161 0.543976
131.085354348622 3.12312
133.095962906975 1.446
134.086469318605 0.778275
135.078131107305 0.927793
136.076988138584 0.604461
141.064104355339 0.620412
143.08460201298 1.87063
145.098349219703 1.00511
146.097633558226 0.916561
147.078095087975 1.39783
148.077062383238 7.87859
149.125161761347 0.533683
150.086958224267 0.990102
155.084086899046 0.972538
157.097662671728 1.9844
158.097919437533 0.634422
159.114556930054 1.38389
160.073032003035 0.509009
161.102321804819 0.551249
162.085120335719 1.1028
167.08220493054 0.675484
169.100377244786 1.32691
171.113054281266 1.47748
173.112737522797 0.98708
174.096333839309 0.506722
179.075785203106 0.507295
179.969940742998 0.758366
181.09563283639 0.692231
183.113240287931 1.04033
185.089597677565 0.903624
185.129052747485 0.75771
186.127037131838 0.558045
189.02437432646 0.592878
193.093759764286 1.37127
195.118210929166 0.66494
197.115198714361 0.554329
199.148855069018 0.981641
205.105663784011 0.603121
207.114352485748 1.1314
209.131442148507 0.684779
213.122907144371 0.737045
218.114568615009 0.621154
219.118618068496 0.652619
220.120318574819 0.613191
221.126305428418 0.50996
222.130552255209 0.648481
223.149203332815 0.590735
225.159164302357 1.44339
227.143116675734 0.545403
233.131296133701 1.26875
235.132833527859 0.735509
239.142842933932 0.519093
242.188095777019 0.771183
246.140856769092 0.596071
253.152095214501 0.652423
259.145801907262 0.529707
261.161152267221 0.78899
263.164476618915 0.610513
270.186184846316 1.03909
281.180453789856 0.655679
283.162857289228 0.554616
292.205105659312 0.844731
293.189341871423 1.3313
295.186759972261 0.871838
296.187143706914 1.24774
309.181416809103 0.566556
310.211991437733 7.84934
320.201097771089 1.18505
321.17636108084 1.25708
338.208455911439 100.0
338.373299870319 1.61002
338.471996267423 0.77158
338.524966139552 0.610081
338.65882506238 0.728547
338.789245327945 0.690939
338.834349898649 0.610995
338.902996341925 0.737485
338.972722263773 0.645079

>collision 40.0
41.0407922999746 6.11731
42.0356288347496 2.08883
43.0183713539741 14.15
43.054721316606 5.87351
44.0542823184141 2.53596
46.0307602800675 3.00484
51.0259477559447 1.80468
53.0038036647826 4.84137
53.0384656042856 6.90849
55.0203844292893 9.88302
55.0532033220558 11.9086
56.0492757586472 14.8605
57.0340468384401 1.90898
57.0732202787553 3.97329
65.0371174963951 3.77608
66.0460869789726 2.52694
67.055122430768 30.0451
67.4713670999895 2.2103
68.0516520947674 4.8104
69.0336675646839 2.56702
69.0730506127764 6.94592
70.0299332004215 29.3207
70.0654873230316 44.3552
75.2600075681964 2.1067
77.0394838142996 45.0789
77.1665208428235 1.84409
79.054488078472 67.541
79.1006439162995 2.59762
79.1365657583666 1.64788
80.0495527351304 7.17165
81.0342402807151 9.40718
81.0698340950427 16.3933
82.028114809684 3.81411
82.0646879373873 10.7111
82.4910347885824 2.2627
83.0524534582383 5.09139
84.0440656816336 16.7105
90.5022143086514 2.33277
90.5721609381034 1.92417
91.0023563097518 6.72674
91.0542780363036 87.3343
91.3229068179373 1.64677
91.5039184752916 3.62126
91.5445671437003 1.96424
92.0555964988768 5.33376
93.0696354058234 68.6275
94.0659827286044 23.557
95.0486999397884 7.3111
95.0840276387728 15.1421
96.0428739729207 12.1878
96.0806086527925 9.61765
97.065231601456 2.53319
101.947264549692 8.30988
103.055173880861 16.2962
105.069612815738 91.2972
105.161664628425 2.12
106.066223278991 26.0719
107.083931964653 29.5535
108.0741098141 13.3879
109.085793936876 10.7703
109.33549889592 1.80376
110.058277489372 5.46584
110.37770875299 1.93905
115.05523932534 22.2483
116.06013134948 10.6789
117.069620006749 32.1363
118.069084224616 2.85396
119.084254288654 58.6508
120.080409136634 86.2144
120.177054925142 2.31062
120.207664418111 2.5174
120.357510096868 1.88604
120.99658908628 1.8465
121.06585951312 68.4817
121.148260738136 1.75566
121.208561318834 1.68761
122.060715505929 7.71537
122.094088721513 20.5588
123.068789996359 16.7828
124.356914243397 2.10557
127.051067722946 7.6932
128.059447160794 31.265
129.070301199958 44.2784
130.071564034302 10.6701
130.401863256793 2.35053
131.084548058765 56.5065
132.078909496537 21.1805
132.629862387257 1.76424
133.098701663953 18.6581
134.078384409629 9.44206
134.946587686641 3.25473
135.075448906796 9.83496
135.111659846083 3.93158
136.071841612174 8.25728
136.531157794507 3.02799
141.068176542623 21.9198
142.077708189748 28.8241
143.083735238479 48.2789
144.085947750259 8.16448
144.131417521237 2.07991
145.098068615805 28.5125
146.089275270223 7.61306
147.006928962199 2.12462
147.078361856014 21.7448
147.113051122598 6.37694
147.264734872869 1.64775
148.074134537966 100.0
148.189124211258 1.84396
149.086362550519 8.79814
150.088730068913 3.98238
150.145515343797 1.844
152.06200152921 6.76944
153.068155937614 9.81505
154.080749617101 8.01673
155.084781678478 40.3101
156.09305865421 7.14386
157.098318377307 27.0826
158.098226850834 11.0584
159.080932243034 12.2019
159.113483911951 6.03441
160.112139090103 2.46935
161.093723033984 9.94431
161.13571410982 5.25374
162.090380632525 10.7545
165.067483062301 14.757
166.079396940853 17.3093
167.086912923212 11.3441
168.093164312254 7.89488
169.097533530042 22.9539
170.089539623805 8.54299
170.371313220696 2.64605
171.113912583999 12.3758
172.067624306379 3.87809
172.113052100049 12.1986
173.090387345829 5.19762
174.102798069053 5.42103
175.100938063773 3.12748
176.109598373917 2.36594
178.073892854836 9.4621
179.084297941879 10.6224
180.095336538605 10.595
180.992302427838 3.32694
181.097991733154 13.7997
182.103972958848 6.7676
183.110509410717 14.3328
184.097352721189 4.16966
185.09811894856 8.64531
186.097535878297 9.4063
188.110741675442 2.17899
189.060763408182 4.74351
190.074550607682 1.97312
192.084773211022 2.00123
193.100426690714 10.6371
194.110089376885 5.46127
195.11503605879 17.8788
196.094011389195 4.4522
197.12595940152 9.19781
198.129954533507 4.18438
199.112542244002 3.31358
201.119689541053 2.42429
202.077350289017 10.5846
203.081178166317 11.4411
204.092268456677 8.6452
205.102105079452 17.7902
206.10876985716 5.41723
207.112819726522 10.1797
208.118558811309 7.55359
209.12483266541 10.2879
210.109462027615 4.12432
211.12319259853 2.41098
212.111696106851 2.48769
213.119286300771 4.0599
214.111151742083 1.64944
215.075826806285 2.16557
217.098029107727 5.0069
218.11533552291 2.57827
219.115476960799 8.45198
220.117667515397 9.99368
221.128276128574 5.5459
222.095212632087 1.73323
223.10569824842 2.56602
224.10914314466 3.53721
225.152897473094 8.18675
227.128146212717 1.73004
227.853521410707 1.7261
228.131326601392 4.89076
229.098589907787 2.57036
230.100119390105 1.9821
231.1189164386 8.15254
232.115469157912 4.49066
233.130171055319 2.56535
235.139533402964 4.2178
236.134955871686 3.56502
237.130920490022 1.65345
241.160201020228 2.48951
242.186622862862 5.62674
243.336433273261 1.91958
245.130980601606 2.56383
247.13644592648 4.573
248.095819978098 2.64563
248.143034159059 2.85042
251.136569939895 3.23848
253.148800448281 4.75215
255.174046871306 2.2862
258.129209446217 4.35623
259.13753457633 2.12499
262.150959248252 3.77615
264.180601095903 2.32771
266.142031836939 2.63332
270.18044449392 2.75123
275.173631951717 1.72381
280.165762619292 3.37399
281.178586639448 2.78951
282.178190088552 2.12046
286.151662645444 4.91699
292.202491101489 6.5659
295.17652098451 3.01128
296.203441985618 3.16884
308.196085193925 1.96425
310.210737227339 6.676
322.172051740811 4.08942
338.208599161591 12.0284

