>compound Physostigmine
>formula C15H21N3O2
>parentmass 276.170827987322
>charge 1

>ms1peaks
162.090918358438 3.60449
176.106833779922 0.515491
219.112708892687 23.54
219.295800025052 0.90442
233.128107393975 1.00881
276.17173702358 100.0
276.375002717291 7.43346

>collision 10.0
44.0504137984118 0.511652
147.067057883558 0.625128
162.091122542479 29.8239
162.246223379012 1.1182
176.106485722441 4.25444
188.106278072834 0.885399
219.113471105029 100.0
219.295933961842 7.29482
233.128370169506 7.12882
245.128467477072 1.57662
276.170827987322 13.7719

>collision 20.0
44.050456248705 2.51098
147.067414523826 2.88202
161.083031270503 1.57474
162.091483078475 100.0
162.246936980249 6.72321
176.106619627198 19.2649
176.269191718426 0.615498
188.106690387653 5.17438
219.112687653144 19.1202
219.295775315602 0.613609
233.128379867131 3.0047
245.128629513293 1.04146

>collision 40.0
44.0504874354842 13.5081
44.1335659886755 0.555025
56.0503377254494 0.729431
58.0660205974068 1.26437
77.038909550398 0.916562
91.0543949732394 1.01474
93.0702052404317 1.28643
103.054524929072 0.984725
105.070184153105 0.611044
107.049018105189 0.52621
117.066077500434 0.757459
118.06491722998 1.04936
119.074795411617 0.988718
121.064793497713 3.28071
131.048971313843 0.834228
133.06193814313 0.622738
134.096036495059 7.66123
144.080349482025 2.80017
145.083292017573 1.53022
146.059826918851 15.826
147.067709300732 100.0
147.21546857597 4.32008
148.106646122273 0.517826
160.07564605398 10.8543
161.08333406123 37.9764
161.240505253801 1.23134
162.091126892113 84.8951
162.246323417494 3.3241
172.075056175885 2.29657
173.082914068111 9.48913
176.106548988667 15.9635
188.106647179308 7.61672

