>compound Pindolol
>formula C14H20N2O2
>parentmass 249.160044378071
>charge 1

>ms1peaks
116.106515235735 1.09917
249.160085100846 100.0
249.355581217843 6.00542

>collision 10.0
56.0502682545915 0.630455
72.0815756316365 1.32953
74.0604925170014 1.06255
98.0964770499256 1.39982
116.106823830447 12.5321
134.060125795222 0.550662
146.059508233909 1.64772
172.075302083751 3.49141
249.160044378071 100.0
249.355441163826 5.70798

>collision 20.0
30.0343504828255 1.01031
43.0552647656633 0.928112
56.0502640410197 11.9239
58.0660025922314 7.33505
60.0817162146877 0.774381
72.0813940746955 21.0185
72.18849296005 0.649186
74.0605508171923 19.3263
74.1663951707797 0.675367
86.0964935166176 2.18971
98.0964882012538 13.9884
100.111972977817 0.947115
116.04929564679 0.599859
116.107045493927 100.0
116.240918393395 4.64016
117.06751157717 0.581975
118.065007870173 2.84988
130.064854433115 1.12456
132.044203188524 1.00084
134.059634994719 9.20906
144.080658879798 9.13963
146.05974014122 16.8571
160.074533753405 1.36401
170.914527501767 1.15288
172.075121567444 29.1251
172.236374703499 0.753714
207.112636928139 1.43291
249.159419346252 33.4252
249.354498762643 0.661104

>collision 40.0
28.0186082937012 2.12505
30.0339632617336 5.60343
41.0395575416065 6.56448
42.0351943750938 0.718936
43.0550956715888 23.5057
43.1359230729979 0.868819
44.0503212495875 4.23964
55.0189044052933 0.579438
56.0502543262251 100.0
56.1430682944758 2.77117
57.0348237859268 1.02732
58.0659957554373 27.8396
58.1630241652458 0.697263
65.0389643401604 0.600609
72.08150242674 28.736
72.1884781781284 0.834592
74.060336371119 50.8114
74.1663545059632 1.68962
77.038425717232 2.21449
78.0384037066322 0.50498
79.0546782199136 2.64766
80.0509818639386 1.00096
84.0813664212463 1.66589
89.039447219485 2.77337
91.0542418748623 11.7327
92.9008774003242 1.08071
98.0962610818688 4.22953
100.112002252213 7.03112
103.053675658991 0.955216
104.049094810784 7.15008
105.056242293459 0.561579
106.064938383789 11.7247
107.049344398421 4.59014
115.053900257179 6.31763
116.049266361045 22.7099
116.106885942722 18.3892
116.180540155794 0.554692
116.240913492977 0.548422
117.064916109542 19.8302
118.064827574189 24.6285
118.198926359307 0.63915
127.053973983538 7.56201
128.053438975557 1.1876
129.059877352751 1.01941
130.064580046013 3.47943
132.05652967535 3.53733
133.05234960482 3.71924
134.0595470474 28.2191
134.20021961708 0.647101
142.06354664705 0.802124
143.07204102919 8.14896
144.080577183713 30.2412
144.231209887614 0.655289
145.065014892633 0.824209
146.059606166965 8.96099
154.065073895645 1.75492
155.070964159653 0.678911
155.889010796919 1.51507
157.051698381066 1.18308
160.076118445593 0.5382
170.059143866108 0.915936
172.075290435338 3.15133

