>compound Dextrorphan
>formula C17H23NO
>parentmass 258.185926709699
>charge 1

>ms1peaks
258.185965365864 100.0
258.389403499026 5.03573

>collision 10.0
199.111755336788 0.58988
201.127791087198 0.901174
258.185926709699 100.0
258.389313912217 4.19389

>collision 20.0
44.0506924482535 1.11463
133.064783840904 3.26898
145.065204822693 1.458
157.065364064101 1.96721
159.081489314467 0.867931
199.111930760389 6.94324
201.127260718651 9.55913
227.145275220856 0.528015
258.18584453093 100.0
258.389392559573 3.01839

>collision 40.0
41.0400772007876 1.51916
44.0507748613063 13.2695
55.0547132031148 1.777
58.0661626576416 0.985255
67.0558799368197 1.97369
69.0710701069515 4.1001
77.0400590476688 0.971687
79.0554041168022 1.91822
81.07122064067 3.1929
91.0567252468818 1.36429
93.0708987706936 0.813386
95.086324906354 1.21372
103.054942614874 0.650351
105.070412723787 5.37799
107.049937335515 7.82212
115.0551151154 1.57374
117.069699442862 2.9487
121.064854088675 3.26384
127.054663527905 3.666
128.062788891658 2.78875
129.069735337182 5.49371
131.056227895141 2.87613
133.065127749261 50.4005
133.205641304592 1.11994
141.070113256071 2.07806
143.085336432181 0.823718
144.057345910547 2.1048
145.064831179719 19.7945
147.080219650551 2.02338
157.065334401804 100.0
157.224119616322 1.85928
158.073077516623 1.02104
159.080955795014 15.7255
165.07016677613 0.529004
166.077879641687 0.997253
171.112477037629 3.86466
173.095629188146 0.863003
181.103354270245 2.32424
184.08852534327 0.587853
185.095879345719 3.69562
186.104503275296 0.770592
199.111949587459 33.4115
199.284265693277 0.522684
201.127881523937 11.2081

