>compound Pirenzepine
>formula C19H21N5O2
>parentmass 352.177993869429
>charge 1

>ms1peaks
70.065851699872 1.24611
113.107320708531 6.70729
252.076449533169 0.705963
352.178440860318 100.0
352.411469545488 7.04789

>collision 10.0
70.0658402159339 6.08615
113.107467382302 37.302
113.237422875225 1.89056
141.102015424784 1.12616
252.076513757136 3.73394
352.177993869429 100.0
352.411159624601 5.87888

>collision 20.0
42.0347864645054 0.940702
70.0659798767171 25.6724
70.1702991679912 1.19621
98.08411181195 1.81991
113.107818740193 100.0
113.237662730075 7.15071
141.101840901784 1.72915
196.083470985205 0.605848
212.081821348745 0.758816
224.081640663458 1.61037
252.076664822493 11.1515
352.177099894077 23.2285
352.409751635593 0.524887

>collision 40.0
42.0347311904849 5.71854
70.0661393304026 100.0
70.1703064286505 6.87919
98.0839106098937 8.40121
113.107303970092 39.1401
113.237318128112 1.66257
196.082437334402 6.08067
206.070229647684 0.892469
212.081350263994 0.708512
224.081788820885 6.46642
252.076655259181 4.39448

