>compound Dicyclomine
>formula C19H35NO2
>parentmass 310.274697999656
>charge 1

>ms1peaks
165.163944730912 0.532417
310.274697999656 100.0
310.428204440161 5.95957
310.50560675486 2.61205
310.646071464391 1.52737
310.699173479876 1.0541
310.773669985993 0.982998
310.814175838255 0.967235
310.856060075792 0.894647
310.940176654013 0.7793
310.982066286053 0.738313
311.049051369704 0.697005

>collision 10.0
83.0849221464959 1.36176
95.0847224791255 0.978521
100.11119820186 2.32655
109.100131299952 2.31474
165.162002665699 5.99274
237.182544050802 3.46845
310.270956480559 100.0
310.428269030694 6.19526
310.502957738118 2.60512
310.601176401593 1.39321
310.644488915305 1.61875
310.716229172532 1.01481
310.813568428835 0.950033
310.852913167251 0.867196
310.943676555064 0.744477
310.98007870937 0.698622
311.059535168086 0.617204
311.115520548602 0.570405

>collision 20.0
55.0548971381317 1.87914
67.0546280695784 1.67527
69.0702567572597 0.897439
72.081113433121 0.674386
73.0287298320544 0.906553
81.0703173430418 6.29781
83.0859059661355 26.6467
83.1695909657231 0.849913
95.0858961655975 18.9729
95.1749569126126 0.568394
97.1013422066236 4.53496
100.112207341948 26.8273
100.203128130208 0.87992
109.101125963753 44.1513
109.196449946886 1.82495
109.226096734053 0.720014
118.122668829353 3.8511
123.116501316587 3.13124
155.106515743302 8.14433
165.162929822677 58.685
165.278835511784 2.44552
165.318458306089 1.07169
175.147608452306 0.660143
237.184803955182 36.2412
237.322755182574 1.39149
237.371322997659 0.542773
310.273427463814 100.0
310.429349683329 4.96565
310.493003770238 2.11147
310.602830741789 0.898084
310.646408482307 0.986177
310.704821475494 0.708916
310.774346911341 0.639604
310.816444745014 0.657308
310.854929957754 0.596789
310.91409291708 0.552889

>collision 40.0
41.0395197766708 2.37161
43.0549646637196 0.95786
44.050364795502 6.24963
45.034338591918 1.73544
55.0548983075563 55.7374
55.1229454508082 2.23353
55.1435144637302 0.797651
67.0549458363531 28.0053
67.1303053223032 0.789851
69.070472192419 9.17327
72.081290022161 10.3283
73.029025059972 13.9701
79.0546704661261 1.29128
81.0703931748412 24.0391
81.1532357618443 0.599865
83.0856469495067 100.0
83.1689840307494 4.1759
83.1956276887809 1.85916
83.2388610065161 0.605356
83.2585654848963 0.539043
93.0701078618503 3.43356
95.0860009062318 44.7466
95.1750113940863 1.683
95.2027099188037 0.641271
97.101346306624 9.60027
99.0441459495883 0.913455
100.112339938928 29.1931
100.203041604895 0.744383
107.085661349994 0.59682
109.10110659431 66.2846
109.19667190088 2.67692
109.225742062328 1.02012
111.080326860461 0.69928
118.122376106516 2.84296
123.11663466502 5.63812
153.090592359594 2.73004
155.106739676333 38.2712
155.219258802864 1.25308
165.163389216371 2.65156
175.147801851315 1.2946

