>compound L-Glutamate
>formula C5H9NO4
>parentmass 148.060661440046
>charge 1

>ms1peaks
41.0383352719087 0.76166
64.0161930714019 5.56622
65.0166518649277 2.42295
84.045353347382 5.93973
102.055021377467 5.66564
106.044967335486 0.806917
107.048419023593 0.516557
130.048492101526 12.7981
146.979779998801 0.846429
147.029553588788 0.703512
148.060064587182 100.0

>collision 10.0
41.0388505910155 1.97203
56.05008733288 3.98716
64.0150500843745 2.74784
65.0196424197312 0.766971
84.0446110496846 100.0
84.2156319198578 0.54846
85.0285278960468 2.06493
102.054813097086 34.8144
105.953646677068 1.8709
106.003281304755 0.644019
130.050089133111 42.5833
130.432252613708 0.584606
148.060661440046 21.1496

>collision 20.0
41.0390172019784 5.61514
56.0503649921788 13.7478
84.0447148073067 100.0
85.0290767164341 4.45105
102.054930023717 5.05481
130.050107344784 1.21731

>collision 40.0
28.0174988715346 3.95319
29.0032486894761 1.31757
39.0208966846986 1.75075
39.3447132616468 0.929235
41.0391645206076 12.858
42.0311439944045 1.72998
43.0412058663205 2.49317
44.0111806072675 2.3014
46.0307395247686 1.97782
56.0500317263946 100.0
64.9286659430422 3.05451
64.9785792505444 2.3144
84.045776289791 14.0375

