>compound Diethylcarbamazine
>formula C10H21N3O
>parentmass 200.17609221883
>charge 1

>ms1peaks
72.044895795055 0.919998
100.076015997791 5.09027
127.086346142492 1.15691
200.17711688544 100.0
200.350679649917 8.96526

>collision 10.0
44.0139425236379 1.70449
72.0450049865957 14.5147
72.1491893285553 0.542974
99.0921602585486 0.86794
100.076188016528 84.4637
100.200700218049 5.31342
127.08643835651 18.4212
127.224027444792 0.59543
143.11794899302 0.674022
200.17609221883 100.0
200.35038119323 6.22675

>collision 20.0
29.0390301430849 0.6039
44.0140498018627 13.3569
44.0955926518261 0.548602
58.0658140980994 0.508581
70.0291998293782 0.584269
70.065632367951 0.613158
72.0451797620776 78.9089
72.149246999305 4.47675
82.0654862679628 0.547217
84.07015315836 0.747483
85.0764583781805 0.866821
98.0840650822168 1.54328
99.0921397316 3.05043
100.076247607579 100.0
100.200704513276 6.12674
127.08641343982 18.814
127.224055822982 0.589221
143.11797388119 0.52126
200.175605058841 3.25882

>collision 40.0
29.0390614924654 3.29954
42.0346942151228 5.25913
44.0141003806746 100.0
44.0956010823132 4.8909
56.0506406437582 2.75986
58.0659164712576 3.51747
68.0502307538824 0.718974
70.0291056509055 4.724
70.0651592421758 1.93967
71.0728402806711 0.927591
72.0450231134148 66.3578
72.1491768315157 2.49852
82.0656984523903 1.37972
83.0614074262045 0.696255
84.0708900285141 1.22532
85.07622010017 2.0253
98.0842642820555 1.75224
99.0918771329512 0.510538
100.075731831807 3.2039
127.086020639036 1.26929

