>compound Diethylpropion
>formula C13H19NO
>parentmass 206.155118582107
>charge 1

>ms1peaks
105.070151034416 0.726666
133.064300274956 0.756848
206.154208403164 100.0
206.332961585637 5.22015

>collision 10.0
72.0812977099789 2.89586
74.0969333420315 0.554193
100.112099454208 4.21429
105.069952064884 6.92617
133.064381997048 8.64073
160.112041818381 0.601734
206.155118582107 100.0
206.333503229496 8.21388

>collision 20.0
58.065959716228 6.98646
72.0813814699641 21.5306
74.0970250295384 5.23018
77.0388923259745 2.75908
86.0966267238176 6.23233
100.11232453037 60.4558
100.235331593782 3.34934
105.070079255413 100.0
105.199484412191 6.49789
131.072832147969 4.08756
132.08040142337 5.99843
133.064554475838 42.5477
160.111707791648 5.1509
206.153829011615 55.6184

>collision 40.0
30.0340444958911 1.16299
42.0348204211601 0.633411
43.0186542626354 4.98461
44.0142221367117 0.783572
44.0504469903332 34.5882
44.1335171639253 1.48944
46.0661682712287 1.15429
51.0237331396009 5.4579
55.0187697964832 4.60517
56.0504594098434 0.723676
58.0660341837206 37.6434
58.1628404968755 1.32803
70.0657588473294 0.763044
72.0814498785765 42.2474
72.1880210049402 1.66475
74.0970888592807 3.44827
77.0390773651013 97.9826
77.1498697525984 3.7826
79.0546855978499 51.8749
79.1659184337843 2.10882
86.0966086609398 1.90875
90.0468629069322 0.578474
91.0541363262575 3.2043
100.112189675484 69.0713
100.235296022599 2.96217
103.05412242983 32.7072
103.178679698821 1.1128
104.060662364612 0.825454
105.069491443465 100.0
105.199565821795 4.55204
106.065082506378 0.567736
115.053886358942 4.55096
117.058031326491 11.7967
128.061438867357 0.74665
130.065000778268 20.2541
131.072751818172 5.73335
132.080579466676 3.52087
133.059105473449 0.836615
134.06781161867 0.794794
144.080660186472 1.23278
145.088289590066 0.619116
158.095788241439 0.795201
162.091152969916 1.08914

