>compound Phytanic Acid
>formula C20H40O2
>parentmass 313.309215275189
>charge 1

>ms1peaks
29.8953750463455 0.513359
40.9601878128685 0.634591
43.0561908406751 1.08376
57.0699503631592 1.48284
71.0840914633221 2.44867
81.0716360535402 0.828625
85.0962519046387 1.43285
91.060456131602 0.703996
100.120398773718 0.554192
110.102931721402 0.563999
111.113599294369 1.57043
149.127570728219 0.534957
149.572793500989 0.63064
154.136152614494 0.71027
171.135817710519 0.960272
205.087691457996 0.974423
209.178366914819 0.551277
255.225970156801 0.601145
267.259666786119 0.584135
271.984979983476 0.891604
277.252688735581 1.06602
293.285933107452 0.886065
294.284564875669 0.992896
295.180506581951 0.677489
295.260604245903 3.40624
312.296597530339 37.1137
312.504617226068 0.620613
312.613803008485 0.565822
313.007027260231 1.22135
313.30844786037 100.0
313.51755778903 1.58517
313.599919694171 1.15133
313.699075696874 0.790933
313.792578739043 1.27852
314.004489356953 1.05113
314.18704471927 0.634572

>collision 10.0
25.2654536458704 1.2849
41.0373553192264 1.07736
43.0179145460072 1.38398
43.0555258668582 2.56746
55.0532786523365 1.53654
56.0583045097041 1.20994
57.0708251469888 20.6907
57.1791040240584 0.585648
58.0750774356038 1.31515
65.710435518053 0.560362
69.069034144413 3.20764
71.0538631360897 1.95412
71.085563903862 17.5072
72.0937852624217 0.607216
81.0717106392934 3.67841
83.0870807193456 4.50344
84.0878219435554 0.706475
85.1016629014022 11.9042
85.1523094655258 0.598218
87.0426566282074 1.62909
91.0545647388023 3.41337
93.0711738394575 1.06581
95.085680170249 1.4657
97.0614768818252 0.751021
97.0975940419972 2.34748
99.115724120223 2.47212
101.055936269191 1.088
103.075140326289 1.1181
109.10072838297 2.11196
111.075776349847 1.57576
111.118357133796 5.78968
112.117597334116 0.686687
113.089656700277 0.576615
113.127385920979 1.86651
115.077271069181 0.994792
117.087344506002 2.82939
123.113236106578 0.882195
124.126391389151 1.3464
125.110183812149 1.37337
129.085299700114 0.646848
129.125993085285 0.790082
131.109066759131 1.46709
135.116653549574 1.95421
137.131453046474 1.0185
139.108405887531 0.826364
139.152283787655 0.839552
140.119366149989 0.798727
143.143002463151 0.598351
149.022588848535 5.03191
149.132494956475 0.761686
151.145957323906 1.2275
153.128906020251 1.40647
153.160154806542 0.676022
154.12673994737 1.30512
154.161793503384 0.813635
157.12161136995 1.41397
159.083634905069 0.626998
161.13885404302 0.573386
165.160016858487 1.19799
167.141519129743 2.52133
167.173951910762 1.24476
178.998483798076 0.758098
179.17996316199 0.564212
181.149606922778 0.640871
181.186490247847 0.786011
182.162355277555 1.09454
183.071552819974 0.798827
183.13510462308 0.977492
185.157921369263 0.735491
185.778606139124 0.551827
186.157102865598 0.582624
187.16439349929 1.23975
191.179587008489 0.641619
193.172382774757 0.90672
195.169285219073 0.638078
199.170334572751 0.805862
200.164854595656 1.11552
201.181960287332 1.12847
209.180224004503 1.10457
213.185580621531 1.67529
219.210378018699 0.666665
223.133256008355 0.570336
223.206355246494 0.900626
225.90311825714 0.641828
227.198830320468 2.4171
230.964879102938 1.14995
237.138733601854 0.850515
238.181741728671 0.701907
238.229096518946 0.674371
257.248036741279 1.17917
267.275832589791 1.19723
272.434654716208 0.633065
276.272727236063 1.2132
277.255865548766 1.85915
288.503703632308 0.800775
293.274684140681 0.919872
294.28241600237 1.78102
295.267184252666 3.8027
297.261800895929 0.63695
311.302607003531 0.854762
312.297607881373 29.266
312.354020444794 8.42728
312.462785366962 0.593111
313.032075954901 0.613752
313.12276317751 0.677117
313.20950531764 1.19729
313.309215275189 100.0
313.513831224469 1.28066
313.603044632909 0.756919
313.67910027457 0.706985
313.718784764462 0.606311
313.805827336613 0.942401
313.886799163039 0.640681
313.974495634544 0.595969
314.211207094398 0.839552

>collision 20.0
43.0182999850397 3.07216
43.0555943182852 26.6472
55.0555710365155 5.61599
57.0327805358768 3.73196
57.0701410419482 100.0
57.1222893621822 1.93939
57.1398211718386 1.95461
58.0722414874075 1.16099
58.9584232782294 1.49032
59.0500107497335 4.01716
61.0321049742483 2.98299
64.9795379335757 1.08495
67.0572913438391 3.47945
69.032372117748 3.53482
69.0715926291222 8.91951
69.3155747490781 1.05289
70.0739884889174 3.80166
71.0473473044611 1.64901
71.0860567312188 52.8706
71.1677578014329 1.24593
71.7756592190751 1.21504
73.0659976094373 1.9922
81.070228232489 12.5448
83.0846935145416 14.6369
84.0914699574719 3.02853
85.1014240124163 40.7738
86.101136087638 2.11747
87.043969957752 10.553
88.0476088618578 2.13712
91.0528206961307 9.41336
93.0703771530695 8.66048
95.0842243916478 6.19577
97.1019538202604 11.2566
99.0445041784172 1.70746
107.081236296258 2.85756
108.085137965664 1.32522
109.023878233077 2.05131
109.099238379578 4.63982
111.040484751447 4.24768
111.077446823826 3.28699
111.118888787805 4.74061
112.119380320953 1.09046
113.060329079105 2.49334
113.125337126097 2.3109
115.073368780593 1.16133
116.086231947234 1.21266
117.096478928378 2.72074
121.101088081971 4.33266
123.113598760519 5.80018
125.098311717874 1.05321
129.090486448252 2.7791
131.102812577268 1.21562
135.116190000311 1.94762
136.974713151426 2.67259
137.131032797791 1.2381
139.110664110423 3.56493
140.107985084143 2.52769
143.139415169357 3.0748
147.108981696528 1.51201
149.022630560681 5.19905
149.134840187421 1.66244
150.138084800645 1.42178
153.124711203615 2.3177
163.147474901024 3.50956
167.181279349006 1.05342
177.161184784585 1.81342
179.012879850009 1.16437
195.168985539602 1.68965
204.774714605308 1.83708
205.461472448546 1.05277
219.201164470034 3.33344
230.960645455586 1.5795
267.26829000462 2.38266
276.269920250688 1.73714
295.263394317747 1.05915
312.294255144791 4.23616
312.36473678896 7.46094
313.353997232873 4.07953

>collision 40.0
41.0385517540774 12.6996
42.0428669486299 2.78363
43.018660087515 6.95258
43.0548238224039 70.5937
43.1036933759109 2.44835
43.116493357803 2.02485
44.0567265067957 3.91424
55.0547650301427 29.8208
57.0303936355479 1.85328
57.0706898622835 100.0
58.9594288867042 2.822
59.0478959665943 5.30801
60.0767754118227 2.75819
61.0300791283394 2.37766
67.0553313685047 5.35379
69.0335899324117 21.802
69.0661050343709 14.9482
70.0697966395826 4.24023
71.086344187495 19.853
73.0310904886774 5.82664
73.0652989409135 3.0212
77.0376587846794 3.1324
81.0106762333535 1.69986
81.0703409627185 12.8792
82.0373277923307 1.90752
83.0860620136619 2.62244
85.0672908357338 3.98128
85.100559570505 5.94342
87.0449506690598 14.4481
91.052763484726 15.9545
93.067435030924 1.74256
94.073332921315 2.44275
95.0873260857807 3.79222
96.086899525811 1.7842
97.062181455112 3.88913
107.086906807561 2.13619
109.096695378658 2.51346
111.043515470734 2.50891
136.97519878947 6.20915

