>compound Digoxin
>formula C41H64O14
>parentmass 803.41853137712
>charge 1

>ms1peaks
760.564537145822 0.539902
802.55392299931 0.907273
802.90130913069 1.32429
803.225984774224 1.17457
803.422962966595 100.0
803.673543621316 1.7898
803.741282638067 1.64891
803.914765502745 3.69407
804.1038417293 1.23629
804.400485492748 1.32863
833.40048549275 1.0e-13

>collision 10.0
283.128479054247 0.613805
413.178679555687 0.507217
802.578924942953 0.583135
802.747784992014 0.726204
802.882478710728 1.57758
803.215059631156 1.42184
803.41853137712 100.0
803.72302569845 1.27191
803.908411126415 3.07012
804.09420572491 1.1648
804.180851142146 0.812298
804.405360913297 1.9093
833.4053609133 1.0e-13

>collision 20.0
42.7871409867422 0.537689
801.924019163961 0.885407
802.43477353372 1.01477
802.889893643711 0.7739
803.086704248247 0.777607
803.418193068415 100.0
803.795203465877 0.878832
803.913916811526 2.94756
804.413348837151 2.04323
833.41334883715 1.0e-13

>collision 40.0
413.237681759755 0.502005
802.54473283586 0.920185
803.203035911289 0.692781
803.422150021593 100.0
803.68769912052 1.74035
803.791044073932 1.49129
803.948503089928 1.30322
804.016106502288 1.10536
804.118905889346 0.855747
804.212275171629 1.27241
804.416457768658 3.60624
833.41645776866 1.0e-13

