>compound Praziquantel
>formula C19H24N2O2
>parentmass 313.190275659002
>charge 1

>ms1peaks
55.0541172456013 0.660057
83.0865971909776 0.7274
203.118016984561 8.3607
312.18652922234 0.813797
312.362164085582 18.4632
312.971987763758 1.08959
313.190168875214 100.0
313.362491194146 2.31621
314.112029845999 0.628781

>collision 10.0
55.0558461910323 1.3972
57.0738419412785 0.826653
83.086364149863 7.56712
91.0548196586482 1.38185
132.082686318265 2.2369
146.099392775042 1.01792
149.017290909794 0.739141
174.090604266183 1.31758
175.124951137848 1.44792
203.11736462494 57.9145
234.946476964329 0.77643
267.150590139189 0.61499
285.192604658934 1.35789
312.176887759773 0.920024
312.262095622321 1.87613
312.361720814308 33.3908
313.190275659002 100.0
313.361763407923 5.15401

>collision 20.0
55.0556385429123 4.25987
57.0689148093786 0.62189
60.0811750436823 2.38199
74.0985059600053 0.589691
83.0861955668284 31.886
91.0548849434604 1.64211
129.069814709839 1.1087
130.069662253155 0.924415
132.081121259579 5.81606
146.098534367589 3.98916
149.022267853272 1.39682
154.942213829163 0.614813
156.935413914088 0.747977
158.095603586243 1.72761
173.105975353095 0.728227
174.092120758766 9.86685
175.121973491025 4.3621
184.102978839462 0.681462
203.117904275583 100.0
203.295824075412 0.929304
254.137956606251 0.600131
256.171546136859 2.81361
268.264194255094 1.39232
285.195236790449 1.81377
312.255441113119 0.561383
312.363347387616 33.6871
313.19082386083 11.0075
313.361229655531 5.64264

>collision 40.0
41.039317947258 3.20327
43.0179827754247 0.892886
43.0554966500953 12.4988
44.0496485630444 3.00294
45.0565005875384 1.66175
55.0550253066773 100.0
55.1486114753911 1.02064
57.0726493925112 9.62985
58.0301898950814 1.64333
58.0655160624165 1.14244
60.0814573042826 21.8346
62.017683050587 0.888226
71.090512209835 2.10604
72.0432608732982 5.87416
76.9289825139268 1.87294
81.0746281070158 1.81904
83.0857715084313 94.6225
83.582517171489 0.89223
91.0549235849363 7.45017
105.066968246998 2.21146
107.058441057602 0.903447
109.06348356525 1.90238
111.058127246458 1.84828
117.06728346123 8.08753
127.056054873561 3.2971
128.0630368936 1.55353
129.071160295388 9.56311
131.070938096926 2.80813
132.081355391862 59.188
144.07793735508 3.72001
145.085258417632 2.27568
146.096575245317 11.0984
154.94437560423 2.26886
158.094217604367 3.34049
174.090857619253 47.6394
175.125060813797 3.83957
176.106773379115 1.06486
185.102418507008 1.31514
203.116826298298 19.1305
295.141818064344 1.01921
312.362160940532 6.00183

