>compound Prazosin
>formula C19H21N5O4
>parentmass 384.166809771916
>charge 1

>ms1peaks
384.167300754798 100.0
384.406563750284 3.74089

>collision 10.0
247.118257425224 1.08332
384.166809771916 100.0
384.406564595309 5.85335

>collision 20.0
95.0130433999736 2.01827
138.05502487323 2.33576
164.070737523844 0.91845
231.087436243474 0.635918
247.118856599975 8.47132
316.14051353479 0.65817
341.124118180556 0.898158
366.155975965837 1.84857
368.135852053388 0.618352
369.14250581838 0.587524
384.167538577494 100.0
384.407051351809 6.16854

>collision 40.0
39.0246297353334 0.569681
44.0507995514457 1.72028
67.0186941738388 0.619958
70.0662426897631 2.18972
94.0295657132802 0.933099
95.0136924422228 100.0
95.132626258767 2.91321
120.044823754231 4.41827
138.055536787032 36.4759
161.070691755576 0.501617
164.071296052792 15.8829
174.089766875808 0.749703
177.069791050043 1.55151
186.087433636186 0.957131
189.069474901 1.04986
191.081575198602 0.698936
201.076744310736 0.549807
202.084668495528 1.96861
203.092762797082 8.54609
204.076846569072 5.52036
205.075647492123 3.74526
206.083014626598 0.824919
215.092661770695 0.539416
217.073216084954 1.52336
219.08866254052 0.741396
220.097906267138 1.57275
221.103908896407 4.58517
222.087640672825 0.741936
229.076754588387 1.75755
230.08647514699 0.711512
231.088188344446 40.3175
231.275292059942 0.662741
232.095754799848 14.0004
233.10409349008 5.91723
245.10408053674 4.67917
247.11951294924 55.769
247.312107519723 1.07112
248.105817294427 0.524521
257.104066840585 2.72731
258.106046847998 0.758602
259.117168551122 0.995079
272.115503126704 1.26482
273.132013478879 1.57161
274.128930929053 1.29554
287.135491642745 0.544295
288.145733022938 2.14025
300.109650704333 1.34898
315.108531386284 0.949641
316.141118801242 1.13443
322.130468127988 1.78576
325.094583352399 2.09669
326.10209660773 0.502789
338.15970721621 0.536209
339.133163505209 0.76063
340.141045967862 1.81205
341.124338673599 2.41659
350.125562236745 8.1568
351.132961876398 0.744222
366.157207853297 6.0183
368.136216569404 13.2572
369.143790413304 1.5911
384.166965836801 11.029

