>compound prednisone
>formula C21H26O5
>parentmass 359.188841900199
>charge 1

>ms1peaks
147.07987894011 0.928221
213.128477361553 0.584613
237.133144001223 0.941133
253.123518266748 0.728095
265.15807483842 1.22221
295.169968337767 1.00469
305.15656270113 1.12571
313.184908062097 0.876098
323.163516313691 2.10847
341.177551121061 5.73094
359.188841900199 100.0
359.35352378221 1.70588
359.434051081634 0.996403
359.525390939004 0.812364
359.597510361181 0.532629
359.805458547375 0.68257
360.095424143158 0.537706

>collision 10.0
81.0723635843331 1.14662
85.0657060288924 0.730979
93.070469563727 1.67862
95.0856101079147 2.42494
101.059350823087 0.953697
105.070873746855 0.601993
107.083645960175 1.3283
109.077120874998 0.567008
119.082461678285 0.848005
123.07985039425 1.26194
135.082630982392 1.44557
137.093475224492 1.21963
143.079436545 0.559036
147.080465437414 11.3673
153.094109112208 1.78035
159.081323835488 2.01212
161.096213977688 2.32882
163.075170476578 0.815982
165.097613700394 0.881924
171.082783211052 5.07229
173.099226857383 3.24995
181.083378587916 1.4676
183.099760292671 3.83317
185.096522028263 0.620688
187.07122632255 1.39248
187.108285445031 1.20304
189.093900405975 1.70485
197.098559989862 6.45427
199.110417617598 1.64608
200.401237395112 0.587511
201.098625673561 0.759459
203.12297659398 0.942614
209.105428126756 1.34712
211.114392901558 1.32159
213.129207639237 6.4066
215.10913013895 1.56275
221.093776550203 2.34936
223.114812472743 0.85268
225.133214226238 2.11126
227.13126947781 0.865578
235.112656587424 0.916754
237.128706764792 10.6498
239.123854921356 3.07726
249.127657406386 1.50001
253.124622514511 6.64208
255.138339404631 4.43064
261.12972041051 2.78225
262.135409395192 0.508238
263.140516299944 6.93993
265.159028867669 11.7089
267.140532468241 15.0372
269.15827324144 0.590853
275.145758970466 0.871288
277.159845457445 6.95162
279.1491664503 0.627362
281.151362672928 2.38913
283.167343412625 2.92648
287.14546423107 3.64352
293.151943890546 3.26101
295.173961890107 16.4513
297.149803167465 1.02731
305.154679344471 13.4964
311.159980823162 2.73114
313.181271922509 29.9674
313.383580044441 0.571366
314.257206774095 0.51093
323.166939051228 28.7678
323.328506091587 0.58769
341.177327345342 61.6464
341.339558586728 0.810458
341.563490628112 0.576761
341.816294346809 0.642236
342.079198772236 0.503759
359.188658621818 100.0
359.360334916306 1.37209
359.470215674106 0.629786
359.54038177941 0.777965
359.611962952577 0.82576
359.70928195358 0.722478
359.908507758098 0.94652
360.022101584928 0.836997
360.122563616887 0.548813

>collision 20.0
43.0202581334978 11.464
43.0561575221591 4.02559
55.0146287075136 2.07177
57.0697109520816 1.28323
67.054549967589 1.88705
69.0345255831007 1.88035
70.983150538749 1.25133
73.06607377259 4.25605
77.0432989189338 1.61722
79.0539823258539 3.33177
81.0720909824522 7.09363
85.0679673391187 2.99053
91.0549019953286 3.87994
93.0700773168687 17.6688
93.1119221043293 3.83224
95.049437660008 14.0943
95.0857847012908 15.6335
97.06393113532 10.5194
99.042514294917 3.65754
99.081875252648 2.6479
101.057490290988 9.49602
105.069312565411 6.28725
107.085292732574 13.9535
109.065107581004 12.1547
109.097594066968 5.14157
111.036769664674 1.85946
111.078368630927 10.5623
113.019996292756 1.31091
113.062248485143 1.86969
115.050251449329 1.38369
117.068885189668 3.63739
119.085512481122 6.96082
121.064370738008 16.4902
123.079376573008 10.4882
125.093674928966 4.42309
127.044212167608 1.09361
129.064597437585 1.58397
131.085307107132 5.877
133.063708633439 10.1415
135.079812168943 30.0204
137.057578427976 2.4926
137.094580088808 11.3819
137.129411289779 1.76982
139.074087728945 13.3232
140.050425116566 1.53002
141.072583138058 2.63035
143.075669402393 2.48391
145.062598633463 1.72701
145.848253234045 1.63427
147.079606559315 100.0
147.191292969328 2.08929
147.540435975579 1.10407
147.717046667873 1.23718
149.093667498168 3.16626
153.088909784663 8.0076
155.066333215077 3.11537
158.080490988497 1.52547
159.080636288108 23.8938
161.094665001546 14.9344
162.539874770839 1.16276
163.074827964149 5.48672
165.091530254542 3.93498
167.062506759399 3.94481
169.095694375716 1.61701
171.079669968667 59.768
171.163094907419 1.365
173.095854750405 30.9275
173.560420649099 1.15077
175.065665845874 2.73206
175.106542743249 1.41036
177.094060775824 3.37874
179.407893496898 1.21852
181.088764338188 7.3358
183.098637089301 8.00419
184.082926597476 1.49222
185.095653531233 10.3535
185.136181692372 2.33207
186.730154526754 1.28968
187.083810776792 21.1281
187.440738053984 1.09192
189.090412590384 6.66268
189.135567782839 1.12381
192.085997050576 1.41036
195.076117231989 9.75213
197.095554940282 33.1199
198.118804127215 1.38862
199.107714275918 23.4429
199.28282939997 1.11909
200.897050036046 1.25917
201.123229970441 6.50006
203.108328752602 3.90594
205.095806657176 1.70681
207.12139040907 2.97854
208.086562998976 3.58081
209.092488809555 12.0441
209.56367442316 1.7789
210.105745676374 3.14183
211.111449894412 14.0937
212.117513975033 3.85772
213.125542558018 23.7708
215.106301053464 12.7117
219.108849661018 2.7324
221.096395565998 10.4016
222.103030183609 8.84353
223.11152906409 15.3715
224.118494016791 3.90866
225.12388578034 14.9135
227.126294233981 12.038
231.114963294785 1.17461
233.115048093609 1.1647
234.099816331175 2.26742
235.107236343222 15.9501
236.112337503686 1.1784
237.126996829482 62.4111
237.244573277696 1.80188
237.266398306764 1.73176
237.457667344685 1.23666
238.129504121913 2.98293
239.125422634636 19.6525
240.120011055066 1.51737
241.122416126606 3.16925
242.121137000512 1.21655
245.124712854501 1.53145
247.106474229553 4.51652
247.145884556625 1.9932
248.115777601379 5.01915
249.125222426432 13.5633
250.121492598469 1.78098
251.14245771996 7.16937
251.259051624615 1.32437
252.14017813069 1.52919
253.128680795967 33.105
253.786460548198 1.17098
254.11722807037 2.515
255.138739534587 36.1068
256.422638058034 1.36536
257.050741972947 1.92327
257.116007210878 2.59363
259.130565839795 2.84889
260.122194358837 3.07039
261.127746759544 19.3005
262.131357532377 9.75494
263.142983821312 38.2512
263.24840915664 1.38862
264.152950986654 12.9029
264.399568647747 1.11965
265.159411565969 50.5807
267.141201497408 50.3425
267.404973984069 1.72232
269.157653251047 1.55986
269.248931607244 2.40037
272.120093038371 5.10446
272.974636035388 1.59265
275.141995613893 5.6799
276.157433572926 3.00303
277.156386198174 43.8482
279.137328878675 7.72454
280.152834562496 2.36562
281.152352832395 21.9561
282.15362808761 1.56194
283.167195685066 6.21638
285.154451192108 1.39431
287.14185823753 15.7768
290.125317636619 6.25099
293.157659851261 17.0923
294.155079890193 1.13656
295.167292944551 59.0095
295.266758146375 1.81793
295.332546170656 1.09213
295.631811056551 1.20657
296.149851797312 1.26008
297.150220102261 6.45976
305.153565441831 22.3544
306.611356333874 1.43468
310.964409160084 1.26478
311.161646922613 7.62542
312.16216026766 1.15924
313.181384196208 34.4444
313.404839932918 1.0952
323.161387665558 37.0947
324.607462719517 2.07554
341.174701445707 46.8257
359.183094023181 7.86522

>collision 40.0
41.0398815719901 4.47067
43.0188775507876 22.1047
43.053374821797 5.28311
45.0336436973003 7.82983
49.0287075840298 1.78023
55.0190785423056 4.87529
55.0547074721464 21.1094
57.0350398043544 3.64829
57.06852771964 2.30734
59.0482877316523 1.55054
65.0379973497758 4.56302
67.0557107355206 6.71211
69.033861703927 8.50587
69.0700474220262 6.52079
71.010173324279 1.80098
71.0462110895187 3.27234
75.0478900639125 3.01067
77.0387631598731 13.2329
79.0201620341706 4.09866
79.0571096022463 12.4998
81.0294162013328 2.75982
81.0701419318033 16.0125
83.0504775288852 5.75107
85.0266162182122 2.5983
86.1444414820116 1.95981
88.0722707465958 1.23418
91.0560650648997 26.8291
93.0700949767443 24.3289
95.0529717904255 11.8438
95.0864115859752 29.9455
97.067419129103 7.44454
99.0458952643429 3.47827
102.047545131427 2.11296
103.045426979705 4.11911
104.059864976872 2.61438
105.07053042844 19.8747
107.086053653143 27.4908
107.49752515205 2.43977
109.065358073618 7.78357
109.10112585884 2.75775
109.521280823924 2.12023
111.077114811691 5.7374
115.054690948295 6.99379
115.832034016785 1.18832
117.072394386873 9.47193
119.08551501254 21.8663
121.065287138531 40.9848
123.081320335696 5.06742
125.066666568038 2.57067
128.062624129395 3.68032
129.070491994073 12.5408
130.078460354212 1.86835
131.087670285774 12.2787
132.057737111886 5.54473
133.063457045627 8.89757
133.101755742533 3.95697
134.069508666307 1.40222
135.081731782713 20.6149
137.09777110454 2.06885
137.631809799328 1.7319
139.07328046863 3.72407
141.070537018469 8.99486
142.074873850892 3.14705
143.092519746438 5.94323
144.064041433626 4.99265
145.066653433054 28.5406
146.073254591691 8.73166
147.081136126075 100.0
147.19463739413 1.46012
147.300759989709 1.40422
147.422059144751 1.97712
147.636358382252 1.26281
149.06392475113 3.29798
153.069780592309 4.87354
154.072619036332 1.57409
155.086124646484 5.99221
155.432034965969 2.52829
156.091956538943 1.89947
157.086494469907 2.548
157.534998091963 1.41718
158.072192922742 18.6483
158.741507783279 1.60515
159.081420569029 38.6696
159.152571508393 1.60504
159.182816707015 1.32528
160.088775991418 2.96336
161.094838587179 9.42299
163.07189931029 2.66379
165.063247302413 4.00079
165.104071298966 1.45922
166.076527462948 4.29067
167.085056861402 4.32238
169.085139513938 6.07045
170.078380455049 5.16007
171.079956245787 87.9401
171.197435263303 1.33308
172.090882634361 2.69766
173.096699790106 35.9411
173.161912809088 1.8385
175.118448128776 2.88262
176.119324111792 1.52479
178.078048962993 5.32355
179.086764374455 21.2088
181.091389748691 6.11678
182.073120002031 12.4904
183.086558384762 16.8293
184.088966749459 5.02985
185.095383081508 11.6018
186.103822486833 3.42389
186.282119090264 1.25965
187.11025288677 9.99237
189.082234596838 6.16481
192.092087429562 4.71225
193.101409492675 9.20873
194.084973209929 5.0861
195.082265639348 22.5268
195.771444057662 1.16797
196.090694995941 11.4134
197.097257388357 30.2417
198.106471904289 2.98349
199.116627945144 13.7471
203.086595942904 6.54391
205.081270441575 1.24192
207.100310059816 4.26912
208.087451933586 19.6302
208.165725086002 1.60553
208.682985851165 1.17068
209.095986632361 27.7369
209.131569649419 7.08042
209.453888194694 1.32097
210.106210475014 11.5295
211.113795381473 13.8336
212.11521926291 7.19738
213.098128005699 2.75839
215.096853339008 4.76146
216.087747732761 2.55378
217.102330703278 4.17661
218.070754628308 3.8939
219.079741720891 6.18367
219.120603359921 5.29455
219.166765613395 1.57598
220.091340954461 9.69821
221.099529769566 24.4431
221.181193028281 2.13443
222.104068640792 35.851
223.113745060885 14.1909
224.116351203781 11.1517
225.127941839812 7.82152
226.092745308675 1.57647
227.099751600884 3.16266
227.146498905344 6.5024
229.107672276371 2.04934
230.109454185154 3.3313
231.086890814338 3.21038
232.101422015956 5.76126
233.101333738302 4.02719
233.146124344896 1.51749
234.103840268153 9.81249
235.113442491042 16.0946
235.1873473926 1.43116
236.114537517037 3.62013
237.124662551315 23.9594
238.128681168487 7.45453
239.138893491289 9.45457
242.10114882395 1.39711
243.118671769568 4.18949
244.129875904652 1.80717
245.091443859029 3.93786
245.145550626628 1.62146
246.111873276248 3.47422
247.115416251693 7.78223
248.122441335693 10.6789
249.12962222424 14.5978
249.23552318823 1.25704
249.438438895357 1.75578
250.131435100113 1.45913
251.148574239552 8.5616
252.10567698761 2.17832
252.145928038625 1.49682
253.119064771133 2.39881
255.140476856074 4.73679
257.096106704992 1.60986
258.100767876719 2.41084
259.112735309029 1.97104
260.120534797426 2.04623
261.12957963361 7.73879
262.140865238727 3.97533
263.149447885522 3.79446
264.030922212166 1.30791
264.156478674916 7.18224
265.157190874754 9.32839
269.153089827625 1.47468
272.119785426338 1.95419
273.129910908523 1.46205
275.151285637811 1.40563
277.135201959132 3.47471
280.14660762307 1.8127
290.130231716773 2.31603
291.138040872578 1.55137
293.139919238721 1.16748
305.152073998946 2.07439
310.213724058195 1.22819
357.629150559581 1.45953

