>compound Primaquine
>formula C15H21N3O
>parentmass 260.174538104969
>charge 1

>ms1peaks
86.0973379266659 3.34117
175.08724486482 2.55421
243.150659219783 5.78568
260.175229667436 100.0
260.32066538987 4.89153
260.378041123272 2.19206
260.479256145314 0.955602
260.518644979649 1.05039
260.581989389796 0.708409
260.674002054151 0.645876
260.707613500995 0.607231
260.759002111747 0.562871
260.822643798149 0.502214

>collision 10.0
69.0706652664589 3.5895
86.0960338370255 84.4832
86.1821417871394 3.55092
86.2079365487251 1.4243
86.2946224206997 0.504832
175.086588589962 49.1205
175.207148057445 1.49708
175.246454300269 0.646296
187.086368074427 1.04389
241.133497632645 2.42195
243.148071751713 100.0
243.288497833169 4.04012
243.339836376786 1.76474
243.407110312631 0.684603
243.478961293966 0.707165
243.520628475672 0.520218
243.56454534205 0.507068
260.174538104969 70.069
260.321770352311 2.50892
260.370750061672 1.08049

>collision 20.0
30.0339835010036 1.37343
41.0396906026095 2.73557
69.0706089138515 20.1116
69.1464058486423 0.512886
86.0957000926116 100.0
86.1820177835245 4.49636
86.2081783361221 1.82247
86.2515804003222 0.624783
86.2722737616491 0.554091
86.294602612081 0.657339
132.068175006617 1.15671
160.064136832478 0.792228
174.078596001807 1.81563
175.086453928362 50.5932
175.206995143778 1.62776
175.246462223825 0.687609
187.086363150392 7.07535
241.133594600066 12.4793
243.149579068322 43.5192
243.28806018208 1.23099
243.33850565536 0.557107

>collision 40.0
30.0343434892458 7.39924
39.0240988281072 1.35595
41.0399001232619 70.5327
41.0983144558229 1.68198
41.1163486344221 0.65377
43.0556341136688 0.507019
44.0509159937136 1.18379
67.0555309633568 2.40437
69.0710464542204 93.728
69.146590842358 2.41711
69.1707719254473 0.989078
79.0432312122762 0.612607
86.097489908225 73.3082
86.1822294265 1.68641
86.2085266355173 0.688803
104.05000923022 0.561518
105.05791910151 0.577848
116.050282205751 1.06709
117.057987118254 2.43007
130.065408653997 1.76673
131.061245073465 12.2377
132.068985406738 100.0
132.173104428435 2.23853
132.206972656056 1.08202
143.061107121903 2.89173
144.068917379511 26.9949
145.076712916918 16.0699
157.076655696832 1.50323
158.080295575293 0.659088
159.068465835125 5.34241
160.063775472892 33.3367
160.178278729415 0.587913
172.064272527237 6.49912
173.071769312612 2.10883
174.079603897056 12.1844
175.087396811732 71.3627
175.206949229008 1.45486
175.24522537534 0.694124
185.073882015599 1.05908
186.080105442368 3.50158
187.087306780619 17.6611
198.113381833385 1.15055
199.087339701451 1.63166
200.096474480069 0.646541
201.103253956669 0.692737
226.110789177793 1.42077
241.135018341723 4.29325

