>compound Chenodeoxycholic Acid
>formula C24H40O4
>parentmass 375.289447296663
>charge -1

>ms1peaks
135.118208231388 0.523375
339.269743299952 2.55893
357.278848043622 82.0066
357.441188812056 1.34105
357.499386329523 0.767679
357.557471024393 0.563815
357.656526612887 0.565465
357.916001873238 0.553587
358.254882365509 0.75892
374.306055271362 1.16308
375.109046967444 0.68044
375.289550545959 100.0
375.462984117627 1.23957
375.517494633078 1.13852
375.599586497334 0.780109
375.733811860701 0.649714
375.844303214991 0.565108
375.930836522471 0.624982
375.974761880574 0.568699
376.02757497078 0.538715
376.151542989685 0.542768
377.15154298969 1.0e-13

>collision 10.0
81.0699181263622 0.709997
135.116831944403 0.888992
149.13165700196 1.28312
161.134520980235 0.890378
175.147921517386 1.6273
181.121665247046 1.40111
195.138433780374 1.34188
201.165376582438 0.868144
203.175367464559 0.936805
207.13541241588 0.890149
215.178568589128 0.955775
221.154741925193 0.640509
229.195042084814 1.45873
243.20992892526 1.06717
247.16902246605 0.811076
261.181891842582 0.742564
275.200696990294 1.46852
321.257191468962 1.61788
339.268286794473 5.71554
357.278377773021 100.0
357.4998891736 0.912495
357.582556566691 0.608166
357.679070067325 0.683151
357.781532801055 0.545812
357.885210099218 0.539577
374.326581992353 0.506333
375.289447296663 15.4657
376.28944729666 1.0e-13

>collision 20.0
67.05413472648 0.975014
69.0707250684404 0.597237
81.0712595206881 4.54789
83.0493153868612 0.509602
83.0834362984024 0.934245
93.0706456675975 1.56959
95.0865611852308 3.98041
97.0629380138961 0.567585
99.0436895648488 1.41481
101.05814173319 1.74891
105.067384360111 1.61447
107.086106858951 2.58066
109.100178711183 2.09165
115.074107480789 0.838546
119.084494874603 1.78416
121.101176671003 3.69117
123.116007762266 1.09089
131.084659304431 0.784637
133.101210880672 3.04397
135.115623893613 6.65495
145.100316214315 0.654686
147.117593599287 6.12467
149.132461857422 7.29898
151.119506501465 0.73922
153.091924284311 0.968425
155.105238770318 0.656186
159.116677555306 1.54893
161.132305831659 6.75785
163.147558253188 4.281
167.105928072987 1.3675
171.113626655273 0.554875
173.132132386929 1.76589
175.148179076407 9.71167
177.142221462287 1.52848
181.121177784345 5.69583
187.146372984817 1.69443
189.163647380509 4.6147
191.139372700207 0.92296
193.120696934699 3.35606
195.135914016583 5.58117
201.162664578615 4.90963
203.178726996934 3.40078
207.13790036415 3.43419
209.15567783947 1.95575
211.149730239505 0.729887
213.162688945244 0.532168
215.178428877006 7.80591
217.193977304463 1.78311
221.151495082745 4.35363
223.167676803073 0.611744
227.179399361553 0.505018
229.191776039464 3.91842
235.170070850786 2.33186
239.179270996984 0.660581
243.210335597255 4.29481
247.170024704649 4.93996
249.181679611297 1.24116
257.226475396428 2.40163
261.185513503797 2.99952
273.178503931129 0.598796
275.199523857693 6.12148
289.216057243552 0.98348
297.25199789674 1.02625
301.21445384623 1.56342
321.259336744419 3.99481
339.268462918192 5.13222
356.261947004134 0.69079
357.278504694852 100.0
357.514379148355 0.91374
357.646244207933 0.649136
357.715841194418 0.51908
357.826548802194 0.773217
358.032522399762 0.512193
358.276815199624 0.600955
374.352881696611 0.613426
375.289527161777 0.845055
376.28952716178 1.0e-13

>collision 40.0
41.0382839838426 3.46107
43.0198863934143 4.79148
43.0543784691164 3.12516
53.0387137028896 3.89594
55.0171373692867 3.01948
55.0553170614197 37.7019
57.0696624522876 9.16613
59.0488561527434 0.809992
67.0543682586041 37.7135
67.1206834225745 1.21296
69.0712158341314 18.6167
71.051224654009 6.07582
71.0855570758575 2.03537
73.0266691192427 0.962438
73.0651316435834 1.61254
77.0396459329236 4.29021
79.054895767347 22.2454
79.4543031581073 0.910097
81.0705608341092 100.0
81.1320338492352 1.9818
81.1546639237661 2.18706
81.1897940311131 1.0084
81.473701636864 0.814276
82.2529926177366 1.10892
83.0499320189746 7.23536
83.0856201421255 35.3281
85.0654398699696 11.8798
91.0534833548273 25.1275
91.1100018300076 0.960994
91.3506074165265 0.908188
92.0595389096914 1.09383
93.0699121311497 78.3432
93.1584050937232 0.958411
93.3027360592267 0.764957
93.3837946987868 0.890054
95.0856886034075 99.8067
95.2093307745814 0.839159
95.2892827928197 1.37426
95.3115610109778 0.83937
96.0935561288538 1.83051
97.0958366744274 3.93652
99.044315844048 14.5897
99.097092374367 0.998908
101.060222666513 11.4227
103.056806686758 1.79054
104.074420249149 1.01718
104.438645754367 0.93708
105.069817353764 48.6807
105.165864192327 1.33863
107.085073927973 92.9299
107.434306538863 1.19867
109.101004707101 44.9032
109.159305704057 1.44871
109.199300872812 1.5086
109.229362654444 0.745925
109.646654386957 1.38419
111.080241658074 1.84335
111.62947706486 1.15454
113.095623452149 0.900119
116.054818699936 0.727444
117.070630964818 5.95984
119.084566667541 67.7929
119.151252364759 1.30313
119.186452502484 1.18685
121.101060852043 65.7317
121.225584179184 0.751337
121.325086992536 1.26416
121.558037925096 0.726873
121.867436725557 0.872507
123.077679256743 2.19517
123.117278806675 9.64074
123.16801139907 0.962529
127.075488788663 4.72147
129.064340270225 1.38205
130.077690802909 1.22915
131.085906891693 19.3271
133.101122014805 75.128
133.202107111579 2.1112
133.236794727901 0.78884
133.332978067428 1.02063
135.116584176386 76.73
135.258133560554 0.931054
135.451426401927 1.27568
136.115851210803 0.952533
137.096593888287 2.16124
141.067545201653 1.22507
143.081178294116 3.00664
144.094850669441 0.78456
145.101168580825 20.6722
146.109764249123 0.965032
147.115892307851 49.4691
147.197665673943 0.745284
147.226164311817 0.979499
147.35780728003 0.843479
148.0308429553 1.0545
148.121944163032 1.21894
148.441932476578 0.727073
149.091338962747 2.6336
149.1330069806 33.2509
149.20576482032 1.33016
151.074976944874 0.823218
151.110646346291 0.906564
151.144446021182 0.860026
153.090476935535 2.10758
155.101632673672 0.83553
157.099622270867 3.33312
158.531793109764 1.07837
159.115175012448 26.2426
159.190274437718 1.00103
159.505263129889 0.877479
160.055367757851 1.04583
160.122694892974 1.76162
161.132753517913 36.5091
161.206839643464 1.67248
161.437282457562 0.85595
162.132130894715 0.912796
163.132356527558 11.0385
163.203151506274 1.16665
165.091978569179 2.00698
165.132588477181 1.59808
167.10915960538 3.19839
171.116216954662 3.14725
172.124028292781 0.76647
173.131288788728 12.8056
174.09737169951 1.02252
175.145410537587 19.8144
175.767501132895 0.825271
177.124458971924 15.4481
179.101007510113 0.838694
181.120090985572 6.88366
183.1113280633 3.30357
185.138492525295 2.58377
187.148464427588 9.97398
189.162790964559 8.0064
191.09850407833 0.822
191.144511852291 1.36799
193.123037454157 5.81095
195.128774250597 5.89455
195.955533092862 0.748574
197.129258806169 2.01973
199.146473551233 5.19801
200.157912014718 1.67806
201.166304294538 13.6631
203.134509363954 1.18101
203.179970736119 3.87545
205.134075776649 0.858642
207.143445578319 2.45483
209.151789680478 1.38258
211.147569367243 3.90827
213.157919246982 2.7759
215.178513739219 14.4934
216.185570379136 0.876182
217.174307326922 1.38883
219.170897809708 0.841255
221.151259942434 1.9705
225.163750570592 3.16847
227.182280426302 0.937832
229.173964103877 5.45457
235.162590437936 0.929122
237.161711862068 1.23689
239.176650562229 2.56123
241.194545264789 1.41838
243.208017442246 3.87329
247.169665658862 5.58675
248.786595269374 1.32562
253.216364774719 0.898357
255.20256299039 0.953139
256.234008275529 1.14766
257.198822379918 1.66266
261.188542626568 2.80064
263.191438273488 1.21758
275.200989528271 3.24572
283.193800982059 1.04534
297.258861822623 1.53801
301.216217850132 1.18097
321.249793302451 1.25968
357.282658138378 5.2162
358.28265813838 1.0e-13

