>compound Mefloquine
>formula C17H16F6N2O
>parentmass 379.124108665345
>charge 1

>ms1peaks
361.114565684881 1.0042
379.123591243616 100.0
379.292219235166 5.3173
379.370592616755 2.38558
379.487177903646 1.14275
379.536148338216 1.24016
379.6016984645 0.913682
379.723307618039 0.815264
379.765180678696 0.761248
379.819715678818 0.725476
379.863255374131 0.697017
379.920148953154 0.661449

>collision 10.0
361.115771171341 5.93395
379.124108665345 100.0
379.297453518527 5.32452
379.371444707826 2.3865
379.48854934907 1.14831
379.53662523284 1.26276
379.604057935356 0.894783
379.67785139125 0.836477
379.724954665429 0.817814
379.765273320593 0.776912
379.820320937182 0.715373
379.867556887906 0.671072
379.944553244729 0.617682
379.999216139716 0.568989

>collision 20.0
84.0807386318086 3.76779
321.098603079337 1.49269
333.079716562443 1.20415
341.104684969772 1.68617
361.108587854321 63.0367
361.281073142398 2.93901
361.345677398324 1.26466
361.514164661993 0.552073
379.119007359171 100.0
379.293524119341 4.89452
379.364521580616 2.40215
379.444629779871 0.9772
379.534455672499 1.0235
379.616373281147 0.687723
379.721229541476 0.66465
379.765322089862 0.620612
379.865092053111 0.560356
379.91903413247 0.51984

>collision 40.0
30.0343949757399 0.58992
41.0397396431263 1.64635
44.0507177199665 2.22978
54.0353417551611 0.964733
55.055486751573 13.637
56.050719635303 4.55538
67.0503272443583 0.547254
68.0505611034684 8.97269
70.0661694467422 6.88124
80.050392450432 2.27174
81.0582022125773 1.37186
82.066133086544 19.5839
83.0739602944683 25.9535
83.1573988893988 0.583708
84.0817758256427 24.0334
96.0810636226337 0.619002
202.046984894614 0.553568
214.030455479256 1.14729
215.053778115567 0.947255
216.062487139715 1.14258
221.033709375311 1.05372
222.054329949392 0.881803
223.065597080992 0.667858
224.073710789419 0.715514
228.058641801578 0.723069
229.062916732436 1.16928
230.068244088092 1.04278
234.055068857198 1.32641
235.056131523467 1.83772
236.063262333835 1.09269
238.030595963241 0.922878
240.0481927391 0.707939
243.073579569973 1.1567
244.082265651557 1.31191
246.046534295932 5.87046
247.059072519582 2.68653
248.067041382182 1.36757
249.065130009913 3.44184
250.072204171333 1.73165
251.083789906645 0.521179
252.045103553243 2.51078
253.05900124352 1.32385
254.076145089138 0.897527
255.080723685417 0.841275
258.037983032395 1.57764
259.046529421863 2.05919
260.057354290264 2.84083
261.077587854723 1.47692
262.072821467407 0.824657
263.080756349721 1.90943
264.03269118276 9.65889
265.050661462242 1.03878
266.059010089411 5.67305
267.055535203049 1.47196
269.085872305277 0.501582
270.034900431457 3.39878
270.093456985731 1.73897
271.105291854817 26.0155
271.251357300479 0.54416
272.05173058722 6.70852
272.104056811671 2.59792
273.064501021276 7.10866
274.082360226727 1.53895
275.089247885632 1.30383
276.044477461806 0.610268
277.089441003898 0.523781
278.042491539247 18.2393
279.055265541799 8.82384
280.064574110323 2.60485
281.088973611779 4.27139
283.042777261897 1.11357
284.05212324121 8.1576
285.049223561726 3.36608
286.06808212017 3.11848
287.062536257615 0.799767
289.09451917231 0.880898
290.098461890638 2.88579
291.111372968611 15.714
292.031359763239 2.65862
292.111317031038 1.17234
293.070582299869 13.1309
294.088538785533 0.522218
296.050180372245 9.78992
297.05146987662 0.672279
298.064113593829 7.87266
299.062170561118 7.42777
300.078240893143 1.38455
301.095859946908 16.5036
302.040556869054 5.70103
304.070701411856 2.34489
305.05456244162 2.31432
306.076295822728 0.80538
311.063159648287 0.512932
312.078940766926 1.87874
313.077277782995 27.4977
313.232252918645 0.535678
314.097697823906 1.78709
316.056719549399 3.81151
318.064990056156 0.934946
319.079120739064 1.69253
320.093515757306 2.88783
321.102474489555 40.2439
321.260828320868 0.907913
324.08107709187 2.23071
326.084603742426 0.945504
333.083588587339 35.1542
333.244831780379 0.715203
339.092859875992 10.3663
340.100390662276 1.55273
341.108160338637 12.2707
359.099344063265 0.945996
361.115567274825 100.0
361.281254272945 3.1411
361.344003718667 1.2122
361.464419215367 0.602185
361.514485140197 0.627569
361.581363906768 0.524307
361.769961372155 0.502362

