>compound Primidone
>formula C12H14N2O2
>parentmass 219.11146007917
>charge 1

>ms1peaks
119.084931743343 1.2
162.093018248238 6.66974
174.097730147713 0.617363
180.006488473989 1.81324
218.102994117541 0.608478
219.009500833283 0.94296
219.114619482935 100.0
219.230528965192 1.58261
219.307183257899 0.743771
219.479609832778 0.635024
219.657158939688 0.706157
219.735794308112 0.646393
219.947649898198 0.568655

>collision 10.0
91.0534247387508 8.92666
101.991051284219 0.655999
106.064327832689 8.83561
117.072136370935 0.608908
119.085517808918 20.3242
134.098334175826 0.725067
145.062493213991 0.755448
162.090579240942 100.0
162.243994867005 0.828696
162.352394245821 0.642938
162.722479886123 0.528867
174.090300706034 7.67081
176.106056553433 0.624455
190.083509340279 0.698498
219.009365223896 0.992567
219.11146007917 26.4508
219.244228199369 0.626388

>collision 20.0
44.0150590680621 1.11808
91.0548839023481 100.0
91.1396083908732 1.73475
91.167711380479 0.521232
101.993251166561 0.624151
106.06614663975 21.0806
106.126103780812 0.59945
115.052699211131 0.695955
117.070029626429 25.3453
119.085619018324 43.8563
119.182505845303 0.638744
131.085314919106 1.83056
134.096879621868 7.72759
140.997369315348 2.07676
145.068783448553 2.93251
146.095386353065 0.77416
156.080193762626 0.572114
162.092109186374 56.5949
162.1773826161 0.925179
162.206450808605 0.669703
162.257055948419 0.508808
174.093650334932 0.817028

>collision 40.0
39.0228230062731 0.61119
41.0395398241558 1.15741
44.0144709385086 4.23016
56.0502202913169 1.43082
65.039518189274 3.45216
77.0394908761807 1.18107
79.0563386105023 2.62463
91.055140008735 100.0
91.1411201022119 1.61555
91.1663763756129 0.690411
104.050858107136 1.00545
106.066255276135 5.40446
115.054846460868 11.8104
116.063838333487 1.04182
117.070210376012 11.4361
119.080255458943 0.534455
133.054252710392 3.73483
134.099021762193 1.39803
146.060875040879 1.08616

