>compound Procainamide
>formula C13H21N3O
>parentmass 236.175336156823
>charge 1

>ms1peaks
120.045022257664 0.569088
163.087026972956 4.08468
236.176992397312 100.0
236.36507693881 6.6918

>collision 10.0
100.112399902032 0.677865
120.044081243366 5.81623
163.086316100413 88.4295
163.24203464984 4.48443
236.175336156823 100.0
236.362787722884 5.25288

>collision 20.0
92.0502872762985 1.07104
100.112776692996 1.11377
120.044737586553 25.9639
120.178467264729 0.743391
163.087236080694 100.0
163.243485084648 6.24126
236.175450392925 1.66108

>collision 40.0
65.039840966134 9.21821
72.082099924595 0.558499
92.0505409601932 35.5946
92.1700598371378 1.22544
100.113095526566 0.849517
120.045236941675 100.0
120.179658430687 4.83197
163.086750382278 8.79063

