>compound Prochlorperazine
>formula C20H24ClN3S
>parentmass 374.145009490228
>charge 1

>ms1peaks
141.139224678887 1.59407
373.179110557402 1.61963
374.146517267967 100.0
374.389433692958 2.0858

>collision 10.0
70.0655791627562 1.37439
113.107304856952 3.76104
141.138156504106 10.7156
373.177132872531 1.56401
374.145009490228 100.0
374.384703369264 1.92164

>collision 20.0
42.0353981391817 0.576373
70.0660750761981 15.6307
84.0827314906261 0.544316
98.0908928204723 1.40998
111.09208449673 0.528375
113.107767400267 47.9378
113.242243341122 0.776627
141.138741693742 100.0
141.288196345027 1.47121
214.042342115191 1.00006
239.075733965388 2.71391
246.014125376241 5.71812
274.045522073771 2.66264
373.178707912315 2.38389
374.145587049323 98.7501
374.383954751796 1.00204

>collision 40.0
42.0351938584436 4.47396
56.0505231806388 0.641675
58.0664407513388 1.14445
70.0664023820357 100.0
70.170240688729 2.67188
71.0716471189666 0.678245
82.0667771736994 0.740979
84.0817205361824 1.87021
86.097994888868 1.42041
98.087550335234 10.2294
111.091862512653 0.902293
113.108079715643 71.8829
113.242251285812 1.3558
141.139646679517 21.8305
206.097271041309 0.532484
211.045747510547 3.34149
213.035913652351 0.76964
214.042678387312 10.2999
233.006481145635 1.32573
238.068779634593 0.556788
239.076897645487 4.75753
241.067100276632 0.572172
246.014725307368 10.0346

