>compound Procyclidine
>formula C19H29NO
>parentmass 288.2325655071
>charge 1

>ms1peaks
84.0819666371305 3.22868
288.235051604676 100.0
288.448001562441 9.19439

>collision 10.0
84.0813780589056 41.1281
84.1969945101353 2.11004
270.22137845937 1.74728
288.2325655071 100.0
288.446442439985 7.04194

>collision 20.0
84.0824449899049 100.0
84.1970598461322 8.62943
270.221925363035 2.52163
288.232780417119 10.3752

>collision 40.0
42.0353562893455 3.52882
55.0557232934838 2.46475
56.0507360549368 1.2385
84.0825251540856 100.0
84.197079965974 7.99877
91.0552765004439 1.06998
95.0863600134456 0.514382
117.070762244004 0.55288

