>compound Propafenone
>formula C21H27NO3
>parentmass 342.206300463687
>charge 1

>ms1peaks
116.107818630893 1.66267
342.206290927186 100.0
342.261836614161 3.81296
342.296325462096 1.66812
342.330328079947 0.863491
342.370541479325 0.545944
342.623510184348 0.646298
343.092720427185 0.60176

>collision 10.0
72.0819707403888 2.16421
98.0974676495528 3.24172
116.107424058046 10.4386
265.120445715715 1.08285
324.197471499504 3.63312
342.206300463687 100.0
342.343512737934 0.722022

>collision 20.0
30.0343024541134 3.66678
44.0491702106238 3.22269
72.0805993721291 34.251
72.1052959943247 2.34813
79.9897017150129 1.59651
91.0536360902566 5.95425
96.0836850542222 2.26665
98.0955967721014 30.6864
114.090876828323 1.5013
115.053437500145 2.0936
116.106562653605 100.0
116.13040240884 3.62198
116.144355554056 1.66779
116.819072883086 1.68048
117.09230870612 1.70219
176.140516304477 2.26303
209.099299806682 2.44541
210.143772999276 1.42379
219.082886598262 1.48185
265.122643917362 6.7957
324.193837367978 9.11515
326.487252609859 1.61912
342.205682682645 92.5955
342.309366205757 1.75711
342.83259276923 1.25785

>collision 40.0
30.0310786290734 2.42373
41.0389524208114 3.05243
42.033574717344 2.37584
42.5313425255644 1.18301
43.0544254673076 24.3734
43.0706307876976 1.40245
44.0486285482098 23.9915
56.050176813694 43.5488
56.063478616729 1.90508
56.0738343401689 1.18317
58.064337076546 3.22526
70.0663242460327 14.7942
72.0808218390873 100.0
72.103343931388 4.90861
74.0590059314079 6.7779
81.069964656049 3.72386
91.0551385344175 27.8398
91.0806045818071 1.39987
98.0967420108888 27.8827
105.072853401494 2.62277
107.053400352697 2.97677
115.052541917882 1.2858
116.10750809704 85.3118
116.133918035338 5.01828
121.027247423505 2.86015
129.068121453379 1.67673
131.053213346948 1.54369
133.028777624701 2.38435
150.276494342793 1.50453

