>compound &#38;beta;-Carotene
>formula C40H56
>parentmass 536.43669726286
>charge -1

>ms1peaks
105.067219643567 0.698498
113.054006840753 0.533123
444.371096620283 4.18157
483.331980371072 0.504413
495.316390810357 0.946279
519.265806052585 0.576879
535.258838582727 0.503692
535.446073071292 0.828658
536.435795591923 100.0
536.718915854438 1.18882
536.845944319115 1.20101
536.994500647827 0.965748
537.110130479961 1.08111
537.405032686304 3.60238
538.4050326863 1.0e-13

>collision 10.0
69.069178187242 0.80539
83.0824362949281 1.42325
95.04792667358 1.36688
95.087137199019 1.19468
97.088788570566 1.12093
105.065132562547 1.04332
106.080695631473 0.529129
107.083010737765 0.56552
113.060990623989 1.07754
119.08466867093 2.34828
121.052713068592 0.774793
121.101749857966 0.943695
123.108093889386 0.698344
131.071780013299 0.548651
137.132108369823 0.560949
147.113353056464 1.06127
155.083227580144 0.566657
157.050496846323 0.562155
157.099353579618 0.846614
161.136731007981 0.563062
163.148745127101 0.928153
171.10223850748 1.80938
174.147103753965 0.858513
175.145409195652 0.675803
177.161594275528 3.64629
181.120883899734 0.518145
183.117473862322 1.84256
201.159242224993 0.606369
203.179087162501 1.46232
207.110662084299 0.673549
209.127383727931 1.25125
210.145269573997 0.667006
211.141882482949 1.20362
221.137828411044 0.689083
223.135035756266 0.847285
225.16792743132 1.11235
228.181640025184 0.599093
235.142967055896 0.95609
239.176486743035 0.707396
241.196046771822 0.754833
243.204184528044 0.899565
249.162809386113 0.771751
251.128261313335 1.38215
252.189787485628 0.512632
255.203429119514 0.690103
267.21348962653 1.38936
268.206986909856 0.690171
269.226902982699 1.00276
270.22484239953 0.77725
280.217962323587 0.527302
281.223068148695 0.636151
283.147524414164 0.516068
286.264599969558 0.576823
290.206382400151 1.29405
294.234022528844 0.629817
311.213672673146 0.518225
312.109989232212 0.810749
312.189180924538 0.556098
320.252458431028 0.533992
321.177721229286 0.57342
333.254846211011 0.982667
337.975775680031 0.561653
338.291419419848 0.946281
345.24247804689 0.644006
346.268648546232 1.12338
359.278412257357 0.995755
365.321396175875 0.60721
386.300903623509 0.589906
398.298275513715 0.715852
399.295467614025 1.23854
402.142535172181 0.545093
407.709830065715 0.592091
417.230963037616 0.710959
429.347481854105 0.61567
444.375280431354 41.1838
444.562044760954 0.872761
444.620817496587 0.518646
444.749804233309 0.6237
444.997543248917 0.771793
445.355865738582 0.94628
445.567009625083 0.607816
459.223707207322 0.607488
495.220173946389 0.644967
535.300700308036 1.00562
535.424842679659 1.52708
536.29181960579 5.96533
536.43669726286 100.0
536.703812369554 1.24358
536.810683196236 1.23732
536.946193779934 1.48613
537.028626597022 0.776134
537.283529159238 2.10775
538.28352915924 1.0e-13

>collision 20.0
43.0174491420967 2.96283
45.0358155173648 2.04464
57.036152632482 2.43679
57.0706781291418 1.6293
59.1352771874042 1.79007
69.0685032591865 6.00985
71.0106297699083 1.28914
71.046507278555 3.41537
73.022694036235 2.85593
79.0524830807062 3.33102
81.0686812321669 4.36086
83.0831715115129 2.28117
93.0712464661341 2.44957
95.0862016109574 8.66288
97.099542081501 4.19458
99.0415103522388 5.75223
105.071229915241 4.8645
107.083867382193 3.57547
108.077576711959 1.44949
109.101501829398 6.19403
112.428644316367 1.47602
115.075877685135 3.53465
119.086477514737 22.6509
120.094026096661 4.82731
121.100367285143 9.17677
123.079902507017 1.24687
123.115590494812 5.74172
125.0621124506 2.18205
131.087032763877 3.69129
132.094854573629 4.63535
133.104683268894 11.2945
135.115890578397 7.37649
135.446858823509 1.63013
136.104363245819 1.65192
137.129874596993 8.61411
139.10845585613 2.76639
141.091788155814 1.44266
143.08378709206 3.45663
145.100233278417 11.0682
147.114104210824 10.1052
147.570559081983 1.39113
156.089265630156 2.00523
157.097731853777 10.34
158.107838599602 2.91576
159.116480896202 8.1067
159.387277838917 1.55336
161.134734253114 9.33523
162.140711050801 2.915
165.087117304532 1.47333
165.127883286656 2.68262
170.10515814502 2.44988
171.112829596768 7.77045
173.132819730253 4.03013
175.14803138267 7.38013
176.154474909586 2.30157
177.161725418597 16.2544
183.057454503446 1.53344
183.117522123004 4.68456
185.129579707657 6.33526
186.133958058038 3.65743
187.145348887375 2.12279
188.150211105075 2.70947
189.160789107232 6.74583
191.175765258165 2.1722
195.113612807725 4.83613
197.075258469851 1.32622
197.12854911291 8.9398
199.146410630312 2.1719
201.153396633059 3.32755
202.939642292258 1.39481
203.180397311135 4.27083
209.132769143255 9.27943
210.142584952089 2.41814
211.148748005507 8.03453
212.147394168716 1.93034
213.159979095587 7.56758
221.127677457045 5.89227
223.144861740422 4.43121
225.159740104311 3.09337
226.175965888459 1.82908
227.172093866707 2.21169
228.180830720115 1.97475
230.204737766744 1.42647
233.133873968066 3.30104
235.148221003901 3.75363
237.167474507368 4.3695
238.176686563024 1.53583
239.179162710268 4.93983
241.19318827896 7.71734
243.213185684027 7.59751
247.138351288285 3.08735
248.153285470702 1.78308
251.174101103405 1.42344
253.190536039396 2.18263
254.19801492994 4.32519
255.118947816981 1.88137
255.20819593621 7.26781
259.150026029978 1.35433
261.158649274851 2.07897
261.92772201723 1.48524
262.034859961121 1.21659
263.166335496586 2.01737
265.102966399266 1.20422
265.199745688565 2.75736
266.20431833571 1.50216
267.206137565744 9.77483
267.61641310644 1.20539
268.213983851642 2.99298
269.22312369813 6.19715
275.172598970478 3.24598
277.196997981819 2.51097
279.226631793159 1.2142
281.054134775882 2.05443
281.229560513522 10.422
290.200015159405 1.6052
291.229320090649 2.01167
293.220733440625 2.50504
294.232469295082 1.38483
295.2366783546 1.23332
297.066932382242 1.32734
303.19265234527 1.63587
305.228968840197 5.20248
306.698231840808 1.32489
307.23654680621 3.84057
314.151290189953 1.32489
319.241099843274 1.40954
322.27945650179 3.76656
323.275192403979 2.83666
331.233759239165 2.91896
333.255236073531 1.83718
338.160099079681 3.41552
338.298455117512 3.38257
345.263653671976 1.65033
346.258889040918 3.5745
347.26851099814 1.71132
349.280105390246 2.56566
351.307804981356 1.94528
359.264412657436 3.05325
364.151602629566 1.22248
371.252267252809 1.59907
378.324829392847 1.66879
383.274792144996 1.81603
385.268609723582 1.30526
387.298632353463 1.62323
399.304818038812 3.25864
400.310264499963 1.79272
413.211625969309 1.29253
429.350976895923 8.64454
430.355011409755 4.57083
441.253294051218 1.78124
443.363265221296 3.88634
444.374586099566 100.0
444.498616419208 3.67731
444.591986223132 1.32662
444.778490897834 2.41912
444.871850428424 1.74511
445.321617076848 1.24024
445.586028273071 1.22611
445.7583888633 1.23334
457.389160529888 3.3813
463.006472583543 1.50038
465.44601292122 1.26723
475.307848041289 1.44634
495.255926666213 1.20856
536.085842978639 1.37332
536.29351131111 10.9263
536.432898974767 46.9237
536.618656942723 1.18749
536.789060219547 1.31109
536.875428178253 1.29569
537.234069874678 1.38377
538.23406987468 1.0e-13

>collision 40.0
30.6260997244256 3.51106
39.0254097628943 4.17061
41.0384575941276 24.1364
43.0180127418902 13.8368
43.0562571571105 4.94902
53.0344871403222 10.1259
55.0547005987155 39.6517
59.0507351388187 6.84403
65.042249096122 3.37783
67.0532457970238 15.4041
69.069872122564 78.9594
73.0511831993415 3.80972
79.052777395502 16.2152
81.0702420351408 41.4464
83.0861016353892 22.8973
91.057532457148 18.7684
93.0703775730075 30.4184
95.0484968512106 4.44177
95.0866189917254 53.1442
97.0617795690514 8.8797
97.1026198430337 6.83659
99.0387174061128 3.4216
100.11114276082 3.43417
105.068817364908 81.2207
107.083565751927 54.4301
107.323914375925 3.41404
109.101829516229 38.4066
111.043788693679 8.44996
111.072463985452 4.71093
111.408623078545 4.12148
114.067127020707 3.52033
117.070607615576 8.53416
119.085872000659 53.8394
120.092100678256 16.927
121.099608322285 58.3503
121.173533136348 3.40458
123.118873138067 3.64186
128.061056470225 5.27887
129.071170100177 17.5112
131.085898370989 15.2393
132.092662403994 5.11832
133.101568104347 29.7175
134.108352133291 4.91281
135.120099342213 11.7014
137.133357300544 3.97825
139.072291639178 7.9107
142.075741850917 6.01078
143.085265874201 39.1151
145.103248097636 100.0
147.114477055929 26.5231
148.121889296913 4.08594
149.113387225528 7.82803
154.99272812519 4.91033
155.078843491808 9.44113
156.091652655196 3.59572
157.100447727231 47.3981
158.111422199856 8.19845
159.120322192273 27.8752
160.120712230926 8.1136
161.132308685191 32.5718
163.147386421826 6.03155
167.080349931918 5.21338
168.096139487966 3.74272
169.098324857187 37.7371
170.106479683486 8.59066
171.116381888558 45.7754
172.122949743041 8.79257
173.13109100516 8.86498
175.14477152191 22.7019
175.188279562472 4.17261
177.156736784678 17.0803
181.096752268044 6.54047
183.113884915087 51.2767
184.126040530543 3.44203
185.127757582961 35.3178
187.145584210121 21.5115
189.129567721639 4.96508
193.095769475241 5.55627
194.104659847235 9.55724
195.115164710022 12.8902
197.132231409409 36.3691
198.141581885697 9.92359
199.045158821245 3.45189
199.146523228952 12.9618
201.16138002444 11.5938
203.184994314646 4.42449
207.113031779359 17.8986
208.118624813542 6.67468
209.130671491872 20.8542
209.168465586712 4.17936
211.145634247901 16.2645
215.176576407662 5.42159
220.121174561256 12.0749
221.133048071804 13.8582
223.149251810581 7.80913
224.15885689802 3.45224
225.161478183593 9.57118
227.175058060188 7.60004
231.124005190683 3.6864
237.158324960968 9.58729
239.179704476782 13.6339
241.196424246339 22.1264
247.14726477136 6.3008
249.160513837673 7.68335
251.173640536988 6.49844
253.193363652408 6.58377
255.206555336857 3.51352
261.163349940469 4.17831
263.185772797729 6.70021
264.124669890479 5.90165
265.014551467446 9.4798
265.192238259352 7.88769
266.202689876306 3.45357
267.212691147592 6.95128
279.209964991443 7.96185
281.047987833253 5.14772
304.215664728416 4.20465
305.220355858896 9.20708
307.233483238036 5.03804
315.194918306914 6.14867
326.958419298215 4.24891
331.230092169629 3.78589
343.24778829023 3.70645
349.274273768147 3.3414
363.30533515698 7.72738
364.176101427999 3.27207
401.330782313537 4.14502
414.85680460517 3.97442
429.931916255247 3.71225
432.143794820511 6.37357
433.256326900455 4.95775
536.595806780641 5.39431
537.59580678064 1.0e-13

