>compound Propantheline
>formula C23H29NO3
>parentmass 368.222498915396
>charge 1

>ms1peaks
100.111985319825 1.41199
181.064196224242 1.17202
326.175235371561 1.09427
368.222412700677 100.0
368.398863589308 0.891409

>collision 10.0
58.0661059928399 1.618
100.112292394647 12.4573
181.064391356374 8.1392
253.085806334619 1.28305
326.174578107393 9.50641
368.222498915396 100.0
368.399518311374 0.810748

>collision 20.0
43.0547513813242 0.880393
58.0658985452188 18.8531
86.096177748336 0.601943
100.112229973218 100.0
181.064551042352 93.0566
223.112006390541 3.50708
253.084802138296 4.93056
324.159585048393 1.79278
326.1749151485 49.7664
368.221851199706 68.3038
368.423619881661 0.915679

>collision 40.0
43.0543331823579 2.08044
56.0503537715448 0.623726
58.0658625806389 33.0443
86.0972383611203 1.53115
100.112207611399 23.7125
181.064672416137 100.0
181.188188838096 0.570253
223.111741275627 1.65631

