>compound Retinol / Retinol skeleton
>formula C20H30O
>parentmass 269.225269574169
>charge -1

>ms1peaks
81.070271018291 1.75622
88.1115619892521 0.664023
93.070459629681 1.05517
95.0861446826475 4.21834
105.073099637056 0.615561
119.084656539472 1.96494
121.105977050289 0.536992
123.115241087448 0.826312
133.100052465255 0.795612
137.131895773191 1.39866
145.097152951893 0.958296
147.114972323599 1.26326
149.134023195996 0.674102
159.118824699476 0.712642
161.130283642451 0.504162
163.1484907653 0.592179
171.113934639414 0.799962
173.131555992328 1.03065
175.15088220255 0.631464
187.147162508064 0.854332
189.162071181315 2.16526
201.158957729573 0.617165
213.162738465208 1.737
269.099374715026 0.659675
269.136319318308 2.6535
269.22567321455 100.0
269.339745281222 0.683548
269.373678488156 0.552653
269.575335162714 0.56171
269.636765526259 0.54701
270.63676552626 1.0e-13

>collision 10.0
41.0382069876319 2.44816
43.0546640495027 1.03949
49.317952928598 0.749981
55.054481245384 1.49616
67.0568894746939 1.35635
69.0698776968793 13.1346
69.0812860082194 1.4293
79.0539784129559 5.25435
81.0325405777976 0.802868
81.071322406124 19.5955
81.0966851226826 1.22857
83.0850371043199 6.14681
83.0949614923321 1.62078
85.1025653229119 1.7696
88.1137955004522 2.95532
89.112438756279 1.48097
91.0559452229992 3.55104
93.0695928082826 28.0696
93.0863685986298 2.42925
95.0858910012895 41.5145
95.1175625280055 0.81153
97.1004165306795 1.36595
105.068757003258 3.31583
107.084726153827 14.2466
107.109031977318 0.809706
107.12476502029 1.60907
109.10073547057 7.93384
109.121939175477 1.25338
111.116408717356 1.88955
115.053520561448 1.9919
119.084583877208 14.9838
119.115891007364 1.11319
121.100730873937 15.2418
121.124566231487 1.92911
121.496160956102 0.737607
123.115560334244 2.25409
133.101590193124 8.8459
135.114744561673 5.73339
137.131711154286 2.592
143.087457612449 3.26922
145.101530517002 7.79834
147.116485125269 7.69688
149.129180593146 2.83936
157.09888496255 7.28781
159.115059566633 5.3387
160.123787984612 1.27428
161.130975573284 2.90019
161.14572062812 0.891527
162.138767343372 1.0249
163.141560443993 0.839645
171.114325883113 6.10008
171.134053648675 0.786455
173.132943847249 5.19266
175.148031994154 9.29993
175.172512373215 0.990097
177.16095665659 3.67772
183.118351825061 1.0638
185.130954193901 4.72139
186.134774106391 1.16975
187.147799763135 10.0751
189.162803578079 9.13633
198.145147230964 0.787106
199.148580888134 10.5044
200.154974948014 1.07655
201.163668616279 5.86736
213.164355771594 14.9338
214.170886053891 3.81552
226.169861514404 1.73993
227.178915558476 6.96864
239.191901475005 0.875358
241.189729551422 3.47152
254.202939380396 1.81103
269.132129860855 3.75822
269.225269574169 100.0
269.28318416748 2.68394
269.310541143375 1.26346
269.633780570844 0.739723
270.213427116612 1.02176
271.21342711661 1.0e-13

>collision 20.0
41.0404786823049 6.01275
43.0556447088659 7.27219
55.0550937349474 16.4597
57.0703893652443 2.65224
67.0546564398362 19.2547
67.0702685786302 2.37181
69.0707997145161 48.339
69.0853690084115 1.8821
77.0390290432649 12.6967
79.054240052395 19.8458
79.0732644051712 2.33486
81.070765609105 83.366
81.0968754645038 3.96129
83.083147002458 6.9507
88.112068901192 3.30668
89.11702721385 2.16155
91.0548377076183 30.8111
93.0699343539924 100.0
93.102939740933 4.26209
93.4887804727452 1.67774
93.5600217057142 2.02927
95.0871129519332 71.4576
95.1113652184734 2.88347
105.070093491516 40.2584
106.075632208279 1.70493
107.083991812707 46.179
107.116051353378 2.25317
109.099829057969 20.2316
119.086168184304 38.633
120.100742266612 2.35754
121.076502551652 2.85402
121.100275404602 39.0739
121.128014460672 1.92384
121.660930279856 1.95737
123.11634458673 5.93244
128.061387928451 2.61879
131.08537575573 9.72574
132.089461829938 3.92434
133.098685031522 25.3802
135.11865694231 7.05052
137.131210363909 6.28048
141.068568699388 2.56791
142.077406540832 2.43276
143.087013050189 9.66602
145.10148980181 33.2956
145.123326614884 1.62781
147.116920086087 11.2149
149.132845786795 2.44632
153.091493121289 2.44807
156.093660121681 2.44264
157.100233720274 27.1826
158.110157522647 2.92317
159.115081952303 22.0357
161.131520731638 6.46331
164.254433465268 1.79758
170.1076806251 1.98844
171.115081724005 14.3448
172.121281675049 1.74842
173.132722387174 6.63222
175.148920272954 11.7226
175.165853174205 1.66191
175.763820520762 1.96145
177.166490304546 5.07362
185.133389129423 16.316
186.142558672593 2.24341
187.149101614412 2.20365
188.156335167245 7.00414
189.160754191315 12.8727
195.123873250628 1.79758
198.144777315264 1.91787
199.148516853459 21.1729
200.155926810254 4.25379
201.159704039813 2.68177
213.161702055507 15.9472
214.168604628237 5.32765
214.487578097739 1.88389
226.023598104528 3.36202
227.174271355402 1.71769
239.173709093388 3.61576
240.183192820141 3.49381
254.206221304541 1.78011
268.306636615977 1.68673
269.22336051118 11.7257
269.780041240539 1.60427
270.78004124054 1.0e-13

>collision 40.0
29.0386560111648 8.8139
41.039153306468 34.6606
41.0552302460409 2.187
41.2325285441689 1.3941
43.0553136410668 7.56763
46.0696444705139 3.89786
51.0243650896141 1.63112
53.0372975503149 5.21892
55.055307606511 40.4773
65.043017047195 7.768
66.043370045256 1.95573
67.0548118384996 16.494
69.0699592731866 28.8517
69.0894165448491 1.47547
77.0389584434683 50.1521
77.0553039503148 4.16297
77.0728950082435 1.81081
78.04779906765 1.94829
79.054821898814 48.1899
79.0712401561533 2.65736
79.5165339467846 1.41801
81.0706666448402 32.7006
81.089007903426 3.40438
83.0855860745938 1.85114
88.1146560036643 1.59172
89.110068960806 1.49235
91.0545707029169 100.0
91.0825263792842 4.73221
93.0698693810211 82.9359
93.100121571616 2.93013
93.5176251338818 1.71722
93.6570069621777 2.1049
95.0863451547124 12.0068
103.054682040313 7.25224
105.069627092863 59.6711
105.098323500816 2.86204
106.082376686252 1.59591
107.085904016807 17.4112
108.092513278396 1.73457
109.098728508411 2.46561
115.053612322346 6.80342
116.065558241628 2.40613
117.066965689575 14.4398
117.36101443443 1.98096
118.071566755501 1.97741
119.084918649215 28.0669
119.112772213048 1.43391
121.104615993612 2.02567
127.048898001498 1.90851
128.062043859165 8.18519
129.070539063438 13.2317
130.076792627714 6.12029
131.087055080549 9.99257
131.102691558114 1.82068
133.098389918256 6.55031
135.116873849847 3.88548
141.069702674644 13.799
142.077344256118 16.705
143.085361542871 13.3358
143.118493334948 2.12113
144.095393673888 4.23609
145.100216909782 15.4031
145.124135667402 2.2551
147.114473684991 1.95464
155.085327496528 11.0278
156.092849208722 5.33683
157.102434951293 3.68163
158.111212640102 3.84667
159.117260565045 2.17317
169.099760107839 5.7751
170.109916131881 1.90828
170.433444845414 1.44837
171.115359953468 1.77226
173.132957951875 3.62438
183.117622642784 2.7623
184.125359851622 2.48241
239.170599708347 1.73023
240.17059970835 1.0e-13

