>compound Propylthiouracil
>formula C7H10N2OS
>parentmass 171.060154649469
>charge 1

>ms1peaks
93.0378523391895 1.13219
112.074484605648 0.557313
131.010591135162 0.95014
170.018031897735 0.970074
170.120478117288 0.608407
170.519679010215 0.657546
171.059141320417 100.0
171.178081787916 1.4644
171.222519964913 0.898703
171.298480203562 0.525334

>collision 10.0
93.0389581300235 2.30582
112.076696552148 4.88314
123.500252423486 0.655038
154.033277116203 8.83762
171.060154649469 100.0
171.177648240497 1.30695
171.21433334942 0.767848
171.243043969195 0.758744
171.285336176164 0.559965
171.375869336074 0.511721

>collision 20.0
41.039507288309 4.18184
42.0340785757732 0.776083
43.0251706610223 1.17524
43.0544671204711 2.13705
44.0128388527545 0.821022
44.9786823587014 0.5084
46.9959156141113 1.17013
55.0199244130318 1.44553
57.0727762863454 0.553435
58.9926008587439 0.738263
59.9912386337504 13.8251
65.0060446386241 2.23584
65.0389605347694 1.62375
67.0550001613161 13.0607
68.0496085870384 0.83773
69.0084079248687 1.38478
69.0342833510419 0.755522
69.0702682031804 2.45864
70.0289374986932 1.26709
70.0656967161655 16.7123
71.0499219088933 1.03868
75.0297333059606 0.652646
76.9771196070864 0.73844
77.0191516853373 0.981466
79.0220086721877 1.25346
81.0325998212059 0.727906
82.0652364771683 1.10989
82.4940505098108 0.717315
83.0368598634369 0.595888
83.0694263777288 0.523619
84.0816920355296 2.45733
84.4893645771468 0.900666
85.005065650663 0.827178
85.9691217322905 11.3784
86.0032193664448 2.19605
91.0022435251453 0.844868
92.0057061021054 1.93614
92.048463855482 1.61821
93.0363018567258 4.9699
94.0643832384337 1.13012
95.0495776028746 7.64567
96.0562277352731 1.78505
109.0744412793 0.702089
111.985036771838 3.86899
112.07525432021 100.0
112.170737724112 1.74507
112.204616846551 0.779836
112.323463339957 0.723801
112.52635093922 0.733761
114.024412172232 0.504919
120.043845345016 0.818115
126.033616858985 1.27112
129.037434149846 3.64255
137.070432453045 5.47813
142.02124259435 1.12708
143.062553157395 1.46394
153.050214223982 2.84426
154.031635301688 91.6633
154.1439929332 1.26605
154.190406753967 0.645374
154.293028626025 0.743321
154.361547812457 0.526696
154.423966923868 0.500948
171.057871079525 89.733
171.178600582829 1.07974
171.207379440214 1.05205
171.243552226706 0.565536
171.299808251179 0.522431
171.740037834524 0.834682

>collision 40.0
28.0175140010541 1.03925
39.0239155522057 7.8559
40.0165093344971 0.912061
41.0396639110377 40.4427
41.086396495027 0.753542
41.0988271336648 0.751485
42.0346616657859 10.414
43.0196113924714 1.20471
43.0554613543742 25.4786
43.1143169281302 0.571916
44.0147584080929 12.1901
44.0475994755823 1.12076
44.9804356488803 1.28706
46.9947912098401 4.68777
48.977592398079 1.34098
53.0031338531051 8.19201
53.0363883925205 2.99171
54.0354170355189 11.1663
55.0190505036186 2.38117
55.04380947089 14.9565
56.050207116922 8.36423
56.979568241064 2.01443
57.0714333417683 1.5043
57.9753559003183 1.8855
59.9911505565166 100.0
60.0444439317213 1.59707
60.0633846750487 1.9653
60.0827456650428 0.856121
61.0011180595284 0.80403
63.9993037441036 1.06045
65.0072615845587 4.31886
65.039114136453 19.7584
66.0387072010393 1.28417
67.0188632810872 14.2954
67.0552254950587 23.6893
67.2854876083005 0.529271
68.0148374788455 1.69147
68.0509331230105 4.24037
69.0107547635761 7.52098
69.0591748553399 2.83915
70.0299613293312 5.65465
70.0667236666043 15.0203
71.9908424389026 7.57971
75.4807042264597 0.591283
76.4787052622784 0.893698
77.0385804581895 2.29788
78.0356113901056 1.25527
81.0356293865054 1.68267
81.0713274810096 0.529266
82.0615072645682 1.1981
82.4875289560919 0.512643
82.9894950432636 1.3673
83.0374613616776 5.33449
83.9901275616123 6.66075
84.043027172706 1.17038
84.9775241496806 1.55945
85.9710838379949 30.6515
86.0031555391113 4.61363
86.055758538119 0.57701
87.0116589272229 0.748499
92.0499611358982 1.6008
93.0595504745069 0.808599
95.0498864024209 2.91324
96.042913727972 1.61813
97.0033638188337 0.548258
98.0041241881842 1.96208
99.0255968241374 0.842566
111.985896687782 7.59061
112.076123545981 9.4143
113.017626812581 1.32687
114.027904035328 3.62538
124.997217699782 0.925403
125.999719140642 1.08204
142.019478462916 1.09668

