>compound Protriptyline
>formula C19H21N
>parentmass 264.176126225776
>charge 1

>ms1peaks
191.092668423811 3.84727
264.140057040651 4.99861
264.177159540738 100.0
264.221795683561 8.48718

>collision 10.0
55.1971182558697 4.76706
92.9718401856477 5.77086
185.109930532383 7.12236
191.080157362706 7.31904
233.128583997734 6.42485
264.176126225776 100.0
264.21752089234 6.75528
265.075393142833 4.75332

>collision 20.0
44.0515514998355 24.6598
79.0183211448466 14.2169
91.0553310734793 30.1542
103.056641032171 15.1736
117.06975468699 36.2589
155.087464780709 100.0
162.948359961895 21.1677
165.071857067331 24.2281
167.078393957122 21.4304
191.084291567001 71.9528
205.102238059304 49.7974
227.254318055177 15.8808
233.130548226115 64.8708
242.903550731994 17.3179
264.171862165563 76.5103
264.193262323172 13.8179

>collision 40.0
89.978132639966 38.7395
91.055027054019 88.7804
105.066653647925 22.8946
117.07072141969 29.1789
129.066030127357 21.9063
154.123254627096 21.1338
155.080559829537 29.1262
165.070871157938 58.567
170.913457654704 17.4387
178.075856580802 58.1662
189.07014801049 37.4758
191.084599334744 100.0
203.090066133598 57.0238
215.083690610262 14.789

