>compound Valeric acid
>formula C5H10O2
>parentmass 103.076195765903
>charge 1

>ms1peaks
40.4962984164912 1.63195
41.0390051453455 0.512564
43.0182979198806 3.23301
45.0349853017285 1.54369
57.0715330142988 1.65785
61.0087365320579 8.08013
75.04508514389 14.4502
81.5214171007217 9.01956
82.0225610297282 0.886935
85.0661792592003 0.88534
87.0442494188235 0.659304
102.004194621819 0.554538
102.033127247206 1.56686
102.062082556253 0.735253
102.128802830879 1.47041
103.001458603208 1.015
103.076056656782 100.0
103.764314237245 0.518834

>collision 10.0
29.0400109725768 4.54953
40.4956484288672 42.382
41.0399964007815 16.2082
42.0350471712898 3.82008
43.0187222951176 29.8334
43.0564742446412 16.9572
45.0348944410644 18.9731
47.0141669921674 3.38498
55.0546038563289 11.8552
56.0584315677531 1.25145
56.9665706164074 2.61225
57.0347749731789 39.6239
57.0712117625961 27.8244
59.0513840229348 3.14942
59.0753346096566 0.809759
61.0091677635979 24.2674
61.5112421611711 1.56376
62.0025852306913 1.96439
71.0484281050224 2.21548
75.0448005763554 100.0
75.0965623192185 1.28907
85.066591375298 5.26662
87.042656017026 2.37443
102.062544076748 0.940368
102.124346317802 0.994019
103.076195765903 78.4098
103.139246694969 1.10828
103.556519968085 0.74102
103.799627967155 0.89015

>collision 20.0
27.0229243773965 2.25386
29.0412732226218 4.64809
39.0255462902907 3.61839
40.4954759707993 100.0
40.9972870406886 2.18875
41.0399387688837 84.2768
41.4922881629952 2.17577
42.0353243069087 5.32895
43.0185641158862 28.2761
43.055598715612 66.6258
45.0351077344573 29.1383
52.9743233869374 2.00808
55.0550952853721 14.5064
56.0580823818864 1.72298
56.9656934692659 9.12247
57.0349722252255 55.4249
57.0708165703189 38.2392
59.0488708582876 7.35154
67.0540947535043 3.47599
74.0229822647877 2.05964
75.0443749257223 28.6171
83.0500169023434 2.76559
103.076953536755 1.72723

>collision 40.0
39.0236209856386 79.9818
41.0394855133233 100.0
42.011080411231 8.61667
43.0190559345029 30.6959
44.0235002126958 7.2973
44.9963125260946 11.4472
45.0358800085122 22.2816
55.020255079871 5.25001
55.0580525458234 4.07784
58.0610750933922 5.4859
65.9654443020849 8.98055
67.935616833042 4.46671

