>compound Pseudoephedrine
>formula C10H15NO
>parentmass 166.123572180377
>charge 1

>ms1peaks
148.114308358524 20.0788
166.123572180377 100.0
166.241855202698 4.40954
166.281971315237 1.89559
166.338009767707 0.687312
166.367855962232 0.625945
166.399187485306 0.734244

>collision 10.0
56.0500977088157 0.75806
70.0655901773557 0.513228
91.0542555697159 0.554426
115.053921635778 0.746678
117.069482797361 2.78445
133.088271318205 2.67746
148.110157447368 100.0
148.222175962834 5.51565
148.258680727297 2.25299
148.292285090851 1.16097
148.34157775261 0.831104
148.370418863938 1.09844
148.427478983378 0.563271
166.122193965189 5.18555

>collision 20.0
42.0350242256188 2.7262
43.0191565720618 0.684519
43.0554224115733 0.539906
56.0508573514433 16.0933
70.066405045174 9.27496
79.0554883499682 0.574621
91.0554983689861 12.1187
104.063104908149 1.07053
105.071007028424 0.72092
115.055541851017 23.2511
115.152422612191 0.567791
116.063236105416 2.34156
117.070340123047 50.157
117.169127144611 1.74454
117.201808098506 0.689283
118.066039397547 1.29664
132.081923362202 6.26803
133.08939489805 56.3414
133.194864273257 1.96103
133.227739619158 0.796451
148.112516901188 100.0
148.223260076264 4.39684
148.259824606494 1.75307
148.34224627011 0.593528
148.371240034133 0.700447

>collision 40.0
39.0240329429094 1.78683
41.0396451300275 1.21057
42.0351456624011 8.03821
43.0190683305116 4.43149
44.0502853660878 0.572623
51.0241200531131 0.687933
54.0351977775892 0.742169
55.0428077089316 0.957352
56.0507636023832 22.7563
63.0240857347762 0.554556
65.039638521977 10.5422
67.0436040788716 0.598294
70.0662228414134 1.89711
71.0743700662047 1.05174
77.0396378533865 5.51974
78.0473813572154 6.0003
79.0551753060795 2.32676
89.0395443205266 2.02345
90.0475554685515 0.710054
91.0547428165792 100.0
91.1425216092076 4.05395
91.168846910101 1.5275
91.19667857289 0.661983
91.258201843014 0.563131
92.0623150693605 0.58718
103.055184870858 5.42837
104.062824317401 11.3083
105.070673550459 4.23869
106.068153666613 0.597084
115.055433518597 61.3353
115.152655534865 2.132
115.184073348131 0.795933
116.062803165267 6.11421
117.061272529498 12.7623
118.065927021989 6.5373
130.066067832396 5.80069
131.073482075853 0.89865
132.081755030832 24.6057
132.186481016484 0.577732
133.089477081911 6.05539

