>compound Pyrantel
>formula C11H14N2S
>parentmass 207.096221556964
>charge 1

>ms1peaks
207.098344463899 100.0
207.227669913292 5.03804
207.2782321939 2.32163
207.338867629114 0.927051
207.404619122909 0.999143
207.451035081579 0.617755
207.509212375134 0.568265
207.543316210657 0.550341
207.584414523949 0.53248

>collision 10.0
207.096221556964 100.0
207.227732031646 5.3976
207.272632011315 2.48421
207.30946349575 1.24888
207.369229863029 0.869163
207.403225194297 1.1121
207.464558355902 0.610967
207.542176350662 0.565855
207.582936521002 0.520428

>collision 20.0
42.0359188239024 0.727279
44.0516975397299 1.65623
70.0675424533729 2.08558
72.083098217575 0.942881
97.0133674198763 4.89539
136.024742809633 3.16172
150.040809506001 6.73753
159.095272555057 0.537024
174.119244323942 3.95575
179.067871735895 0.650095
207.098046927732 100.0
207.227837157214 4.8358
207.277040444506 2.14282
207.338002803336 0.84003
207.404721251358 0.879891
207.444960395112 0.57193
207.479865897078 0.541592
207.543350403592 0.51978

>collision 40.0
39.0253294039744 0.725224
41.040726114432 4.18692
42.0360263414355 11.9286
43.0498076762067 0.623505
44.0516988888615 17.6594
44.9816043521056 2.9258
52.0207353104463 1.92099
53.0408408717433 0.852124
54.03618888081 0.760625
56.0516777491538 0.850792
57.059713600428 0.747175
65.0411174697778 11.0723
66.0368248520685 1.60286
68.0517234680629 0.970559
68.9819412894572 1.62031
69.0472182104034 10.6578
70.067803511365 5.25046
72.0832019576166 1.21131
77.0409302715683 2.47805
78.0439621706325 0.717875
79.056972169845 3.25287
80.0522965273798 1.32836
84.0057543936185 1.14864
85.0134260879949 0.90488
91.0480941675213 1.42133
92.0524668899646 5.56865
94.067125787727 0.829674
97.0135007572831 20.0462
102.036297983648 0.820417
103.045475783856 0.8711
104.052647389253 1.67598
105.060241954061 1.59926
106.068255203935 2.67828
108.006167801145 2.38382
109.013731041271 63.0615
109.108680550046 1.50021
109.137949680736 0.658942
110.018929743322 4.64501
111.029172988888 1.45037
116.052478448655 0.771791
117.060458970504 4.96863
118.066908617236 2.2606
121.013904437465 2.37518
121.078961666531 1.0165
122.015789196786 0.64244
123.029245215032 6.4971
123.092422787753 0.659606
124.02515888062 1.46019
130.06896870126 0.760207
131.064790702854 2.22849
132.078479061423 0.72126
133.079399472829 1.68972
134.009704475465 6.26738
134.092282541897 0.554257
135.017280391097 44.1931
135.090317778278 1.67489
135.120774557585 1.11138
136.025216366123 94.3918
136.129291582951 2.82201
136.16553287771 1.12229
138.040425390068 2.42771
145.079709914557 1.46862
146.087465444519 1.50735
147.095145712654 2.22045
148.025644825722 0.672212
149.03278349347 4.137
149.110096403381 0.529806
150.041101424435 100.0
150.151372028816 2.70091
150.187703722063 1.01682
159.095527364919 8.4263
161.110937089427 1.1805
162.119180669441 1.45681
163.037802346773 0.722565
163.126577737037 0.531709
166.071645959286 0.822901
173.111545725906 2.49816
174.119316750644 3.60346
175.12740176865 0.758815
177.052859491548 0.90075
179.068202570236 0.668042
191.068110706901 1.24148
207.100209358619 6.58037

