>compound Pyrazinamide
>formula C5H5N3O
>parentmass 124.050680796291
>charge 1

>ms1peaks
46.0660798392838 6.67833
79.0301134091874 3.01577
81.0467393673383 1.64491
107.02734907433 4.07424
123.083479751463 0.942817
124.051841977219 100.0
124.150696521872 1.55516
124.186563877369 0.984437
124.350790318891 0.51519
124.390838950633 0.624581
124.458848761587 0.634155
124.53815493959 0.64792
124.731541882606 0.59364

>collision 10.0
42.4158513504779 0.849755
45.7712384897411 0.751157
46.0649694220403 7.58493
52.0166866762533 0.969485
79.0293382700264 64.6358
79.0895242268488 1.35095
79.1148129362057 0.933598
79.1427080363136 0.77433
79.59522125643 0.719287
81.0443659642743 17.0549
81.1514540735993 0.851317
81.3806517441321 0.749915
96.059337140491 4.53506
96.9442695889617 0.82517
106.040095667503 2.68183
107.024031863545 41.2308
107.097147056071 1.12668
124.050680796291 100.0
124.151614512939 1.16589
124.302098986005 0.809538
124.352370560415 0.955454
124.460716459488 0.914111
124.742893422196 0.897342

>collision 20.0
42.0349351359196 0.855182
45.045710272352 1.93424
46.0668783194887 6.12448
52.01894202943 23.5561
52.082626255381 0.77232
54.0352530139893 22.4267
79.0302233376276 100.0
79.1158140032301 1.39439
79.1748594089907 0.870441
80.7747003822074 0.932429
81.0450677110017 44.9678
81.1390305433755 1.27273
87.9843559671548 1.13644
96.059733346618 2.13604
106.040447715211 1.02646
107.02533896934 7.01379
124.049838349412 8.32611

>collision 40.0
45.043389410449 3.85334
46.0663877212935 14.8522
51.012779844524 7.04955
52.0195971646012 100.0
52.066183320885 3.81052
52.3742577152995 3.36439
52.608974289777 2.32752
54.0358571953401 30.2546
65.005086614521 6.3169
79.028011229125 17.7882
81.0444453111497 6.21576

