>compound Pyridostigmine
>formula C9H12N2O2
>parentmass 181.097087910354
>charge 1

>ms1peaks
72.0449043315957 3.08524
102.007041077924 0.57268
102.999602436942 0.965712
124.076036703447 1.84213
181.013211260488 0.994779
181.097263801182 100.0
181.221759973516 0.706519

>collision 10.0
72.0451127759899 51.984
103.000271467663 1.00344
109.051938146013 0.713331
124.075770419905 20.0642
181.097087910354 100.0

>collision 20.0
44.0496307947342 0.686937
72.0452140845162 100.0
72.1235738799523 0.675665
81.0575499896032 1.27469
109.052446532091 3.59744
124.075784163995 20.7694
181.096772462899 5.42726

>collision 40.0
42.0344195930183 1.92886
44.049624830043 6.11496
55.041392629606 0.506915
56.0137258509795 7.97595
72.0450907858067 100.0
80.0501743763561 4.22165
81.0576395715804 17.8285
109.052589097383 5.23814
124.075434908542 0.97778

