>compound 1,25-hydroxyvitamin D3
>formula C27H44O3
>parentmass 439.318600792819
>charge 1

>ms1peaks
156.139479404036 0.512906
193.015978138051 0.560313
269.87838996048 0.682106
286.102712038617 0.73855
292.524537006061 0.555084
337.284478227295 0.550367
342.847112120662 0.501868
360.906948314199 0.889787
399.668664881442 0.813074
400.23086143331 0.507662
400.77629802879 0.616484
422.325390542342 0.611028
438.197284260937 4.35602
438.374371874349 0.647365
438.93868963692 1.22409
439.019142265546 0.623947
439.205582502746 18.1627
439.31996406943 100.0
439.504648852228 2.13855
439.564206360197 1.48198
439.616560480425 0.93884
439.689072936545 1.06289
439.756970650703 1.72785
439.816823551731 1.04239
439.887327538743 0.93391
439.973487286818 1.89504
440.160954125093 0.994592
440.235185077327 1.20294
469.23518507733 1.0e-13

>collision 10.0
122.079068101153 0.665985
240.981809988798 0.626903
282.845802503005 1.02922
307.154088910169 0.609525
360.887058801417 0.734385
438.195928876187 3.43663
439.198432097807 19.6919
439.318600792819 100.0
439.508371239421 1.79881
439.551829033962 1.44563
439.60544342325 1.07553
439.700607514878 1.09115
439.760973058276 0.70478
439.931080224776 1.41349
440.047436062624 0.868954
440.183601759988 0.667342
440.251653027071 0.94667
469.25165302707 1.0e-13

>collision 20.0
59.2918281703524 0.561288
87.075049385658 0.907467
89.0577104629094 0.734017
98.8213696839245 0.566102
119.084277981085 1.47401
158.959602658293 0.610036
178.907056994213 0.598373
188.910000508519 0.551994
220.921529664362 0.547256
248.982641272859 0.711054
287.872062670221 0.531219
304.060143622444 0.632221
312.579878618438 0.623998
319.215467766168 0.912142
361.13595097971 0.906555
361.186691746611 0.568972
395.333054162046 0.54807
438.199133670123 4.07136
439.198087803192 31.5862
439.314581907001 100.0
439.468840154593 1.88815
439.545669492815 1.36039
439.854173999193 2.21351
439.955836860324 0.894437
440.090467641014 0.939015
440.242132014949 1.1237
469.24213201495 1.0e-13

>collision 40.0
27.6122682946045 51.7091
46.0642621136034 47.6568
55.0516464325846 72.3264
57.0703820032823 82.5601
76.9950683681459 66.3195
95.0878517778536 83.7887
117.064933044331 65.952
131.990675492433 56.5192
135.943263980514 48.0228
135.997795940854 53.1506
146.966792549734 51.7977
162.97974308063 67.8701
272.707085173468 53.5987
324.480820069377 47.6143
439.191341394306 100.0
468.19134139431 1.0e-13

