>compound Pyridoxine (Vitamin B6)
>formula C8H11NO3
>parentmass 170.080974676763
>charge 1

>ms1peaks
130.010780440064 2.74545
130.512277609162 0.658634
134.059890736761 1.49905
152.069718195236 9.14594
169.018333152657 3.60355
169.51825530422 1.3009
170.015692691011 0.78426
170.080694238533 100.0
170.244315556095 3.47679

>collision 10.0
83.4939085980073 0.742249
90.0057202856194 0.985257
91.0051330173727 3.11718
91.504478073387 0.579835
122.499538972134 2.37203
123.001065227985 0.717778
124.075080057683 1.69454
129.013414876341 0.502581
130.011454704184 4.88284
130.512469006693 1.0161
131.009817339953 0.947765
134.059429855761 18.5349
152.070314973876 100.0
152.224678400972 1.8948
170.080974676763 44.2375
170.244300951732 0.784068

>collision 20.0
65.0387557711374 0.562382
77.0383313336386 2.22124
79.0543303582697 2.12379
80.049569097454 0.607984
81.0575225131864 1.70766
82.4943632465109 1.11635
82.9920284570932 1.47862
83.4926490999295 4.3015
83.9926376484867 0.727705
90.0066076100314 2.4508
90.5064741705932 1.03679
91.0040984600247 5.46562
91.5041681840088 1.17756
94.065317495386 0.791416
96.0802262994088 2.58987
106.064423144673 2.30956
123.066828840005 1.55695
124.074407919182 8.70251
134.058885737376 100.0
134.200823303832 2.32752
137.044728442789 0.561882
150.052611204979 0.562785
152.069409834855 43.3654
170.081200823522 1.09314

>collision 40.0
39.0234484292565 3.58867
40.0316378933589 0.600579
41.0390861618742 2.51971
42.0342261246037 4.08048
43.0193700582893 1.43403
44.9794104296833 0.99699
46.9957579348463 1.09917
48.9925329883986 0.582373
51.0236784057095 8.8915
51.9971291556281 0.560871
53.0027095178493 2.19555
53.0394601010258 11.6968
54.0344144226978 2.79064
55.054286403577 1.25828
56.0494392113094 0.957357
62.9902711629403 3.33073
64.9869269049292 1.29798
65.039152463029 19.8861
66.0461344927417 7.80572
67.0450089778545 5.42938
67.9660996169482 1.40667
68.0133944999196 0.546121
68.0499782606114 1.63596
73.9738335206934 0.789572
74.4791284960864 2.31138
74.978560072208 3.85604
75.4781983346291 5.74026
75.9806605622958 4.82306
76.4767373259405 0.757866
77.0388823818573 100.0
77.1465147289505 2.01732
78.0345782896486 6.97295
79.0546478815444 31.7931
80.0498389117335 36.7458
80.1609054999614 0.590521
81.0574514539337 20.2556
81.9902928889714 1.41381
82.0614249039243 0.813997
82.4942691988902 1.01758
82.9890347734891 5.80448
83.492204977708 3.02416
83.988996776316 0.747197
84.489626066192 0.566152
86.95796332051 1.4706
87.9635387352781 0.527618
89.0389155636347 0.760719
91.042989129273 2.79291
92.0495478978869 0.79714
93.0577085137901 1.87838
94.0657055960696 23.3571
95.0718145619163 2.50983
96.0805457708653 4.95351
102.000332545956 0.778392
102.978789728238 0.652197
103.993784726067 0.932385
104.047246840836 0.904597
104.967672749686 0.968267
106.064880760993 25.0453
107.072752096493 3.31209
108.044216274622 3.72625
109.052438864099 1.08542
122.059242309086 1.66737
123.068241800624 3.23167
124.074475902118 4.49934
134.059341872522 48.1791
134.200878856583 0.69691
137.044373507508 1.0247

