>compound 24,25-hydroxyvitamin D3
>formula C27H44O3
>parentmass 417.336705374042
>charge 1

>ms1peaks
71.0484269830388 0.949422
95.08443730836 1.61824
97.0984294761318 0.683358
99.0803735005676 0.608215
105.074766185329 0.820042
107.085692861713 0.730557
109.099724661621 1.01668
119.084007545016 0.917964
121.101342233417 9.40612
125.094855552236 0.536254
127.112392400395 7.86239
135.118620050319 1.52639
136.08972912442 0.864985
143.106552135615 4.64042
145.101450810055 1.04337
147.116963511864 1.04594
149.133953924508 0.992915
157.094717558328 0.77999
159.116941997747 0.922016
161.132594786824 1.72999
163.153331258398 0.762756
173.131821499806 0.73224
175.15155318871 1.38059
177.157828631567 0.625325
187.148892358319 1.25448
199.148671765486 0.622633
201.166913960465 0.876545
203.176447239269 0.690274
207.169670865196 0.509763
213.173089312294 0.800724
215.183498336783 0.991329
229.190207457362 0.716951
233.187920828129 0.76675
239.18150652545 0.972835
241.198291251896 0.904965
243.213724098789 1.26215
251.184757678883 0.834142
253.20130271504 0.856595
255.210244066568 1.84012
259.212348918107 1.88351
260.857643645578 0.509201
261.221359112491 1.94185
267.211789083833 0.927418
271.206861236715 1.48973
273.223208232552 1.31137
277.214872540565 0.54265
283.247234924356 0.566057
285.235092983484 0.626164
287.239086122281 1.32637
289.223624559756 1.07255
295.248128703767 0.890973
297.265897488913 1.14145
303.255607364464 0.79045
305.253415304025 0.693503
317.249887407287 0.824645
321.259498672158 0.802283
323.269964677708 1.81247
338.869462058371 3.58472
338.948694758197 0.758008
341.293944876871 1.27642
363.305363071468 7.0443
381.31700632466 41.972
381.485452076958 0.991892
381.541074897199 0.621049
381.615609646011 0.608813
381.696010068327 0.630086
381.943716210071 0.621106
382.311775341701 0.956003
399.327439294668 37.4864
399.50891431247 0.576895
399.601620396352 0.621776
399.709495211661 0.525964
399.962137350081 0.723374
400.35147554343 0.517834
416.329775056679 2.48227
416.880731184351 0.80662
416.952217499222 0.609144
417.337380385981 100.0
417.59452007009 1.48203
417.845468807453 1.0433
418.055566704102 0.74119
418.226133038805 0.744706

>collision 10.0
43.020434538362 1.64983
43.0551694265504 1.79104
57.0721496865721 1.4737
59.0526353539322 1.32542
67.0537988271265 1.39113
69.0694745341878 2.94807
71.0491364198418 2.67954
71.0888680510026 0.73972
77.0400304315382 1.15313
79.0238258307367 0.906332
79.0531518291761 2.16826
81.0713097059302 3.31326
91.0579859277914 2.14661
93.0684671757388 4.03579
95.0866130990034 15.9008
95.2070032695587 0.596323
97.0653588084566 0.557225
97.0992310410248 1.99089
99.0799395563523 1.98961
105.070533576111 8.80212
107.082655695539 6.46753
107.611420268539 0.58547
109.102240330077 10.5215
111.097335438532 0.74386
113.098846975421 0.784724
115.073593423557 1.54714
117.06955656222 0.585151
118.076601076854 1.47359
119.08449626375 9.99448
120.086693087775 3.10827
121.101974009109 61.5842
121.200297249817 1.18873
121.273301952603 0.728719
121.571037465725 0.876266
122.084533150689 0.526551
123.11236519421 2.71125
125.095913726172 2.36532
125.137477444947 0.872207
127.111467299592 30.7107
127.190185545353 0.597848
127.220491870092 0.735473
128.114162859044 0.894591
131.084521947161 4.85269
133.101432817987 5.6521
135.116181769975 10.9728
136.089353794018 2.08542
137.095801853966 0.697087
137.134755111833 1.20447
139.109534231761 3.01416
141.088308842275 1.05684
141.134374479269 1.10406
143.106712003528 17.4773
145.102383570854 7.73453
145.159288190139 0.518945
147.116672224006 15.2108
147.187270139933 0.707447
149.133942586299 9.46992
151.109802606803 2.04383
151.150519286261 0.654155
153.130668981385 0.587222
157.103296060373 2.23727
159.117219270924 10.2685
159.64701548931 0.801226
161.129844736355 16.0356
161.202756881525 0.524428
163.151308508184 4.9687
163.24297728507 0.602326
167.13813188843 1.28194
171.112433947521 2.05857
173.132806253541 5.35031
175.149930358071 12.6225
177.148749537459 3.88782
177.195895777454 0.662712
183.111693115159 1.91987
185.130924140701 4.74983
186.144979339669 0.519138
187.146702064531 6.46122
189.161768243603 6.87964
191.182245165937 3.13165
192.033816914501 0.600332
193.154934730771 1.00492
199.147275243409 5.38073
200.149717182314 0.853947
201.165288885117 5.07045
201.729134826215 0.629347
203.179152126005 2.76705
205.186209135081 2.48538
209.177444666647 1.41804
211.144238690734 0.79141
213.16360403996 4.78922
215.181498586474 4.53415
217.156281671411 0.720583
219.167747654048 1.53602
223.156255720451 0.737698
225.156764820548 1.0421
227.177790468534 1.09348
229.190804494781 1.84512
229.884282629459 0.596652
230.167329769599 0.650581
231.19563004849 1.1933
233.223229613826 2.05846
237.182335863105 2.83248
239.179023485737 1.1053
240.104156006564 0.717671
241.197830073849 4.61889
243.213252594955 5.21734
245.18529132665 3.55511
247.20905409246 1.36415
249.183148940722 1.33347
251.182686918699 0.943773
253.195445354685 4.10561
253.421574136836 0.607568
253.834300821554 0.624458
254.185959181015 0.645283
254.239909323552 0.549627
255.209820889261 7.54486
257.22442553478 2.36458
259.210606554939 5.13728
260.855112292774 4.22679
261.220036613804 7.43115
261.336383051778 0.577597
265.178272851777 0.531776
267.21036301507 4.19972
269.229191279531 2.95732
271.204721912817 5.05267
272.227702163802 0.665196
273.223100784232 8.13694
275.235217137883 2.50947
275.383864504337 0.56767
277.225900258707 0.952512
279.21854423803 2.15662
280.385654977804 0.556958
281.223672988422 2.9751
283.241363763084 3.5073
284.206597129316 0.741272
285.259694938555 3.06402
285.575383400995 0.78609
287.23824098967 3.89363
289.215273513147 4.87076
290.634440422543 0.653038
291.23154035758 2.98589
293.216435216836 2.9632
295.242945724738 12.7829
295.352638764153 0.585882
297.257857760751 2.11995
297.88197866627 0.672839
298.229139844071 1.00087
299.234349131225 2.18859
301.242783252226 0.808388
303.257487867371 1.38292
305.249562005535 1.82803
306.795480796761 1.22695
307.241313841506 0.938795
309.258361571891 1.61883
313.256286325039 2.10524
317.254920563905 0.578619
320.88517188575 0.545947
321.251904620854 2.54916
323.27040708974 6.61125
323.359151672466 0.5431
325.246829021823 1.02613
336.278269555741 0.596689
336.923196820795 0.679615
338.343591105087 0.669336
338.865962176058 8.19518
339.112567449865 0.912401
339.278105847804 1.41693
339.338692017613 1.02802
341.285617933042 2.55038
343.266672884275 0.536249
353.32278712756 2.11277
361.355735756663 0.826981
363.304198573086 21.301
363.392874188822 1.2632
371.33566152688 0.821071
376.175743527314 0.540595
380.312332353158 0.884167
381.316408720332 100.0
381.493013058269 1.33837
381.569972622698 1.29313
381.675396790815 0.743351
381.811331258564 1.65195
381.977780586023 0.784616
382.048356068702 0.744583
382.165826444766 0.648021
382.391803175262 1.03331
382.531928518259 0.894716
382.696948873282 0.527697
382.752792046723 0.869128
383.11828444684 0.642129
398.311837866548 1.13118
399.328787983335 67.6937
399.501923524324 1.04763
399.591827219035 0.753414
399.716321876277 1.02355
399.782003566322 0.756971
399.866669734704 0.550812
399.90402408516 0.532433
400.036608997157 0.90679
400.223640408548 0.747131
400.346309344978 0.56376
400.590593640756 0.643459
400.914815269012 0.576319
416.318835035952 1.88823
417.336705374042 24.0575
417.463715676955 1.2815
417.523206601056 0.705326
417.779526682789 0.531605
418.038239173991 0.711658
418.134595147484 0.538441

>collision 20.0
43.0180240368001 4.34198
43.0548894306555 8.94146
51.0209439467066 0.759771
55.0535653574899 3.38138
57.0696907753325 3.45538
59.0481613852331 2.19838
59.0708737723639 0.85804
65.0385955112787 0.756375
67.0547017030629 10.3861
69.0321657559748 1.30083
69.0711441483228 11.1239
70.0715403231307 1.0436
71.0499304321308 15.9582
71.0864389316383 1.60842
79.0531473894243 10.2837
81.0684481536658 28.0285
83.0466009527463 1.23875
83.083507701137 6.17419
85.0642384318555 2.12151
87.051893258835 1.10499
91.0534064494746 8.35663
93.0702371717716 28.1299
93.3419936435403 1.42087
94.0745737203964 0.791782
95.0845650988473 43.7029
95.262679702891 0.669276
95.5875571797592 1.04736
97.0661146237064 6.36555
97.098748904986 7.23034
99.081470254215 5.23071
105.069569246472 25.6565
105.167537354756 0.708778
106.624622771686 0.676295
107.08406772888 26.638
109.100997086459 29.9491
109.173859681059 0.683068
109.199705464717 0.786942
109.915947345 0.676312
110.076706862711 1.96139
111.082263406551 1.06402
111.115367374216 1.98387
111.965640342732 0.625722
113.093045992337 2.21241
115.069243252229 2.57014
115.495976892752 0.887406
117.066134624167 8.7507
118.077760152746 4.57329
119.082604970846 13.3548
119.208753185184 0.748334
120.083683626001 1.96578
121.100158983736 100.0
121.200893619307 1.3464
121.229639030139 0.977657
121.295167470701 1.27557
121.333544273407 0.90875
121.534795009882 0.632907
122.079895939277 0.980486
122.376721886209 0.810605
123.114256436309 15.9813
123.191172875363 0.868509
125.093002638344 7.97622
127.110771893885 34.2775
127.191607438775 1.06725
127.541564350245 0.654047
127.631528152139 0.792011
129.064130816213 1.23622
130.073352078981 2.10713
131.082427608034 14.4231
132.087031342525 0.62426
133.099996870589 26.7418
133.480163291684 0.887107
133.963157194512 0.736263
135.115851449515 23.1799
135.244079628282 0.690218
136.105488959579 0.809467
137.091494759779 2.31893
137.134003703731 2.96847
137.837436541029 0.685433
141.080148773669 1.35416
141.120194507729 0.81068
143.101067029805 12.1141
143.160458166405 0.669323
145.099934623863 17.4144
145.215195013186 0.828894
145.315316400875 0.944244
146.104711157066 0.90337
147.115562256262 28.9655
149.12964005704 15.0653
151.108992758232 3.63443
151.142739064845 0.859482
155.083867599011 1.01168
157.09763332342 8.18661
158.100400229739 1.90857
159.116198417359 45.548
159.223443781938 1.08198
159.275514076942 0.722836
159.817754175018 0.830572
160.116028165044 0.90267
161.129994332257 27.5503
161.238016053622 0.912708
161.296247445754 0.911563
163.144856221376 11.7302
165.121078643623 1.17078
166.955670180995 0.897077
169.089911716211 1.26646
170.103896833959 2.6289
171.11169058749 7.26235
171.231183740748 0.824298
173.129631964928 24.1608
175.145783528969 27.2828
175.252590141433 0.785946
176.115804670755 0.887336
177.126546386759 8.98578
179.131842184696 1.66873
183.113256746293 1.16899
185.130118203721 12.366
187.14527267101 16.4755
189.163309450514 15.9102
191.018530371981 0.887276
191.175276978455 3.43853
192.029595819324 0.666047
197.128045880403 4.38767
198.942832772486 0.887755
199.146576593102 11.5692
199.345448318742 0.799131
200.152486673615 0.685433
201.163737470862 11.4151
201.614420951714 0.670636
203.17606110126 6.44604
205.170276706369 3.14378
209.12732659625 1.34093
211.146305958181 4.48239
212.16994777224 0.645876
213.161191591056 8.87705
213.226572731397 1.16386
214.168882077154 0.700647
215.175407778457 8.42686
216.556237086887 0.849632
217.194089667236 1.67006
219.170940667893 1.82319
220.171794981747 1.02758
225.165751958716 2.74932
227.1767022407 10.7604
228.226580910877 0.627978
229.190630742748 5.11409
231.185882751207 2.60322
233.217861873689 2.62136
238.159634526807 0.832971
239.172798188456 2.15948
240.178303249478 0.84762
241.09613262946 0.831157
241.194114209236 7.28303
243.209140618974 6.10867
243.304512848244 0.688525
245.219948561172 3.55535
247.198580098663 0.906508
249.221249212044 0.719153
253.193686612945 6.77519
254.216386390874 0.952435
255.20638543591 6.71781
257.218184131933 2.88989
259.199446756517 4.19003
260.848695800629 22.5024
261.218438516113 4.73665
265.198255446836 0.743651
267.201508738349 2.30367
269.223242004696 3.13034
271.207885758317 4.93815
271.288290798659 0.705365
273.21698936289 8.76059
275.223926058717 1.70193
279.220342502982 1.22394
281.22204003574 4.33712
283.241053447521 3.76002
285.226275450215 1.55922
287.238355318001 1.55891
289.215321787574 1.17345
291.229136181366 1.21214
293.220332452902 1.07387
295.24090084578 14.4933
295.370687383751 0.705607
295.994676427207 0.670636
297.256425636276 4.15002
299.233212339726 1.6964
301.240612517356 0.657249
307.237246801065 1.8849
307.276105934375 0.8387
309.258656789136 3.09805
309.609730023488 0.632716
311.261203863236 0.918233
312.973011971361 0.887607
313.253969233389 4.00216
315.258866512995 0.625714
321.144419116142 0.860483
321.250825290695 1.77616
323.270467694856 2.21248
323.315682206245 0.879325
325.239723702411 0.871593
330.871702803367 0.983375
335.283489422132 0.778407
338.868080392389 2.60968
339.298121771608 1.39097
341.288611685742 2.43202
343.21646397553 1.82094
353.292058814291 1.29225
354.504678471819 1.01038
363.298294735389 15.2934
363.593883330389 0.646774
380.298110946784 0.895375
381.310793149443 35.3544
381.407954482113 1.22985
381.467548808329 0.63865
381.640862693975 0.653658
381.806226708447 0.636149
387.083071535491 0.670898
393.944028070597 0.778864
398.326982905625 1.13177
399.321445049385 12.0391
402.304587917446 0.897341
416.324037683051 1.80574
417.336807865738 1.32445

>collision 40.0
41.0385942315904 6.26588
43.0189528080316 25.5608
43.0552983234249 47.489
53.038561314505 1.61721
55.0551493363846 25.0537
55.1204266993318 1.02732
57.0353655042406 1.05048
57.0708473017925 4.64329
61.0135348902791 0.848506
62.0198494265671 1.16577
65.0383225370545 4.50252
67.0544190313499 29.393
69.0351435723027 1.66119
69.0719329803955 19.4852
71.0501921638035 9.2663
73.0669436816903 1.0665
77.038688580508 14.7926
78.235994128651 1.57276
79.0184056379223 1.13239
79.0547446592294 51.1371
79.1366605113828 1.00987
80.0623468054573 1.99115
81.0695181782002 58.3272
81.2624310588784 1.17088
81.4562095817355 0.873725
81.8066497015843 0.965467
82.074050708697 1.06949
83.0822781754279 4.84936
85.0987641077694 1.5161
86.0731682542083 0.902437
87.0392963699424 1.12515
91.0551484422968 36.9651
91.1425824936433 0.975118
91.3479583097298 0.911076
93.0693006883998 76.8557
93.1300788993074 2.21118
93.3032820548599 1.08454
95.0859539985111 57.7689
95.3303358989416 1.35872
95.5044966891858 0.982508
97.0659145916172 11.5158
97.0965457548342 3.30526
99.0809764254876 2.92667
102.930121150498 1.29801
103.051864212001 1.5908
104.95599452694 1.47043
105.070430886877 100.0
105.166364654892 1.34267
105.198360140912 1.19115
105.315863948266 0.978977
105.449937376619 0.847446
106.071035769567 1.26209
107.085107350655 61.7294
107.179143476204 0.913359
107.446436702816 1.42119
107.979114338864 1.25104
109.101913780114 31.1006
109.176398547287 0.898058
109.282754130508 0.848701
109.397981119488 0.861066
115.050425336856 3.26752
116.06062628832 3.17605
117.069906924161 37.7856
118.079918733894 9.39728
119.084309136702 41.0296
119.183579347852 1.1088
119.53376279327 0.851113
120.080733861318 1.10874
121.100271679968 58.8555
121.196766833035 1.27161
121.551672571328 1.1467
122.981782042302 0.954966
123.08117452778 2.48157
123.116385459657 9.35566
125.097747674779 2.94576
127.110698721639 5.37868
128.068818066648 3.69301
128.100690233508 0.868748
129.070013532891 10.0267
130.079638022983 1.57556
131.08415201577 62.7488
131.245734999434 1.22154
133.100441207683 61.0126
133.205833075245 0.916195
135.117273879706 21.0194
137.128337640481 3.87496
141.072845162712 1.68054
142.072684894329 4.55478
142.681044582708 0.847976
143.086435503428 11.0417
143.604118947197 0.856773
144.089186051508 7.77297
144.360002406102 0.851113
145.099500543913 38.636
145.168562967463 1.6188
146.109397154743 1.72667
146.248813816356 0.920331
147.057176878441 0.883892
147.117109408953 22.5968
147.174265360395 1.34999
147.483012780078 0.899145
149.088594653158 1.35423
149.134894475336 7.75097
149.939642071464 1.27468
151.1035636925 0.871281
154.06824069424 0.848859
155.083728911997 2.69428
156.093817491644 3.74922
157.100295710898 12.8389
157.14314882625 1.18748
158.106860724946 4.1623
159.116647850493 72.0448
159.235931349401 1.1045
159.302246672813 1.54735
159.351186572719 1.24469
159.468412054862 0.933704
161.130893103617 15.2
162.117150589338 0.968644
163.141840649418 1.33036
166.935768715465 2.17903
167.088763348548 0.892467
168.10201161967 1.53838
169.093992155971 2.17815
170.113091113996 1.82995
171.11430407288 7.97298
171.19638568213 0.858702
172.121842897659 1.34683
173.132228856387 9.33185
174.132852653965 1.10698
175.150994310802 9.98133
177.129106429896 1.48391
180.08723904568 2.0077
182.10507001655 1.56269
182.839971191724 1.37547
183.112675042751 3.19783
184.129233968425 1.72276
185.130080126952 10.8378
187.147999156188 10.478
189.160298312799 2.59001
196.033360543673 0.870916
197.133869060932 1.2565
199.15422728189 6.86544
200.546701306955 0.973924
201.165894300203 4.93738
205.180170118045 1.44073
209.129439845039 1.167
210.146810145861 1.01996
211.133991444655 1.10733
213.168237365025 7.01144
215.184229045787 3.34874
225.160989075547 1.81565
226.168280690703 1.86544
227.190749088198 0.944229
231.21016827296 1.20337
238.166450396359 0.932191
241.196621381495 1.6345
245.82602738551 5.56253
254.200283320551 1.18993
255.211701268702 1.31721
260.852750996623 8.2996
265.189151977507 1.84062
268.940644655608 1.11009
277.195946601984 2.11438
281.213186278845 0.932569
298.228573387424 1.14894
363.313756695449 0.911131

