>compound Quinidine
>formula C20H24N2O2
>parentmass 325.190983018753
>charge 1

>ms1peaks
325.190956792183 100.0
325.352005075249 4.67184
325.419244657653 2.03257
325.49116693878 0.868818
325.531898126125 0.804019
325.573735043894 0.953617
325.64780104667 0.566076
325.74734230406 0.521521
325.793733697689 0.500787

>collision 10.0
307.180609650329 1.11493
325.190983018753 100.0
325.35157847713 4.86991
325.420363122074 2.12565
325.530305663275 0.885391
325.57348317351 1.05247
325.637508072943 0.620404
325.747338913205 0.573285
325.794288636643 0.54201

>collision 20.0
79.0548542706652 0.671615
81.0705912043242 1.87528
110.096545497061 1.40578
160.075628869857 1.64747
172.075438817583 1.18301
184.075710819077 3.44061
186.091112671689 1.00282
198.091164375625 1.69816
253.133686088455 3.16071
264.138183206594 1.41305
279.149456889239 1.43673
307.181362975605 10.8678
325.1909802809 100.0
325.352576808538 4.47756
325.417926275183 1.92055
325.49170261372 0.747963
325.531941514249 0.724402
325.574596130369 0.81592

>collision 40.0
41.0392443082452 8.15377
44.0499352288873 11.6584
53.039194055968 11.8926
55.0550804438784 16.0193
67.0550186082716 20.1812
77.0392342079783 8.34545
79.0550667235233 84.888
80.0505190160437 10.9382
81.0706714707435 100.0
82.065791821378 13.102
91.0545962314151 9.35429
93.0692237091672 6.11203
94.0658211919054 5.53646
95.0833352567194 5.42787
106.065544177463 5.14304
108.080881594717 7.54583
110.096497202388 7.08734
134.096504265326 10.9194
143.072821531188 7.28004
154.06499989505 7.64584
155.072744983396 9.11981
158.060063959943 7.31594
159.068009396929 5.14604
160.075669453415 38.3308
167.072574462981 8.51839
169.052800871 9.00568
170.061013172251 6.07246
172.075934275564 76.981
173.083253214716 18.3018
174.090698129531 10.1615
182.062088088316 5.59418
183.06808267307 10.1527
184.075642656696 38.9402
186.091073288893 32.9353
196.075553960661 7.50757
197.082562995796 6.12433
198.09090328294 23.2548
202.086118562746 5.13023
210.091398298731 12.5223
211.089900608695 6.06099
224.105735069842 7.25751
251.118287468782 15.8529
253.133549024577 13.2375
264.138875888232 6.21374
265.133898020606 5.15946
307.180698991567 13.4726
325.190677125214 8.41724

