>compound Quinine
>formula C20H24N2O2
>parentmass 325.192678818826
>charge 1

>ms1peaks
325.192678818826 100.0
325.418125132438 9.46463

>collision 10.0
307.180326153623 1.28319
325.193903957418 100.0
325.419161026781 10.2394

>collision 20.0
79.0543466929365 0.780239
81.0699472751938 2.1687
110.096169911501 1.48021
134.095821542614 0.583676
160.074319364437 1.68514
166.12178008126 0.53978
172.074515334471 1.36255
184.07486863488 3.49613
186.090132001235 1.15976
198.09040027795 1.73612
253.132580797171 3.04958
264.13739889557 1.41299
279.14819349571 1.35739
307.178973045764 9.70847
325.191075755006 100.0
325.416946541335 7.61676

>collision 40.0
44.0504284853716 12.6345
53.0391785689652 10.659
55.0551252972811 16.5298
67.0544334602363 19.0239
79.0545610553826 79.5035
81.0702189153598 100.0
82.065321597024 12.6519
134.096257108432 10.7458
160.074770456685 34.6153
172.07507089953 72.8559
173.082758836186 17.5219
184.075060064341 37.169
186.090362568505 29.3899
198.090353828443 22.6841
210.090760449659 12.6935
251.117176503326 15.8446
253.133058326514 13.8379
307.179309961897 13.1704

