>compound Megestrol acetate
>formula C24H32O4
>parentmass 385.235938334994
>charge 1

>ms1peaks
265.194896756511 0.712628
267.173748154023 1.07185
325.217832473267 3.66607
384.251220266964 0.524083
385.239218816041 100.0
385.411341171392 1.47862
385.461976198212 0.859623
385.5067003233 0.738303
385.616809153264 0.627495
385.733151031565 0.611291
385.85433259805 0.651748
385.981717692681 0.562895
386.046256261506 0.519951

>collision 10.0
157.098576267486 0.518071
169.099595228306 0.658254
175.109785096911 0.898294
183.113822141362 0.992568
187.113977789489 0.922458
223.148501078348 1.33277
224.153963132291 2.93182
225.162631360428 1.51097
237.156072150605 0.537421
241.160339594239 1.18494
249.16065934472 0.944698
255.173260024334 2.83539
263.179234935465 0.93922
265.193963394963 6.18745
267.173116829632 16.6001
281.189309857143 1.78727
282.19614165404 2.68665
283.206033313244 2.17049
289.192974009616 0.88481
307.206199677652 3.0743
325.21460440293 38.9847
384.24812124169 0.810033
385.235938334994 100.0
385.415029549402 1.51187
385.511471645582 0.59755
385.554393912006 0.523914
385.646612841282 0.566647
385.891091144299 0.602451

>collision 20.0
43.0175970688533 3.91999
43.0537726412384 0.521637
55.018246880077 0.519037
65.0384146998486 0.580298
81.0710966977354 0.561993
83.0494720843027 2.71778
91.0553347610049 0.801927
93.0686343303084 1.1274
95.0821163700679 1.26751
97.0663164109144 2.33218
99.0800282267956 1.01081
105.070645219386 1.01302
107.085947904323 1.22724
109.100872695263 2.14829
111.07990987569 0.996485
119.081385174511 0.521391
121.065034115096 3.87398
121.099816710898 1.93756
131.084899124363 0.635604
133.099327117629 4.5434
135.080499991108 0.768685
137.093445797994 2.09389
142.079322923959 0.561557
143.089508823122 1.45489
145.099662450674 3.09921
147.112203376014 1.72309
149.092586934168 1.49002
149.134713278931 0.586885
151.113426311542 2.23324
155.087441167528 1.03144
157.099443678825 3.34834
159.110422113754 1.46876
161.097120093818 5.20896
163.109606510245 0.923416
167.137347511049 0.518872
169.098919888193 3.00262
171.117611507007 6.01462
173.113816581007 3.00341
175.110482432895 10.1877
177.123419184972 1.39575
181.099994603538 0.583626
183.115691982058 7.75574
185.092453828044 2.09745
185.128499483728 0.935367
187.110075434922 12.5159
189.125534889554 7.24019
193.098365605572 0.894211
194.111942369082 0.768674
195.11618877266 0.59785
197.133341718765 2.38374
198.139106805657 3.64032
199.14398824465 2.48366
200.157886318262 0.77197
201.127801931299 1.69958
205.154183867723 0.621013
207.116002694903 0.780198
208.126929741655 0.90214
209.136081120599 4.56408
210.133285334732 1.02566
211.146390102266 6.62232
213.147366548465 2.00187
215.144789001607 2.74165
219.121160143463 0.564107
221.124325647749 0.690916
222.140483003826 0.533631
223.146127918096 13.8804
224.155587974185 45.6693
224.269600334768 0.694633
224.84149620064 0.730788
225.164036752434 19.6847
227.157756542424 0.72975
229.158894181579 1.35722
231.137805124721 0.849469
234.148515393801 0.714383
235.150753841699 1.34243
237.16134673567 4.86997
239.148167820717 2.06349
241.15713127759 8.97115
243.17157201313 3.36903
247.145245311053 2.65505
249.161866508183 9.33495
251.139814844648 1.65169
253.156605533787 1.28199
255.174743472284 15.1316
263.176450688115 5.10899
264.187801280611 2.76751
265.194948595592 33.4475
265.33588758067 0.528447
266.163470512367 0.653025
267.173298176273 100.0
267.31895349562 1.65386
267.398248045364 1.03719
267.486840956696 0.650593
267.734215488172 0.702717
267.979262596847 0.539858
268.17571855443 0.984624
279.198281130745 0.951342
281.19059873955 13.6994
282.198093797529 42.7935
282.347999366269 0.592679
282.402012796152 0.562706
283.208710973527 12.3569
283.303479072632 0.914528
289.199192417552 1.97598
297.203273487539 0.519024
297.95608074029 0.677085
307.204161050177 14.1555
310.188361409217 0.523876
323.189666276121 0.639433
325.215655664569 82.679
325.378545714369 1.14149
325.429025823023 0.597807
325.548466318052 0.603947
325.691396946427 0.784399
325.757514269022 0.592923
326.114416944031 0.510627
343.221618394569 0.796498
384.246927499104 1.14058
385.237442710781 26.147
385.398525203675 0.573192

>collision 40.0
41.0422882736348 0.866671
43.0180055582995 29.5619
43.0518736056905 1.9315
43.1975847064696 0.628148
53.0399480955079 0.726858
55.0167324407366 0.91125
55.052951060842 5.56041
57.0716673567817 1.65501
62.9096143640377 0.951351
65.0345442133699 1.54171
67.0541198359364 2.60862
69.0309077085223 1.09225
69.0732130098646 1.39514
71.0451227169042 0.656195
74.0839942271447 0.76291
77.036377690654 2.14294
77.2187845771844 0.565789
79.054753577715 5.47156
81.0677593144085 3.89227
83.0494689412608 8.81747
83.086088522441 0.582082
83.4007836896955 0.894355
85.0263603010435 1.08837
85.0645915225414 3.30245
90.9705792326184 0.653099
91.0553908019596 2.7373
93.069081337036 9.62085
95.011475721111 0.799109
95.08337758622 5.00515
96.603281643165 0.60364
97.0641385747557 19.8828
97.1534038704073 0.682756
99.078213857245 1.97368
99.3005697607594 0.696335
105.067678616736 10.2954
106.082321335802 0.708621
107.08546152588 9.43964
107.53186435625 0.584017
109.060619070808 1.05734
109.100864682936 4.6765
111.07778459037 1.77871
111.38103212446 0.795906
115.051582941464 1.47342
116.066146800831 1.32628
117.067759669289 3.76433
119.085826821417 10.8392
121.063623942356 10.7936
121.09891946832 7.71157
123.085033986254 2.94898
127.055791058357 1.30247
129.065571398766 4.64316
131.086626040436 6.64669
133.099168782117 12.2879
134.07785803077 1.25363
135.076222683226 3.65211
135.115126907257 3.83045
137.098340244329 4.90811
141.085304874087 0.571255
142.078173054979 4.35997
143.08614170423 7.06813
144.09136887146 1.92066
144.306317450855 0.668491
145.103131122653 12.5102
146.100404999673 0.808116
147.080079596688 1.70471
147.117816696666 4.74156
147.164035227259 0.593578
149.093792305749 1.45917
149.281433260572 0.6982
154.086587207113 0.566636
155.085628229652 8.0927
156.088007081036 1.78747
157.101146203396 11.968
158.110826999503 0.753676
159.116159129362 10.9459
160.086488376875 2.55708
160.541857041076 0.611442
161.095738554452 6.66114
161.73376128036 0.896987
162.097246739571 2.3204
163.113716880254 2.90725
165.067606263305 1.89196
167.084948099206 7.00439
168.094525337967 1.84842
168.784801706953 0.590817
169.100343955838 15.0867
170.067690179942 0.905124
170.108826628639 2.89081
170.430026369942 0.589773
171.117721674933 13.4685
171.236319044589 0.566588
172.09453748785 5.01403
173.102179557765 6.49797
174.10216594063 1.89247
175.111017111744 22.1071
176.110983074031 0.653043
178.076764195741 0.588974
179.084668487978 6.6169
180.0919500635 4.05836
181.099721790821 8.42935
182.109145172927 4.3492
183.116140420263 31.3704
183.202970590828 1.20061
183.239460000213 0.624725
185.122131915843 9.61565
185.189230406817 1.39681
186.128829502633 2.93696
187.111817361645 28.4882
187.237581725976 0.696029
187.314232845434 0.701095
188.119409476419 2.36765
189.131468762971 4.11001
189.275638423566 0.782725
190.075579537589 0.863198
190.118950864279 0.765936
190.924334031656 0.65478
191.082440959003 1.32964
192.09740650638 0.904013
193.102662700949 4.85104
194.107018137059 7.53529
195.118132548264 15.2188
196.123652440126 4.26889
196.348289181173 0.778311
196.591691911952 0.579325
197.132275102111 15.7411
197.454403340475 0.597899
198.138038757935 13.6646
199.149203033142 7.31024
200.157711704634 1.44733
201.16065693705 2.37804
203.078188090075 0.616464
204.094982409322 0.782918
206.106914935333 2.39653
207.11786552054 5.23596
207.165638453378 0.558386
208.123370931894 7.05335
209.132458926299 92.7295
209.259607493902 1.5566
209.297477578612 1.05008
209.339204871933 0.651672
209.469050162472 0.642043
209.647436907152 0.740701
209.793462712042 0.847814
209.905431003186 0.991375
210.140144753163 9.08786
210.219849513875 0.947475
210.279881211893 0.834489
211.148969160952 25.71
211.252934632614 0.861461
212.145345485175 2.918
213.15868509799 4.03874
215.149911631749 1.66876
219.112972623395 1.51934
220.1219442601 1.614
221.127307170869 2.89875
222.141854277383 7.21173
222.983593499715 0.646553
223.148468688941 24.9014
223.259297092276 0.555834
223.342918382637 0.629043
223.410925392188 0.628148
223.737734300579 0.584563
223.887359076818 1.52073
224.15729856721 100.0
224.291091031057 1.25274
224.409388521329 1.01757
224.504629096624 0.635261
224.605010447324 0.643201
224.802913901996 1.06166
224.84677005998 0.640702
224.884673725398 0.690844
224.982129382791 0.809009
225.162901343623 20.0279
225.32767327179 1.03592
225.400970602763 0.592663
226.132834804373 0.667806
226.31704231028 0.790354
227.132436584577 0.585975
227.294974766838 0.63988
231.12776361917 1.21655
233.129054470112 2.05762
234.140890984915 9.75396
235.147845858232 7.58478
236.115784126386 0.611424
237.156204665489 5.54244
238.15561186248 1.76634
239.156086430798 2.99453
240.181877480122 0.962615
241.147995347696 2.16173
248.144418201119 1.05822
249.165882197275 16.1701
249.833376305346 0.587623
250.168408978049 1.93481
251.142895819995 4.48371
252.146388484934 3.735
253.16220910678 3.18216
255.175879003873 1.34901
259.131947197852 0.709444
263.050225863301 1.16946
263.175836888581 2.23313
264.159994486606 1.18177
265.194251964651 7.81703
266.163807041152 4.49467
267.174250499523 54.3775
267.311563718909 0.800325
267.5301459296 0.849174
267.629271038428 0.618606
268.191484497493 0.771581
275.182035064418 0.793146
277.14932571737 1.2494
279.213892814991 1.06081
280.286855560225 0.80593
281.18301169563 3.25807
282.200610022625 23.9318
283.209880642079 2.1912
283.834898835044 0.594441
289.194216407674 0.739536
307.200170911893 4.29942
310.191983348036 0.972656
310.270356770877 0.729295

