>compound Raloxifene
>formula C28H27NO4S
>parentmass 474.174697731422
>charge 1

>ms1peaks
473.666526313511 0.657769
474.173826721562 100.0
474.448358931631 6.00921
475.133351190605 0.646281

>collision 10.0
112.112635966931 2.04891
473.666402038194 0.597025
474.174697731422 100.0
474.449408153436 6.56111
475.128370673039 0.607343

>collision 20.0
84.081814714996 1.18823
85.0893271623385 1.41215
112.112877778389 15.8623
269.027115574942 1.1217
474.175086490212 100.0
474.450256876626 5.85571
475.142570825409 0.521473

>collision 40.0
41.0394612621898 4.52656
44.0505990994739 5.42563
55.0550822759155 5.13306
56.0504217745673 7.08979
58.0660558927122 4.51324
69.070569154575 11.1166
70.0654590199944 2.30901
84.0811342523947 39.8962
84.1940331564408 0.771791
85.0888637973847 21.7151
86.0963860266549 1.78014
98.0965064368675 1.72299
110.096782468236 1.2974
112.112255600498 100.0
112.246817899946 3.44815
147.043657540495 3.93956
197.059445387989 1.31549
213.036665805262 0.685005
241.031268975472 0.556456
269.026058814354 10.3224
345.056681267409 0.602753
361.0523601376 0.728297
362.060037215512 1.4315
474.1727154654 8.61882

