>compound Reserpine
>formula C33H40N2O9
>parentmass 609.280181490382
>charge 1

>ms1peaks
608.266365182058 1.30099
608.873640834892 1.1162
609.279621660479 100.0
609.487397798937 0.526994
609.846420766191 0.521248
610.278107192428 1.26875

>collision 10.0
195.066016760188 0.849118
397.213724036402 1.24517
608.270399352822 1.50994
609.280181490382 100.0
609.936591456421 0.723253

>collision 20.0
174.089407302914 2.01114
195.065909922942 4.86248
200.948259730951 0.659077
365.185435124825 1.47352
397.213649137453 7.04417
404.917262533811 0.571096
448.201752758529 2.38376
577.246395479976 0.922732
608.26644616557 1.19208
609.279736632095 100.0
609.438826428285 0.630254
609.507130130931 0.589989
609.630579936009 0.61926
609.784679757336 0.524449
609.960004456361 0.602291
610.156417563052 0.790663
610.280194510218 1.4042

>collision 40.0
64.9769046956745 5.4165
77.0372417658376 0.796902
79.0591002964054 0.64743
81.0334289490462 1.35707
93.0283787972839 0.595034
94.0637600259655 0.766604
106.067356070314 1.18171
110.057599060209 0.669361
111.041972857905 0.568365
118.066247635111 0.582218
120.080816953737 1.15515
123.078831215131 1.32646
126.090516551611 0.577109
129.062957304225 0.854381
131.084218214246 1.87175
131.26042002266 0.615886
132.077507930419 0.984475
139.073515151958 1.09214
144.079164816939 1.45308
146.061848813522 0.549881
147.075223890421 1.09479
148.072947179497 4.45688
152.045700044494 1.57196
158.958936523076 0.632691
159.066995509848 1.83462
160.076993706727 4.07263
161.083293935394 1.62235
162.087221244863 2.3713
163.074334502752 0.710163
167.074621362847 2.51962
168.084282611728 0.559793
174.090702007917 81.0652
174.212068727379 0.74756
174.383936962209 0.583978
174.467367591129 0.50569
174.696585570647 0.557843
174.759015118387 0.706702
175.08801786497 1.51786
175.943985213387 0.577109
176.103858929985 1.73894
178.085324357408 0.819748
187.068247770218 1.58548
188.107537580424 6.05898
190.080622691553 1.76845
192.102231125276 8.60246
193.085267989581 0.773174
195.064595258667 100.0
195.308242693546 0.563379
195.387053366182 0.610172
195.638900184132 0.73551
196.074228080975 1.11565
199.103104188585 0.716464
200.107364307835 5.05271
200.95186638442 1.86393
200.989285114322 0.777453
201.101956574111 0.695701
204.099198734921 1.99984
210.093615180157 1.86046
214.106844304207 1.4009
215.11619119441 2.38686
224.127996091277 6.36766
227.118223379179 0.658912
228.120215396384 0.881829
229.13051496302 0.88103
232.901748774722 0.530255
236.125872774719 17.2601
238.128014633306 0.824573
250.117768375225 0.90868
251.119576481535 0.581842
252.119666438728 0.681463
254.131221511542 1.1447
264.135358206162 0.732512
266.514428973093 0.546231
274.122761675598 0.539465
288.136876703098 0.996212
289.144712817938 0.659134
290.114281648391 0.888939
291.146210590924 1.10171
304.126538631901 1.09587
305.159891300427 0.571573
306.172760632739 0.622079
307.144201934546 0.744184
308.134407171992 0.725845
315.147724265282 0.533067
316.128405014419 2.3284
319.127257195147 0.615318
322.140318457824 2.11227
324.149422256838 0.596094
333.15162849953 2.62748
334.154684473216 0.822435
336.159351516986 5.55427
337.180102315603 1.32959
338.102727624836 0.54024
348.159323674462 1.90065
353.130328340851 0.537517
365.184603049445 12.3356
368.18116395096 2.38413
380.181571000751 1.12965
395.192237282763 1.17625
396.198465598808 1.96996
397.211083778529 32.2025
398.210136579424 0.52508
398.866276184493 0.606016
402.170211003653 1.07118
411.18316127878 0.655134
434.18258015156 4.04884
436.194297637129 2.42954
448.191500851738 13.7918
561.245557334373 0.711102
577.240604014384 2.08312
608.266446420372 0.837476
609.28576560103 9.34347

