>compound Dihydroergotamine
>formula C33H37N5O5
>parentmass 584.286701900929
>charge 1

>ms1peaks
270.162395579841 1.33418
566.28530569722 0.861852
584.287581478273 100.0
584.473994486181 2.31906
584.827492818171 1.84648

>collision 10.0
253.135996399717 2.55208
270.158711351665 5.99722
297.117843419253 1.08026
322.153487761105 1.79224
327.62076871701 0.707667
427.764001428026 0.750024
566.276313583309 8.48971
584.286701900929 100.0
584.468495576037 1.22785
584.821721187232 0.875041

>collision 20.0
59.0539363218225 0.542546
71.0843729373898 0.736348
87.041799152892 0.54872
89.060530171992 1.70655
133.086787187969 1.36672
154.066910361465 0.983006
177.122989234619 0.54678
210.092239207664 0.919504
225.136754023684 2.48866
252.122321056208 0.82729
253.133908827562 21.9557
257.243566069797 0.695789
270.159983280656 58.0571
271.16331309746 0.55882
297.12276001239 8.42703
298.122613604371 1.10585
313.611567248262 0.678157
319.62823575361 0.621072
322.154616596539 9.90414
327.616804541874 1.27705
340.130444206156 0.60755
427.750441862267 0.829667
538.285662179621 2.4972
566.273956139039 22.4141
584.287150084662 100.0
584.467451585334 1.09797
584.59361369538 0.573613

>collision 40.0
44.0506757058117 3.52774
45.0346602177589 1.72066
70.0667151741375 1.34009
89.0591232746349 1.50768
115.058248217297 0.562388
151.05150374382 0.529563
153.068681317893 0.584109
154.067944589686 2.94205
161.547450373745 0.680372
165.071688461514 0.609312
167.076045897935 0.63637
168.07997873493 7.7685
170.549482490322 0.696504
173.111203224244 0.538333
180.081850184364 1.76614
180.983779582718 0.82072
182.092203139783 1.18134
194.098200195631 2.42455
195.103195414027 2.45631
196.109449222757 1.13068
197.109127607921 0.574197
206.078221931299 1.76552
207.082229673658 0.847183
208.072080091112 1.05085
209.108399401556 1.00683
210.09257905435 15.2587
222.100771002619 0.778884
224.125877082595 0.905078
225.138782551718 18.1354
226.143727375258 0.839083
227.119441132187 1.05353
238.108445560217 1.17349
245.132201012845 0.644611
251.116413338835 0.630484
253.133782017808 45.7738
270.160978278138 100.0
270.371317714869 0.517185
271.148444103443 0.619723
286.156040479999 1.0577
294.158541585995 8.51763
297.124723623722 5.03264
302.161678149911 0.525642
322.15202702488 5.24972
538.282168091738 1.17582

