>compound (+)-&#38;alpha;-Tocopherol
>formula C29H50O2
>parentmass 431.38781170051
>charge 1

>ms1peaks
165.090877925801 4.50093
430.379509178076 21.8793
431.388480167939 100.0
431.570689147308 1.21749
431.642936089618 0.594004

>collision 10.0
57.0708996211508 1.9406
69.0706631498093 1.14832
71.0865384227063 1.66491
83.0862177315915 2.0084
85.1021421929417 1.3328
97.1014579294483 2.31311
111.117061146156 2.86501
125.132753786338 1.12983
164.082630049085 0.851093
165.090850003366 43.9114
166.093725980581 0.668261
430.379427113712 33.6786
431.38781170051 100.0
431.570361329412 1.17523
431.642578552546 0.582865

>collision 20.0
43.0555028747125 0.718946
55.0555046082156 1.03721
57.0709464606142 6.04749
69.0707979374686 4.71408
71.0864353230686 4.80445
83.086221748364 5.08094
85.1021022772515 2.92662
97.101702265652 5.60952
99.1166516934016 0.500473
111.116901036199 5.65134
125.132299760787 2.03024
137.096088622381 0.816258
164.082749513161 3.50984
165.091150639883 100.0
165.207129840011 1.02691
166.094422308826 1.83356
205.121824017094 1.18298
430.379378171728 18.2913
431.385015801785 15.0051

>collision 40.0
41.0400424838436 1.34658
43.0192895413634 0.86024
43.0555634369572 4.49454
55.0552190542786 7.67369
57.0709843416084 10.0699
67.0552606659992 2.08309
69.0709041072449 13.4873
71.0864035335397 4.57125
81.0704076990719 0.980735
83.086358437974 6.32985
85.1016986283988 1.74851
95.0862443868994 0.619266
97.1013144404247 4.48353
109.101264296896 2.91274
111.116956582315 1.43494
119.085410286286 2.04359
121.065067056712 1.42681
122.072150973732 1.5302
136.087795283533 2.2028
137.095975783739 11.715
149.094902887979 0.533883
164.083270860121 6.24403
165.090924192029 100.0
165.207679393918 0.923187
166.094501729364 2.95029
205.121428930309 1.28843

