>compound Ubiquinone (Q2)
>formula C19H26O4
>parentmass 319.190089559458
>charge 1

>ms1peaks
123.116409535557 0.688715
197.080314613608 7.41889
219.101910118225 0.695969
231.102601003987 0.639101
251.126517188095 1.22305
287.165944229757 1.63011
291.196156804305 0.666691
301.180079086592 2.22783
318.190941061534 0.972503
319.190064513387 100.0
319.349416074926 1.66992
319.407107133969 0.811237
319.505076919757 0.588842
319.573147613096 0.542458

>collision 10.0
69.0704724506408 3.5333
81.0700042605082 1.16991
95.0859163503313 1.5277
109.100779469163 1.09763
111.116132521308 1.86381
121.101143815289 0.843972
123.11669002683 2.57145
127.039534149118 0.595361
135.115483307462 1.94388
151.078129260198 0.543482
181.084212931364 2.65501
187.074135191971 0.701677
191.073933561681 1.04792
193.085588702579 0.762573
195.100737381983 1.96224
197.080314787236 41.5598
197.20959964186 0.644051
199.075884041041 0.541783
203.103595786017 0.526886
205.085132708359 2.63832
207.100447497668 0.780172
209.082208537091 1.64159
211.093792509685 0.537408
217.087737249502 1.3272
219.10091045917 6.32121
221.086741492425 1.81439
223.095760017351 2.26356
227.143857663775 0.653975
231.101143338813 6.28845
233.115084941376 2.12917
235.096517360189 4.47723
237.112476598518 2.85728
241.159409612201 0.708712
245.116996206379 2.19588
247.135492267687 0.95373
249.113094747687 1.00356
251.1271091955 4.90666
255.137655630833 2.43789
259.166154425728 1.60141
261.145947629125 0.523329
263.126205297009 2.26803
269.153651649863 1.75929
273.184155718785 2.58179
287.163486757539 9.81448
291.19420068101 1.22705
301.178953989681 14.4822
318.187039899091 0.563356
319.190089559458 100.0
319.353219080925 1.66352
319.395820112528 0.865164
319.444187239685 0.669059
319.595122438075 0.532601
319.806926547633 0.500284

>collision 20.0
41.0387018136231 3.73353
43.0208335074344 0.806777
43.0556322921354 0.938818
55.0546015648764 4.56196
57.0708257669847 1.54703
67.0542384418398 0.82539
69.0702604009869 27.9208
79.0534597022935 0.987705
81.0707604004062 5.19405
83.0497150448963 0.778361
83.0863469076205 1.96861
85.0636731187772 0.862384
91.056449782782 1.04338
93.0701162461936 3.11484
95.0851190615383 4.1289
97.100205846897 1.15662
99.0450016226812 1.079
99.0807543937696 1.04165
105.069716412665 1.26365
107.085477695307 3.04467
109.064620147702 0.694033
109.100806840904 3.91573
111.042888679818 0.914632
111.116011438856 3.98354
117.070117831156 0.806278
119.048005534566 0.945764
119.08131549115 0.652828
121.065231232559 1.13281
121.099334189841 1.48997
123.042266740712 1.23419
123.078725228501 1.37511
123.116253361667 9.70166
127.039232050322 1.85385
131.079514421061 0.80155
133.100649471498 1.27633
135.116482440253 4.86101
136.053571592916 0.671535
137.0591390641 2.28953
137.092413853461 0.673594
141.062075039184 0.909811
143.086591845415 2.04365
145.089257445462 0.79817
147.085129121896 0.610341
149.058910813157 0.818763
149.102301668245 1.09934
151.076050409453 5.53412
153.084895292851 0.900509
154.06110211521 3.43925
157.093107424028 1.14728
159.080532150174 2.35846
160.048361520783 0.663407
160.089834581177 0.534131
161.085806244673 0.895495
163.074018833293 1.26942
163.111095143231 0.681961
164.054684192805 0.512282
165.090706463757 1.48947
167.069716709358 1.93619
169.084540533969 4.25644
171.077427586625 3.58672
173.057858760469 1.70989
173.095679440806 1.64291
174.067452794747 2.25678
175.079033577567 3.10146
177.079838123694 2.58732
179.069272035539 1.68485
181.086045302512 12.8568
182.055240971013 2.55847
183.076067519492 0.619941
185.096424129272 1.18303
187.075245694676 3.23721
188.081796169409 1.65839
189.089633130354 4.569
190.059698326529 0.673344
191.081964316837 7.31761
193.086238002931 2.4724
194.058340641234 2.73191
195.099929219025 6.87187
197.080250873214 100.0
197.206577530316 1.57355
197.247716671152 0.774307
197.323299950223 0.563037
197.392972031615 0.508362
198.07778489689 0.632985
199.074804659083 2.58987
199.107461625229 1.18836
199.14412364985 0.530653
200.095241670347 0.645216
201.089160168717 2.38613
201.120389457046 0.900277
202.087868636832 0.707213
203.104898723827 4.97595
204.084219249914 0.678425
205.085965081588 10.591
206.090534811023 0.732291
207.101424793264 2.55348
208.071467449903 1.37871
209.093228200007 3.7823
211.097449766111 1.7759
211.140425352895 0.883788
213.093065146174 2.33209
215.108386218967 0.80377
216.077108562259 1.03763
217.089872299918 7.18011
218.095549818654 1.161
219.099982664466 20.5789
220.076911199261 1.18653
221.088655264514 7.67969
223.095755863885 6.97693
225.110051074695 0.631878
226.131075517901 1.47668
227.139418950457 3.08102
229.118501244018 0.989732
230.095750057599 0.846745
231.101053011221 20.4997
233.115997063475 7.39246
234.089808134817 0.709017
235.096322851061 31.2653
236.10343722615 1.57029
237.114255443243 5.7537
239.122876307998 0.632151
240.112898134772 0.849802
241.157323076043 3.2055
242.166084739146 0.71662
243.151754327356 0.643458
244.109368453461 0.716678
245.118741344392 5.53953
247.129345278572 1.80465
248.100957326612 0.712736
249.112862032338 4.66646
250.122755709888 0.672879
251.128864099184 2.86722
255.138603531795 4.76653
257.11690246457 0.597881
259.166226729822 3.65037
261.147647529302 1.38111
263.127453831142 4.58148
269.153417224584 4.92978
270.166284347963 1.03167
272.137253292954 0.571724
273.184818371742 7.9129
277.141724596333 0.504545
286.155033750973 1.78542
287.163520726332 15.4923
288.174478860745 0.716077
301.179631524595 15.3502
319.189609916871 27.9327

>collision 40.0
39.024123971911 1.87891
39.1167862027326 0.733789
41.0397314305953 52.2129
41.0987354359622 1.06623
42.0122636590353 0.521614
43.0187317680874 15.5535
43.0548211279117 5.82564
51.0232124436839 0.784376
53.0394715428698 3.78494
55.0184271745619 3.54408
55.0550478709957 43.216
55.1241373819951 0.928142
57.033898529291 0.984187
57.0698179026217 6.1705
59.0500734390336 0.866904
65.0391899084983 2.87182
66.0478739004875 1.3026
67.0194268462987 2.30876
67.054317932151 13.0993
68.9974600321836 2.31224
69.0330055333317 2.85123
69.0702752529653 100.0
69.1446582722696 1.42096
69.1687191884548 0.891312
69.2504555978487 0.762297
69.2827923396285 0.665482
69.3144506890773 0.796642
69.4169165240487 0.654165
70.0736161701323 0.639693
71.0483531795045 0.52017
75.0451484816075 1.27863
77.0390533280117 11.3378
78.045396736568 0.781516
79.054502129259 16.8971
80.061922665328 8.45147
81.0338445609071 2.70069
81.0705378356704 26.2469
82.0413551823176 0.810972
83.0122855181807 3.30903
83.0486637763272 9.40318
83.0858693243545 7.18775
83.132031699821 0.955918
85.028690164835 1.46293
90.0456804236406 1.45361
91.0543791099954 31.1555
92.0608959516211 2.80998
93.0699453566338 15.7526
94.0426695101287 1.32177
95.0479981967224 1.98441
95.0856729112346 12.1858
96.0584677858515 0.923808
97.0637609666605 2.33674
97.0973326304919 2.35295
99.0440823040944 3.15271
103.0552229849 6.43658
104.059921019026 1.97413
105.035348389318 4.26673
105.069656818607 12.1158
105.122469126856 0.551412
106.040343018614 1.04044
106.075920171054 1.71963
107.050677360668 6.36654
107.084941493282 10.8008
108.055784646472 6.35245
109.064486436273 5.53542
109.099873376833 2.0082
110.03577302163 0.608564
111.043527299826 17.6952
111.106288754162 0.872733
113.024246574441 0.795862
115.052878468803 9.70038
116.060525628291 4.2505
117.069760977954 13.1837
117.124541259906 0.542912
118.076446141061 2.28782
119.048996947277 7.68875
119.084211863616 6.62185
120.057318977829 9.16397
121.063785690579 14.7259
121.098372030761 4.79692
121.169219677501 0.56383
122.035764604237 1.5414
122.073207558678 1.24327
122.106132036245 0.628917
123.079793065661 15.9971
123.114228922191 10.2082
123.186057291166 0.586734
124.05205015678 3.54053
125.056927699708 1.00477
126.06386234875 0.564233
127.05558244264 4.18127
128.061781201801 8.4718
129.069021085981 12.7211
130.077992096296 2.48868
131.04860009831 11.5335
131.082817687085 11.1075
132.056788950517 7.23969
133.063613801466 8.53129
133.094801886379 2.66493
134.071440807976 4.6971
135.078654628955 7.29785
136.051045936928 16.3595
137.0589989486 11.8583
138.067571343517 2.0673
139.050849226059 7.48116
140.047061619046 1.19903
141.069552280604 4.57795
142.076192098111 6.49258
143.085248541121 11.5845
144.056545167298 3.9037
145.064406524287 20.7981
146.072757324529 6.09816
147.041939614132 8.28756
147.079926119752 7.87907
147.14194478536 0.583509
148.053374580509 4.4105
149.074979211048 4.36995
150.058248976852 2.41194
151.075074601388 20.5797
152.052292268306 2.60044
153.070960494694 4.63645
154.062349629821 51.4998
154.177158798179 0.982548
155.083432548833 3.99796
156.058187753854 2.16474
157.077512023189 5.64974
158.073928386656 4.05289
159.080138910872 11.7561
160.051692563212 18.9196
160.083262306751 6.27866
161.072872212813 9.73239
162.066301169826 5.8054
163.074251137241 8.24459
164.04709952045 6.88476
165.059975552249 6.45573
166.06275985628 4.37037
167.051418724582 7.19935
168.085251703775 1.12176
169.086078291546 14.8795
170.071564879114 4.87564
171.081818389088 7.20828
172.088358872823 4.15873
173.070513758102 10.0929
174.067223753999 53.2653
175.072944092167 10.8415
175.111714316931 4.881
175.236603175573 0.50116
176.068096329656 4.33693
177.064195388651 10.7675
178.03920144451 1.29408
178.099948269117 0.557036
179.040185944808 6.48487
180.087176409398 1.98743
181.087280156498 13.1742
181.175173449867 0.509741
182.057690594376 19.2923
182.147491916652 0.768054
183.081084475324 3.06871
184.07289138726 1.27356
185.070055664341 4.3027
186.084557046678 2.3676
187.076473464323 10.6278
188.081463744764 12.4554
189.075378937153 8.72795
189.329398781556 0.600182
190.061964609868 9.72422
191.070556854926 17.4117
191.183074215432 0.545402
191.24566043126 0.504049
192.073197353421 2.45052
193.054036402246 6.82654
194.092407282914 2.67342
195.10181973949 5.94259
196.072519259085 3.8254
197.081677352721 25.8701
197.210641495276 0.620088
198.075558978923 1.29927
199.07451118331 4.67406
199.107986478262 1.95744
199.148604725783 0.885431
200.083513597048 2.93302
201.070405958881 3.28762
202.06434501382 8.51554
202.154913162325 0.534106
203.024368710735 0.549053
203.080251388198 8.56741
204.078241594182 4.66363
205.076343918267 13.0836
205.156724859768 0.845331
206.055350922648 5.43276
207.065206751234 4.93856
208.073954521544 0.977867
209.126321137235 1.17558
210.143920091251 0.776481
211.106091768495 3.61782
212.10843052734 2.24963
213.096488548086 1.59387
214.096974804263 0.915188
215.088084073969 1.74676
216.078624513609 3.50316
216.113940203273 1.37322
217.082556555186 6.68508
217.11702217157 3.04093
218.095225055045 1.54446
219.072947933378 6.35607
220.073707495247 10.1898
221.080455248641 15.1647
223.111702033318 0.807608
225.089084519159 3.72038
226.121845125743 2.23554
227.126530396361 1.07599
229.105025774336 1.54154
230.094634494128 1.50133
231.102461550278 4.41746
233.08402807631 8.42947
234.093897128419 1.05363
235.095385287821 18.6912
239.108060306227 2.76435
240.118292607911 1.11574
242.164353059948 1.20629
243.130859915316 2.15205
245.118307076765 2.32756
246.08706653878 0.503779
247.091555486767 1.0288
248.101035233646 1.28528
249.116176588432 0.986999
254.131462881413 0.826923
255.131221485751 0.715084
257.117642247147 1.61734
259.136174807745 0.813313
263.122421999604 1.07562
271.131600406386 1.20062
272.146326968908 0.736315
273.187733036423 0.827009

