>compound Retinaldehyde
>formula C20H28O
>parentmass 285.221412783842
>charge 1

>ms1peaks
43.0173714751336 0.585137
93.0690321694 0.954114
95.0846457262538 1.02009
97.0634956170753 0.646881
97.0997078914846 0.611609
105.072526026379 1.06822
107.082552784357 0.554046
109.101251121147 1.14062
119.083875319125 1.6239
121.100254429703 1.16659
123.115034842713 2.6918
133.100311309499 2.44015
135.078777423216 1.32332
135.113538617448 1.1247
145.098771292242 2.20667
149.095171853097 0.566974
149.131958274215 0.804974
157.099688428415 0.783262
159.115191901463 0.674514
161.095791996648 21.241
161.126500434964 3.43084
163.144500512894 0.984584
171.119411904053 0.613926
175.109222733771 0.755807
175.147065550215 5.461
175.172951642553 1.10898
177.16195017735 2.15967
177.192138665987 0.559372
185.133003513601 0.725698
189.127279180077 0.936501
189.159046898305 1.05353
193.158519685831 6.47629
197.136248333289 0.623955
211.147271037815 0.784474
215.183667809069 0.979286
225.164897429049 0.624544
257.225052161983 0.997466
267.210111163948 4.49691
267.247020315684 1.01228
285.220134635097 100.0
285.262012725015 17.7945
285.331627362868 0.936942
285.415722081157 0.546842

>collision 10.0
41.0391830764045 1.07635
43.0183088044218 4.94184
43.0273158247488 1.17603
43.0547185554629 0.702425
55.0542277313189 2.67075
55.0629998821062 1.0719
57.0688031079307 0.658288
59.0476422302913 0.816423
67.0523974505579 1.22056
69.0701848442995 13.1247
69.0897436709546 2.10849
71.050511093642 2.46962
77.0399810195382 0.719548
79.05332319749 0.760234
81.0706745112485 6.76586
81.0907229573635 1.36678
81.1003170123862 0.596644
83.086443640886 2.87295
83.10748432895 0.523082
85.0671239094093 1.51945
88.0185466445811 0.763946
91.0527377529634 0.831673
93.0699285966398 7.01501
93.0946392089695 0.798259
95.0494152603454 3.0469
95.062393575003 0.615398
95.0865292427895 11.7912
95.1081679445163 1.72027
95.1180217144951 1.41267
95.1300873986177 0.606247
97.0661774513359 8.68882
97.07966260637 1.86617
97.1021718390212 4.84647
97.1185643104466 1.31596
97.132272566593 1.06337
97.1443579417304 0.647375
99.0792511810439 1.74465
105.068883641378 11.5692
105.090627601681 3.30651
105.105983013971 1.13791
107.053159001516 1.06554
107.084824750586 10.8517
107.111990400275 2.59932
107.967378322935 0.655006
109.064725492882 13.0415
109.100549516747 11.699
109.123069261347 2.6604
111.080355282004 6.26111
111.096744098046 1.97745
111.115289990357 2.36964
111.129543993777 0.589627
119.084963738441 26.7643
119.114484455406 4.19118
121.063978826036 2.58915
121.101344247824 18.3112
121.134943290164 1.57668
123.079556328091 1.16868
123.117454880387 12.1601
125.094057220448 2.23461
131.084435444642 2.98266
131.10349835512 0.602553
133.100399675907 15.5693
133.119998917906 3.55082
135.079711589449 6.69837
135.116265007894 12.5461
135.150813506516 1.85525
137.097211065019 3.17181
137.133212134883 1.56732
141.068779028298 0.813007
142.076280685286 0.508812
143.084307557553 1.29421
143.10926751124 0.748787
145.100924917527 7.65909
145.128308343723 1.41069
146.071979725107 0.941964
146.087189907011 0.609878
147.079318658423 2.29764
147.116103030874 6.54398
147.154471263039 0.619175
149.096213448175 4.05815
149.130308401518 4.57859
149.159034432163 0.900172
151.108483909107 2.20121
151.146857095856 0.788884
155.085378636462 1.69694
155.121785561828 0.613188
156.093499478271 0.66438
157.101997614484 1.66151
159.083585004633 1.05946
159.115892934277 4.92505
159.142851820165 1.07205
159.155797161906 0.716064
161.095931196283 100.0
161.127013131504 17.8787
161.168348435758 1.7596
163.112357188986 1.42104
163.145571906944 1.83214
163.164877820145 0.900091
165.126562421719 1.10164
169.099941431415 1.85196
169.133015594676 0.633531
171.117376813528 3.06514
171.159420958369 0.556366
173.091971354076 0.891443
173.131193265322 2.59173
173.156982235852 0.741439
175.110790318167 3.8653
175.147807032377 56.2215
175.240514352845 0.517251
175.962309564903 0.569267
177.123413616228 0.681781
177.162756680332 13.4753
177.185618220766 2.90636
177.226590918923 0.563559
183.11509021716 3.11405
185.132550843031 6.82862
185.163227578784 1.54563
185.181916511376 0.67678
187.148364291066 3.02523
187.174095167846 0.695812
189.126337849057 1.97982
189.16318180214 2.50251
189.199838410145 0.572917
193.158006768828 14.4969
193.224825365289 0.59043
197.130370443883 7.50733
197.167011194803 1.18536
198.142393571229 0.942059
199.14955436716 1.24577
201.163026984658 3.35681
201.181787370056 0.88119
203.139767756965 2.70915
203.180393939672 2.12355
203.199419987722 0.645847
205.156496191013 1.07128
211.146237504293 11.4101
211.190548383662 2.04418
215.142081428415 1.36213
215.180930901858 3.91582
215.201258412297 1.11276
217.153424797776 0.997385
225.161370899442 2.17173
227.178825805582 1.208
229.159155606113 1.46368
229.19126991353 0.533551
241.186476591947 1.2207
257.227505993699 1.1781
267.210436529163 15.3801
267.238919524368 3.90373
285.177713716601 0.942379
285.221412783842 13.9377
285.255833242419 2.85959
285.276886894246 1.37031

>collision 20.0
41.0379505866186 8.74074
41.0525580341306 1.28111
43.0189124789347 11.6441
43.0395881308033 1.32244
43.0536712834572 4.85181
43.069585387468 0.944061
45.0336120046874 2.43213
45.0535434613337 0.900773
55.0184636196041 2.18064
55.0544344663367 25.1683
55.0726906049297 3.66052
57.0362196363337 1.27794
57.0706899113179 4.78719
57.0869608778992 1.07478
59.0519169392902 1.44336
67.0538796251104 10.3741
67.068983585698 2.35657
67.0824874227521 1.33223
69.0325936725288 2.65462
69.0702700125127 66.7897
69.0877380731244 9.76074
69.1000222122904 4.21252
71.0500698397595 4.51639
77.0428008676894 3.00086
77.0558159215807 1.34107
79.0544256622251 8.62613
79.0726583707381 1.44009
81.069821340644 22.7046
81.0918328198554 4.16659
83.0485634965182 3.82477
83.0872186761779 10.2589
83.1059349707083 2.42416
83.1183709311434 1.10813
85.0669150143808 1.1418
91.0539471436895 21.5933
91.07506620432 3.18029
91.1021701488175 0.90013
93.0706126741058 28.062
93.0970752727488 4.16785
93.1187193931602 0.909674
93.9069952326097 1.01936
94.0798726127955 0.951973
95.049190863932 10.1025
95.0851517016703 45.5033
95.1084491285952 6.67359
97.0655558192272 22.4989
97.1015459359364 5.74114
97.1227528346148 2.87798
97.1343476606478 0.933305
99.0767458126404 0.864556
103.04528072034 0.982921
105.069612935115 49.0977
105.090361771105 8.32132
105.10230534451 7.02433
105.122796500599 1.78226
107.085881568361 35.0804
107.105179559073 6.76066
107.118940986869 3.60965
109.065388386486 28.7518
109.101046074803 41.5801
109.122406160544 7.29035
110.075045074029 0.910476
111.08099811099 9.58879
111.111617591195 1.94733
111.134606448791 0.821106
115.050035562661 0.980064
115.074573647394 0.860356
117.067826262287 2.50893
119.085950184155 100.0
119.110677129757 18.2913
119.148746412443 1.42034
119.712740090116 1.05382
120.024666930601 1.06014
121.064652648817 9.29118
121.084093526078 2.79018
121.101003027919 46.9988
121.131043755173 6.69278
121.155344370016 1.06152
123.079970085686 5.52009
123.117082820876 17.4666
128.061594387149 1.90608
131.08362026396 10.3009
131.10227246378 2.13161
131.121159595742 1.04428
133.062722535796 4.3857
133.100856203426 57.6506
133.126081338959 12.1736
135.081076956257 10.2407
135.116256945048 26.3233
135.135226067474 5.24444
135.164290441185 1.47766
137.095740711884 7.48504
137.130208312963 2.67163
137.428207282334 1.09565
139.117511122839 1.74461
139.134649597099 1.01007
143.086134464378 7.40053
143.112907018732 1.62911
143.125316575193 1.57292
144.09659204033 1.25826
144.105182280665 0.860306
145.101507373408 21.6489
145.139670612303 2.48439
145.153472932062 1.18243
145.168324893079 0.824683
146.071828387956 6.83317
146.107338816812 1.54427
147.078700059411 6.43762
147.116457751374 29.205
149.095469729395 5.97813
149.127566731374 3.77953
151.115338410568 2.12264
151.138719251653 0.821592
155.08268487121 6.25646
155.100225267314 1.47788
155.122794753587 1.58196
156.095347900963 3.99055
156.128693227955 1.08257
157.102859778336 11.5113
157.126117521849 1.8422
157.146726285958 1.09674
159.080183797526 1.1307
159.116685493565 12.929
159.141069456189 2.84059
160.122878925454 4.28356
161.096443590774 74.4986
161.130140854842 14.665
163.113877822357 2.17499
163.149165739651 2.56027
163.170398948852 0.980064
163.188976861392 0.823863
165.129248136968 1.22021
168.092356161705 1.57399
169.098435213699 2.82155
169.127773136617 1.31664
170.10712292139 1.78291
171.117369781261 4.12942
171.159391847013 1.04129
171.98218032429 1.34259
172.125405332001 1.59466
173.092721926951 1.22454
173.134967813525 9.80825
173.163961016359 2.16
173.178946387325 1.10293
175.110764971592 3.14865
175.147688707892 87.1663
175.230760618761 1.13607
175.429573651262 1.17777
175.797550522977 1.28198
175.824669353244 0.81194
177.123677728104 3.40342
177.163396915692 4.99833
178.128730243734 0.800052
182.108494810003 1.88015
183.116295334436 4.6364
185.132978872147 6.3617
185.157986236084 2.46925
185.175077457616 1.1634
187.142689052203 2.74713
188.152708064692 1.15051
189.046436222171 0.970721
189.122478813999 1.58793
189.166912624059 4.68706
189.187002622952 1.96177
189.214639402765 0.840135
193.159156670909 1.78911
193.190248184845 1.1014
195.135915745929 0.880771
196.124964326754 1.91587
197.134790097421 12.0057
197.174726365522 1.49949
199.142898220212 1.65985
201.13394282232 1.36099
201.165481171313 3.94169
201.199900772943 0.805245
203.140645705353 2.42334
203.177785258719 5.96161
203.195636488335 1.62038
205.156617356294 1.43075
205.193027260231 0.980168
210.13968693958 0.869223
211.148536026686 10.1974
211.178285591107 2.81555
212.153989264346 1.2903
214.169934164906 1.68297
215.176277782958 2.57899
216.138464925845 1.72028
225.14173723544 1.02946
225.16202789858 2.11617
225.19360151999 0.961087
227.173320109927 1.64738
228.18269949662 1.16079
229.150098990629 1.60358
255.177431680791 1.1715
267.207927797846 1.42074
270.191748813306 1.82062
285.218621331283 1.52682

>collision 40.0
39.023572626141 2.50163
41.0389042690923 56.9578
41.0530696167453 5.98566
41.0712681445637 1.52332
42.5410756755298 1.03802
43.0185205219421 12.6528
43.0324559262811 2.60597
43.0545879548175 15.4283
43.0755588332975 1.78841
51.0227351330023 1.90512
53.0402615584629 1.43431
55.0169930779407 3.96647
55.0308580624272 1.15168
55.0544319112205 51.4623
55.0657181134918 9.49389
55.0738761526 7.61515
55.0903934178452 1.84166
57.0337046140342 1.96655
57.072222361392 4.6419
57.0861660475889 1.21842
59.0528586827055 1.18764
65.0403188502065 5.08255
65.0597622347459 1.32528
65.0689928508002 0.898918
67.0552380040727 48.299
67.0684039708993 7.58001
67.0790708182774 4.03986
69.0316514665739 0.950802
69.0709523592635 53.9126
69.093301169317 7.84462
71.0497222512862 3.19094
71.0698790942466 1.02603
77.0384794675754 19.7497
77.0624501489092 4.36909
79.0546376361489 40.8332
79.0715258344738 8.12134
79.1041039575734 1.11174
81.0701878699167 44.456
81.0901426717755 5.02998
81.1035923256246 3.30844
81.1141973168626 1.49854
83.0502041984235 2.0768
83.0873043905413 2.67667
83.1036953644715 1.27053
84.0592711738911 1.11631
91.054648310977 77.6594
91.0692521849066 12.5728
91.086174712588 8.55214
91.108012769173 0.965434
92.0570098981898 1.93645
93.0697709420735 38.0504
93.0922838711588 6.74279
94.03934509033 1.9768
95.052121849984 7.56898
95.0856468129684 25.6466
95.1041077707066 5.07172
95.1376900998695 1.27381
97.0642774513525 3.64574
97.093547617712 1.05271
103.053860069141 7.12826
103.082828643702 1.13677
104.061020096347 2.56582
104.093039367342 0.876965
105.069568572768 100.0
105.089303271674 17.8302
105.125424091606 1.47364
106.075337044624 1.08478
106.081463734219 0.9921
107.048429984497 4.51142
107.085671118674 19.4542
107.107036927584 4.54635
107.117968530383 3.17184
109.064444587344 14.054
109.100842858116 10.4589
109.114565582826 2.71762
109.137235165872 0.86034
115.05346969949 7.73947
115.086270324707 1.1544
116.065663689573 0.952398
117.069862372023 17.8662
118.076350703351 2.23971
118.095456420666 1.02891
118.107991461884 0.940654
119.084711782408 64.2253
119.107247500699 11.5444
119.118924780827 8.89807
121.065986844901 11.1237
121.101162755686 7.49547
121.119679054368 2.01013
121.130661564039 1.24111
121.148083053375 0.962521
123.077803230616 1.38955
123.116191913971 2.17413
127.058250449791 1.04909
128.062810396121 6.52101
128.083178995471 1.59671
128.095126433537 1.41184
129.070140452747 4.58084
129.091153247581 1.02658
130.075746609526 2.03069
131.049777329018 4.97278
131.086589030481 10.5532
131.104325915611 2.33028
131.115727027821 3.11024
132.099831793935 2.75434
133.064906494304 1.0431
133.100731735118 20.1736
135.082365202331 1.54078
135.112963780547 3.53876
135.144063337632 0.915207
141.071016054655 2.11192
142.078189718539 2.3087
142.098559814223 0.900707
143.08512057291 9.17945
143.123530438953 1.62963
144.054406115643 1.13325
144.096861058572 3.93386
145.062234546622 4.96555
145.099964374228 18.4258
145.122406122119 3.89048
145.144280119819 1.67472
146.071136214482 7.52095
146.107840696795 2.40785
147.117080317276 14.5731
147.134452680041 3.55299
147.15763835161 1.2569
153.068001580513 2.82878
154.077928973945 2.38223
155.086790080189 5.31641
155.110800737151 2.59337
157.102656227941 3.17141
158.068365825887 1.36629
158.083278909218 0.881181
158.110346970771 2.53697
159.079091776503 1.26663
159.119393400519 4.44362
159.14646840304 1.1115
160.123029434803 2.23041
160.145960033514 0.864412
161.09479161426 4.79154
161.131549690129 2.48424
161.15113019124 1.30189
167.081018823868 1.83112
168.096695151302 0.995121
168.584292691793 1.09885
169.09678536964 1.78032
170.106203388859 2.29193
173.133276367208 3.83396
175.144996186385 1.50337
179.08544428939 0.919122
181.102215089447 3.10461
181.13262826759 1.11484
182.110669685901 1.22473
182.121113550168 0.957322
183.11928552311 2.35197
186.143134570923 1.92909
187.144015024975 1.33296
196.119791775968 1.32601
196.164049398982 0.897786
206.109433500441 1.00225
237.16438378676 0.991796

