>compound Retinoic acid
>formula C20H28O2
>parentmass 301.215542051494
>charge 1

>ms1peaks
95.0813941237077 0.849337
109.097587192572 0.568175
123.115835446136 5.64464
127.078627345313 1.85706
133.09762075902 0.774531
145.104794800125 0.835957
161.093917972161 1.38157
173.103439132212 0.590046
175.146210396973 1.0737
177.0867195026 0.609216
179.106091244702 7.91496
186.101501804869 0.664865
187.115237559294 0.724771
191.104521751705 4.24548
201.158562765116 0.724508
205.120818365724 1.34868
231.136616880779 0.550483
241.160700261494 0.582364
245.151552574309 1.31359
255.212746295352 2.44427
283.201522628479 3.90712
284.175025816425 1.06201
300.202321444935 4.17349
301.056004540279 0.551901
301.21535375596 100.0
301.374028857778 1.3905
301.410836877158 1.12673
301.451432229244 0.92444
301.495534931509 0.736318
301.548567469644 0.527338
301.689769706681 0.696092
301.825758727178 0.726165
301.913576339164 0.816408
302.166282544181 0.938073

>collision 10.0
43.0168195883116 1.09303
45.030277244738 0.590838
55.0585057671859 0.747702
67.0538019940032 3.04943
69.0349776056801 0.590444
69.070836438775 3.55648
71.0502910820941 2.76492
74.0969202442018 0.61412
81.0703727760354 5.57204
85.0660552173212 3.17636
93.071054065671 0.61153
95.0858972616104 7.62601
97.0671249202583 0.69978
104.034005752907 0.549545
105.070171992275 3.44694
107.084766941129 3.49398
109.064035925198 1.10074
109.100678683455 6.68326
111.076504855524 0.77906
111.116267319456 1.2077
113.057562705651 1.14401
119.084440969392 2.25622
121.101091907303 1.20459
123.116641036329 80.8214
123.194795772549 1.55851
123.21817983625 1.1959
123.275892256501 0.564676
123.345780760106 0.745905
123.468344068887 0.553499
123.550488805015 0.5222
123.670978055291 0.660034
123.752943806534 0.642492
127.074577157372 4.54666
131.085145901083 1.86551
133.10173689449 2.05891
135.116559567263 1.62639
141.088000110111 0.611672
143.083505152599 0.695827
145.09737527561 3.02745
151.08082332608 1.04506
157.100676918918 1.68704
159.077887899901 0.836773
159.117107783431 12.0017
161.096152642873 21.8438
163.144576943095 1.57579
167.101670450284 1.07471
171.115962518131 1.849
172.116979066074 0.819705
173.105371582216 4.76722
175.146689783802 6.77414
176.151718473427 0.584073
177.014987537651 0.575183
177.095667218024 3.78502
177.161435924099 2.20947
179.105637807742 35.3824
179.220567571341 0.775557
179.576115355985 0.670656
181.120918897173 0.800084
185.09504123436 2.12645
185.136818908255 1.70797
187.131838114902 2.59491
188.156627413491 1.95423
189.157708082679 1.54995
191.106684351591 4.01916
191.17239655888 1.25491
193.116317749094 0.709005
199.148821164363 1.99261
201.163761394451 11.4452
202.166359831475 1.39912
205.121638608693 18.1305
205.634658455703 0.572876
207.129888240999 0.743067
211.110758315653 1.35027
213.130255846445 2.24506
215.177145444046 0.939491
217.120714699734 2.82583
219.134759388228 5.37692
221.150125253211 0.643571
227.155431994592 1.44999
231.137896020473 3.63197
233.154235918081 0.971763
240.229735360516 1.0544
241.170847028063 3.0012
245.156486490173 6.56024
255.210837221874 9.41969
259.172571257196 0.821218
265.165195142313 1.01214
266.061087401268 0.610313
283.202146038517 16.489
283.951212551319 0.504884
300.201577373943 4.52431
300.297545059065 0.506056
300.988072427309 0.90617
301.141189607374 21.5693
301.215542051494 100.0
301.362735425597 1.58499
301.417899407721 1.15902
301.560294553725 1.02649
301.679640655568 1.0824
301.88777460433 0.761001
302.130196905212 0.611724

>collision 20.0
41.0405908417072 1.09747
43.0181475079271 1.1078
43.0541121450352 4.08181
45.0343532023684 0.669252
55.0550888568972 3.19437
57.0709312978729 5.25439
67.054934821776 4.00265
69.0698997131199 10.0887
71.0500296692899 3.73786
71.085676478906 1.33609
77.0382908208794 0.702156
79.0537535111636 1.33661
81.0699635560353 22.8034
83.0846403183266 1.05174
85.0648974593941 7.31268
87.0433689043173 0.532547
89.0606899509452 1.02903
91.0529659859864 1.27184
93.0686820273217 6.13461
95.085787906077 8.48413
97.1001300904959 1.26665
102.045150028642 0.584567
105.069678833599 4.46166
107.084971855396 5.18577
109.062936600713 1.78768
109.100115295502 7.94707
111.041484745486 1.35713
111.076997733461 1.21302
111.116946138633 1.63628
113.060285249616 0.988327
117.06835721461 0.721835
119.085269635866 8.43459
121.099824711044 3.3098
123.116082537738 100.0
123.212532596354 1.5323
123.249489553213 0.938412
123.571355740467 0.539524
127.072652571459 0.845221
131.084829728908 2.64217
133.099694266814 7.40947
135.106614007778 1.41843
137.054806507149 0.501343
142.072400308011 0.556857
143.088337337362 1.77444
144.093246115454 0.530235
145.099885345082 6.66382
146.075033090148 0.557317
147.113157570089 3.58522
149.114950843074 1.27885
151.069398401408 0.960581
151.113257345846 0.629492
153.088340853005 0.857445
155.085572818626 0.619953
157.100701326887 4.28599
159.117140954087 17.3089
161.095813923609 34.8366
161.247411993677 0.598822
163.075486574018 0.525212
163.107174686235 0.56326
167.108197631467 0.509658
169.098801652535 1.47026
170.102489833324 0.597102
171.114781948655 4.49616
172.089240224533 2.04454
173.126231253469 7.7428
175.143938472148 2.76266
177.092847229944 3.38112
177.160567142422 0.864155
179.104893120842 5.61364
183.116374909904 0.529988
185.128752521336 4.09011
187.11754289447 4.51649
188.155061347324 0.797087
189.127552101901 0.728115
191.103873359709 3.28994
199.144138175435 5.64809
201.162339525362 7.40531
202.167469792885 0.836755
205.121510861233 6.18956
209.131401211336 0.587729
213.131989393764 2.35397
217.123215351507 1.02014
219.136340360657 1.48219
223.141285858937 0.96892
227.143640111057 1.60917
231.137476270891 3.39284
232.142912648262 0.941844
237.149033893858 0.514618
240.231850431065 0.870688
241.192786251464 4.96075
245.155292119271 5.04394
255.208824373544 2.01561
265.10472363813 0.644287
279.386199985965 0.566776
283.206973513822 2.23365
301.144296957597 1.38472
301.215292583969 9.68385

>collision 40.0
41.0392704544269 23.0948
43.0182012352248 4.79694
43.0561583182405 21.0789
43.1150961070065 0.597862
45.033271003783 5.29191
51.0214968282885 1.24761
53.036759780948 1.76372
55.0544859935833 25.8207
55.1206580667351 0.601586
57.023956035941 0.548448
57.070810982684 6.1096
65.0383862638842 2.56336
67.0544498027655 24.3673
67.1102689318725 0.63426
69.0346736423987 1.65139
69.070592725464 23.582
69.1520614938347 0.525593
69.7152389246806 0.8458
69.7492325626168 0.788216
71.0493139343375 6.19236
77.0394509800348 8.60715
79.0539790002566 28.3834
79.1374131450685 0.602547
81.0701720799546 100.0
81.152251582373 2.02451
81.1819726346785 1.02591
81.2090568404851 0.555578
81.2380695934461 0.797054
81.267537938367 0.52855
81.3532082954497 0.626651
81.4241011013751 0.508289
81.503737189157 0.994115
81.5469662021345 0.528739
82.0533329210233 0.628436
83.0849307663781 1.83988
85.0646773591642 4.34826
85.1040532266024 0.581468
90.1022256546185 0.501934
91.0542308656761 27.2452
91.1420664097791 0.654246
91.5239424549722 0.581608
93.0701501484062 18.5772
94.0754401981877 1.54041
95.085703661719 21.608
95.151882501256 0.699007
95.8996290295112 0.579093
96.0188752339618 0.560306
97.063504562256 3.79087
99.047033940803 0.899759
103.053138366447 2.64276
105.069486923987 42.5126
105.135180509028 1.00549
105.167466710608 0.670222
107.085060260882 14.8003
107.152135666894 0.572155
109.100447248418 2.47161
109.134724989426 0.527384
111.041344386857 1.1856
111.081782677305 4.36913
115.055359657797 4.77393
116.065994652414 1.1478
117.070513713186 12.4154
118.076697683921 3.09593
119.085540998206 13.309
120.091433942312 1.234
121.065851491616 5.93123
121.099148514545 6.47665
123.117336798717 32.2726
123.406358125308 0.522633
127.052659884525 3.957
128.060003308887 4.55111
129.070068578129 13.6389
130.078052581515 3.30182
131.046503664093 1.5097
131.085173552869 21.6792
132.093160923895 2.02769
133.102238535522 13.0216
134.111013867993 1.2696
135.076702713555 1.5087
135.113762248228 1.40709
141.073029489805 1.62454
142.077339900328 10.3937
143.086839026202 11.1725
144.093638686648 6.80959
145.099734207864 17.2037
145.168711385522 0.761112
146.07235960938 6.63998
146.10616165686 3.11964
147.115624233679 4.03857
149.098468811745 0.957012
149.140386708673 0.740023
153.067205311408 0.527688
154.074113094961 1.75587
155.085601619408 5.13609
156.093038889552 3.7091
157.100903221183 13.9445
158.070124850314 3.69102
158.107234274216 3.05806
159.116187300263 9.53962
159.168970977158 0.628393
160.085729053655 0.725087
160.126146800493 0.877646
161.099545144909 12.1958
165.066788790176 1.93978
166.070710125687 0.73035
167.091998349682 1.00684
169.099875894643 1.82387
170.106826449808 3.15635
171.111252836576 4.47147
172.086474301076 3.86748
173.124766829087 4.29014
175.067961137017 0.909135
177.121691664104 0.553169
178.070807023008 0.807153
180.089821634418 0.87487
181.100078495026 0.554411
182.072916600058 0.771712
183.12121547438 2.28606
184.115206807336 0.944203
185.096777332345 3.85721
185.657687600472 0.539121
186.098675285519 0.733657
187.144578865513 2.97555
196.113594577753 1.01664
199.106660074392 0.560297
199.139119561979 1.0571
200.151575206593 0.729431
201.162377315814 1.56639
202.163139012765 0.592637
209.119857859764 0.561264
227.176930534769 0.575727
247.270342006496 0.549762

