>compound Phylloquinone
>formula C31H46O2
>parentmass 451.357154389832
>charge 1

>ms1peaks
187.07459973203 1.17132
433.344689099106 0.513533
450.352751873219 0.598249
451.356973310824 100.0
451.544598486781 1.48631
451.597347041543 1.02911
451.644150120895 0.762947
451.76002173213 0.923491
451.810251302299 0.666966
451.861134696377 0.542872
452.057094208359 0.866943

>collision 10.0
57.0695922785688 1.30926
69.0693097259158 0.535049
71.0877974597482 1.36009
81.0703513733642 0.790528
83.0873300918914 0.577228
85.1021092892737 0.894938
95.0852363637537 0.797076
97.1003938703453 0.913678
111.118215197466 0.525702
171.078268050563 0.691008
185.095066400751 3.78503
187.07528903484 12.3051
197.095798365102 0.98972
199.082505642459 0.768109
209.095333523482 0.542519
211.112047431044 1.37259
213.093044696052 0.774839
223.109281772867 0.547001
225.127033745496 1.39642
227.104918459159 1.88384
239.139889386694 0.536889
241.121170134216 1.61693
255.134686764838 0.53045
283.174596863923 0.749274
311.198664620379 0.682739
325.210407359356 0.557509
353.247184265229 0.727255
367.259892179388 0.503143
395.294598661706 0.808125
433.343508348459 2.70233
450.347007517307 1.17587
451.357154389832 100.0
451.551291308502 1.61536
451.621439393106 1.1183
451.793944132273 0.650442
451.863071543687 0.71563
451.992759630977 0.507322
452.297600846095 1.02563

>collision 20.0
38.9632150804915 0.767204
41.0422750845952 0.820321
43.055496101838 4.51714
55.0537568273638 1.50249
57.0699864724136 16.2193
67.05441863431 1.30712
69.0698256915844 6.31406
71.0861493597294 14.3317
81.070215016621 3.23545
83.0870981824074 5.7636
85.101416815489 8.08991
85.2161527632202 0.589298
89.0608336263397 0.609741
95.0851737008308 5.6314
97.065271921968 1.54914
97.103497676433 5.56495
99.117756958182 0.952403
105.03222578928 0.710154
109.100363447191 4.03777
111.114706663393 2.67635
113.063743191367 0.865833
113.095238422282 0.605362
121.09987830662 1.33926
123.114609694269 2.68354
125.133365154669 0.723356
128.064776613121 0.533249
137.131791715803 1.70275
143.087505701567 0.587367
145.063684827044 1.35138
147.044776454042 0.815699
149.133666256467 0.751678
151.148845671079 1.33951
157.061980342614 1.24417
157.099583191796 0.610707
159.061065025796 0.676209
161.055472369654 0.665207
165.158281437419 0.636016
167.089779506309 0.508312
169.062543555939 0.904334
171.08154248157 8.6145
173.05809585617 1.76343
181.094151862342 1.40105
183.093917407666 1.00059
185.09523000118 15.8344
187.075392576355 91.4861
187.198698653485 1.32537
187.234867124636 0.858714
187.269240232601 0.639472
187.381175261002 0.538594
187.585470354866 0.546642
187.693892204704 0.603946
187.858428806579 0.892419
195.112423636906 4.07918
197.095268230585 10.4221
199.074177573352 10.675
199.110219490661 4.6031
201.091251841528 2.58505
205.099838583922 0.695092
209.097245761002 6.15839
211.1099576424 7.00077
213.090044164894 8.30051
222.105440969595 0.802435
223.109197307672 7.27778
225.126529492972 9.27495
226.096649451959 1.05045
227.10571068705 15.7756
228.116170106653 0.794369
237.127192854355 3.82792
239.142614497853 3.99005
241.122405618448 8.52165
251.144480588585 2.76127
253.16134397652 0.618731
254.155133166761 0.796373
255.140515059715 5.04859
265.157630115331 0.504791
268.143382933336 0.730183
269.151224890202 4.37372
279.169288089567 1.20032
281.183791412287 0.622475
283.171736218757 1.96509
297.184123728172 1.60121
307.20354455022 1.36282
310.181694459691 0.766925
311.203046832112 3.76083
325.216924955503 3.82452
339.228294857281 2.08263
353.243708355245 1.02261
367.261330318952 0.993954
377.276512524404 0.55383
381.296996796293 0.512915
391.332590413741 1.20999
393.313493260561 2.0972
395.289834312834 2.21825
404.304122797197 0.511806
407.330459960104 0.682927
409.329306612083 1.02778
415.328637674446 0.558908
423.326908554718 3.4438
433.343131139992 10.9407
436.337486455749 3.0563
450.371607807496 0.517902
451.215734379997 2.54367
451.357155579142 100.0
451.507602059404 2.06739
451.637541470193 0.947676
451.728337122877 1.09184
451.809334915453 0.742329
451.940624920999 0.911155
452.102844320802 0.913243

>collision 40.0
41.0425296358218 2.35837
43.0190468518751 5.31194
43.0550072871171 31.5904
43.1174583126141 0.642072
43.3569284249126 0.577876
45.0339978031058 2.07294
55.0555815933262 10.0556
56.058996453719 0.965337
57.0352574810746 1.53027
57.0703429987929 50.273
57.1371596973023 0.764889
60.3409708849963 0.606205
65.041357020609 0.825022
67.0558816949278 3.45779
69.0708066747357 10.6565
71.0473667174034 1.34776
71.0855705794306 28.4993
77.0425175573436 1.21907
79.051982481395 2.23495
81.0713907793951 7.889
83.0434152813802 1.11809
83.0857801424657 4.87523
85.1028864460785 7.49838
91.0546926755453 1.69497
92.1607915059053 0.635057
93.066648032361 2.24783
95.0865095786948 9.01076
97.0619279378167 0.974971
97.1000416259082 1.66167
99.1193204270287 0.944514
105.032570339199 13.9691
106.043940591039 1.06092
107.087147664168 2.09306
108.090364231672 0.621172
109.101031889501 4.43024
111.045301688504 0.896228
115.052123533642 1.59
117.066703726216 0.953191
121.047588233727 2.11026
123.11375930369 1.76712
127.053118334841 1.12525
128.060651448197 7.77901
128.124497021548 0.636457
129.068413381114 3.40979
131.084549144689 9.61557
133.028996876596 4.0197
135.119989038122 2.00603
139.069045068397 0.625448
141.06756194857 4.35382
142.079398361574 2.75983
143.085615181826 7.87411
144.055553074446 1.27181
145.068414085726 4.45663
147.043034449594 4.54571
149.055494984127 1.04953
153.069529454083 3.81354
154.076611120158 0.625209
155.083111266718 6.06239
155.639202855113 0.666364
156.088638679947 1.00547
157.064972667216 12.4103
158.07484165053 0.722195
159.07794186384 12.1132
159.434398153567 0.777623
161.060047054908 5.66135
161.126804199287 1.10076
165.067399723494 3.43513
166.075294493936 1.60398
166.109203038456 0.863266
167.085707832511 6.61907
169.092990198115 4.12913
171.079892131365 21.494
171.16024756734 0.62057
171.202449998025 0.608191
172.084370223548 0.771332
173.06557141714 2.63141
174.058032323542 0.834916
177.069211897547 3.57601
178.075940373351 0.707282
179.084163158403 1.72869
181.087238119373 6.63885
182.073000109226 2.2372
183.083805799139 4.48789
184.053081687721 1.0137
184.093633296744 1.2167
185.095147195843 14.8759
187.07494064076 100.0
187.201257916703 1.68694
187.256970270325 0.944514
187.301310227565 0.592199
187.483044750612 0.615377
187.5525739289 1.2989
187.583414628586 0.678298
187.804927533528 0.593667
191.083556206964 1.40494
192.091143899575 0.775938
193.10348222158 3.03839
194.080727972358 2.78535
195.087473884928 4.69925
196.088093773682 1.40041
197.094001697285 16.1733
197.175314445025 0.6795
198.066503078011 5.96959
199.075839069461 21.4906
200.160630333756 0.620709
201.086779572336 1.85652
205.100113243972 2.60181
207.109073158138 1.13551
208.08500182954 5.62886
209.094697266106 10.593
210.100556943832 1.76138
211.105775133717 4.63374
212.080101346585 2.44698
213.090065071869 10.598
214.102319613064 1.05448
219.120733638147 1.05172
221.095696431608 2.35044
222.102947244933 1.22086
223.112552880814 11.3851
223.183801776827 0.723999
223.993063923398 0.591707
225.08888468004 8.16859
226.099244729301 4.00573
227.105194377878 8.893
237.126562019223 1.097
240.116230813192 1.93733
241.121395810615 2.96918
244.089931659662 1.0247
251.138155719043 1.09243
264.14158712302 1.48661
265.154779916764 1.72348
281.163406610041 0.934152
293.183205938349 0.869262
302.622148301515 0.842774
324.206012280968 0.793804
401.999695619833 0.612581
408.832674376949 0.656226
436.331163973203 2.86635
436.921467546096 1.05069

