>compound Diphenhydramine
>formula C17H21NO
>parentmass 256.169320699449
>charge 1

>ms1peaks
167.08562553893 41.1317
167.204675610014 0.544191
256.169320699449 100.0
256.315640955463 2.42033
256.362515565963 0.746919

>collision 10.0
152.062240214071 0.642154
165.069678424204 0.795849
167.084971880946 100.0
167.204411971027 2.90826
167.241073277045 0.8195
256.169782518625 1.04011

>collision 20.0
152.061932173127 3.11572
165.069678574081 4.01524
166.077537806679 1.38206
167.08497691744 100.0
167.204547699164 2.90251
167.241225977983 0.824127

>collision 40.0
115.053891193882 1.44672
128.061944003899 3.58228
141.069568986274 3.87828
151.053703359675 6.8943
152.06232319899 100.0
152.175726623486 1.47757
164.061676846675 0.621981
165.070172612026 97.7518
165.188559051445 1.30918
166.077532436218 27.5649
167.085607458266 45.5278

