>compound &#38;gamma;-Tocopherol
>formula C28H48O2
>parentmass 417.374339947197
>charge 1

>ms1peaks
71.0890125542431 0.877337
85.0991961036164 0.652679
95.0859351612981 0.77453
97.1012178731602 0.515663
111.120550839073 0.540028
125.133176039396 0.560349
151.07540595107 17.7608
152.068959225877 0.529347
417.374339947197 100.0
417.616716764236 0.86757
417.706792002956 0.806174
417.739551745104 0.654481
417.851428114085 0.896283
417.929631802286 0.823493
417.981592849562 0.595693
418.040809157187 0.568465

>collision 10.0
57.0697878899269 4.92099
67.0537929235114 0.671354
69.0687844615531 3.30866
71.0867112445199 3.88385
81.068027923756 1.50604
83.0854177632649 4.07565
85.1013980046342 2.62076
95.0848432486082 1.12072
97.1000729100731 5.74605
111.115719779785 6.17802
123.079532509974 1.24047
125.130513115078 3.21538
139.144668111853 0.701841
151.073779802226 100.0
151.183177742082 1.68049
151.216799675052 0.57562
152.076981019962 1.78309
191.109294602944 0.606261
192.109989259994 0.672088
206.122156510014 0.559608
417.368738872747 58.1881
417.543117669726 0.841068
417.922397564621 0.507015
418.367812120531 0.686282

>collision 20.0
41.0396211082666 0.940676
43.0547251685395 1.82654
55.0548647784732 1.37808
57.0713939501234 6.9332
67.055014459613 0.50718
69.0708136506688 7.85464
71.0873944229386 4.78567
81.0719359553225 0.523102
83.0860821691887 6.43693
85.1030865785576 3.23015
95.0862434836827 1.49293
97.1016279068332 8.3878
111.118211199008 2.81128
123.080879046647 2.33285
125.131175518637 0.8732
129.043763084831 0.628259
151.076520299036 100.0
151.183277553495 1.48863
151.221350506196 0.623494
152.079634738961 3.46985
164.077949602737 0.630235
177.084541701829 0.579176
191.107211828165 1.357
192.111852053833 0.927156
417.37274077544 8.06409

>collision 40.0
41.0391786138935 3.60347
43.0174918252356 1.68548
43.0549850649376 5.4877
55.0550764033651 13.5405
57.070501517982 13.6743
67.0548678448255 5.40287
69.0331102243081 0.905424
69.0700188656269 18.7525
71.0857975809715 3.48398
77.0369748192941 0.683459
81.0679584553723 1.15782
83.0844262421238 5.5639
85.0993773397321 0.878897
93.0676538569351 1.85985
95.084866539842 12.3631
97.1001838071971 4.9597
105.070001488294 2.41746
107.05116015802 0.860261
108.055053408828 1.39843
111.115269651948 0.862472
121.061506582866 0.721625
123.079411385515 18.3448
124.082590273481 0.626537
150.063978017687 0.798709
151.074037046399 100.0
151.186016412392 1.35225
151.215875377249 0.739743
152.077469345228 5.03128
165.08483714109 0.541928

