>compound Astemizole
>formula C28H31FN4O
>parentmass 459.258251569634
>charge 1

>ms1peaks
459.258251569634 100.0
459.441210505855 5.80244
459.532705017727 2.62257
459.656374947961 1.42549
459.710361934797 1.47188
459.774884089739 1.13588
459.820361126431 1.09824
459.915347257052 1.05095
459.971733841034 0.983
460.11959325432 0.840806

>collision 10.0
135.081454496049 1.26475
218.155860804999 2.37132
308.158852153354 0.777403
459.258509270533 100.0
459.44112183638 5.86872
459.532664317768 2.63441
459.656732320261 1.45617
459.71032720008 1.5069
459.773182480579 1.15786
459.823304348996 1.10815
459.914017868641 1.06492
459.962641718623 1.01041
460.030554287983 0.94378
460.114435015898 0.876672

>collision 20.0
109.044593250429 0.68977
135.080010948402 11.7183
176.106406246956 0.51814
199.109854835303 0.555298
216.137774829913 1.64063
218.151683084045 24.0372
218.287527124026 1.10047
242.108375518354 0.646677
308.155850725221 8.70961
459.252921338604 100.0
459.443020640119 5.47119
459.536109078011 2.65976
459.708869713387 1.3958
459.783399137716 0.933174
459.864949812849 0.869581
459.91467150903 0.861154
459.973999794915 0.821255
460.110574790417 0.672164
460.165604064503 0.655215

>collision 40.0
77.0396567907199 0.541417
79.0553261322025 1.18081
84.081750389796 0.93368
96.08191896732 4.74324
103.055350217288 0.94791
105.07097176083 6.13168
109.045986827539 12.9098
120.057805479595 1.15858
135.080117873561 100.0
135.186118152632 5.5704
135.224581239697 2.36893
135.299983829063 0.925226
135.328236714268 1.15925
135.367306180468 0.599141
135.412946612727 0.542547
135.440914526503 0.542812
135.465358740143 0.503884
136.084824826252 0.535422
164.108078851912 1.28684
176.108355284757 2.67074
186.104384197329 1.88218
199.112081283872 8.06426
216.140131847521 1.28912
218.156202194325 14.5595
229.146377320194 0.776405
242.110402884515 1.17113
308.158801396313 5.36939

