>compound Riluzole
>formula C8H5F3N2OS
>parentmass 235.016552703771
>charge 1

>ms1peaks
235.014511794021 100.0
235.152483609 2.06712
235.198445812535 0.930262
235.268332556702 0.512761

>collision 10.0
235.016552703771 100.0
235.152321238361 2.3205
235.199378719309 0.973135
235.248399654566 0.541811

>collision 20.0
138.027238033352 0.856903
149.018168018774 1.50362
150.026067381448 1.34666
164.03304105122 0.516793
166.021072308675 3.01165
176.034188691554 0.698259
192.994190376176 1.79369
208.006130105153 2.7591
235.016676495264 100.0
235.152211326434 2.34052
235.201973991601 0.975789

>collision 40.0
52.0328350119504 1.00096
63.0239619823405 0.509596
67.0430182406277 5.03364
68.9959053510937 15.7028
69.9889309013511 1.13467
78.03513381604 1.39909
79.0426460869128 3.78949
80.0507433478372 0.919566
83.0305016472184 16.1364
84.0045220661564 0.51101
94.996036662372 2.88561
95.0369757672494 3.15493
96.0040771539446 23.5166
98.0405607675774 1.52513
101.021571064562 1.07219
105.046020588645 4.46114
106.996783376685 0.697022
107.037052744857 1.03732
108.033911046722 0.553196
110.007233800952 3.89388
110.039644562923 1.67828
111.014613500375 25.3633
115.002822739057 0.751584
118.054155476424 0.637038
121.000173812974 1.64818
122.006891601599 21.5223
123.014703047294 8.9243
123.998370587523 15.1676
127.002087282818 17.2976
133.040155183491 5.48529
137.018051652918 1.84585
138.025044512352 100.0
138.131844124816 1.67262
138.164879079025 0.707117
138.219806810244 0.502491
139.008665372912 2.02509
142.012263678714 0.710819
144.992881496315 0.748693
149.019290710288 21.8797
150.024576359085 28.2651
164.031697385135 37.9886
164.116478215616 0.74155
164.14995412304 0.683985
165.012519072431 2.06972
166.019423005983 56.7423
166.136062087076 0.843011
169.022216062464 1.10344
176.03076151988 5.79119
180.992367311065 1.46921
192.992763311198 16.5883
202.033917262011 2.66815
208.003323350958 17.653
234.006569822046 0.589166
235.01366257474 23.8206

