>compound &#38;delta;-Tocopherol
>formula C27H46O2
>parentmass 403.35546653181
>charge 1

>ms1peaks
71.0895797313229 0.52859
137.058724418738 7.15008
138.063871804777 0.772496
164.078939309335 0.620297
177.090645932703 0.778752
191.109561578776 0.78444
192.111425453208 0.707414
402.348008760131 50.5421
402.52378723279 0.828103
403.355647812694 100.0
403.530709528417 1.80919
403.5865539942 0.983738
403.681625426441 0.801438
403.792595255955 0.650178
403.884965973411 0.714294
403.98518004262 0.634595
404.155115777798 0.708457

>collision 10.0
55.0558797325561 0.714398
57.0706713129144 3.03431
69.0708702159601 1.44921
71.0859418092576 4.05121
83.085469081808 2.90482
85.1008157013302 2.30078
97.1016585101084 4.944
99.1176361741853 1.27708
109.064442119397 0.645597
111.115824678347 6.27844
125.131733203291 3.54568
137.059151561837 66.1029
137.19595544794 0.587157
138.063747926273 3.77242
139.148290047001 1.74965
151.073161221323 1.73383
152.077568195798 0.629557
153.165523141778 0.830032
163.076765509079 1.60522
164.077539296985 0.923688
165.09098120183 0.518393
177.089575439291 6.40012
178.094002278733 1.59955
191.105878366946 2.52921
192.109641921093 1.47637
193.11998633054 1.12132
402.348041258139 66.0725
402.522263705657 0.828599
402.578625337946 0.697124
402.760921522068 0.642073
402.857698283353 0.54913
403.35546653181 100.0
403.534328685101 1.86922
403.58554647776 1.31453
403.64074006023 0.901282
403.816929348865 1.03445
403.975784215722 1.00538
404.125646677242 0.554555
404.321269043271 0.771394

>collision 20.0
43.0571809149334 1.05131
55.0555517786899 1.27159
57.0704672279835 10.5441
69.0696650051024 6.35112
71.0853823379568 6.97559
79.0555275849037 0.638956
81.0707321669155 1.15822
83.0857477713021 5.85294
84.0883784490786 0.736587
85.100341430026 4.24319
95.0865457810704 1.34953
97.0999137235359 6.50187
99.1143720249521 0.651891
109.066227680845 1.468
111.115961018191 7.7999
113.131528307054 0.569767
125.132013219298 1.70785
136.051643738371 3.46302
137.05939555236 100.0
137.164882443125 1.6816
137.199089982186 1.03671
137.232626277788 0.531845
137.332330258855 0.546628
138.065248544388 10.4375
139.067966704155 0.550684
139.150090762659 0.566085
149.056184097282 0.632509
150.065216549954 2.58887
151.075089368241 1.90028
163.076053085216 2.04041
164.077951969745 1.55765
177.090178964201 14.5771
178.093565721953 2.30951
191.107021514994 3.07885
192.112201866242 2.88155
205.12194521463 1.08248
206.128383623925 0.668299
402.348127812873 27.8149
402.487448770879 0.57354
403.35069968849 14.8323

>collision 40.0
41.0393448243333 1.33906
43.0554041030891 5.86703
55.054571155329 10.5748
57.0704088959543 11.6389
69.034346592964 1.84115
69.0701560807194 16.1784
71.0856724170896 5.72888
79.0542903074149 1.98367
81.0701120911891 10.9121
83.085890768514 6.23374
85.101874637534 1.49736
91.053458918757 2.00734
95.0490111194931 0.548351
95.0853875648237 1.25489
97.1022084679924 2.31184
107.048309811959 1.0089
108.055964762907 4.06276
109.064479411281 13.1567
110.071410933003 1.14646
111.115860771057 1.29805
121.064091764966 3.70373
122.068925117441 0.779725
123.049503987409 1.027
125.061042112798 0.77475
135.080770038003 1.2727
136.052196829672 7.88346
137.059337906325 100.0
137.16407039801 1.80017
137.204414892651 0.983874
137.275775379809 0.648142
138.065208438135 11.7995
139.06810807617 0.718445
149.078154042173 1.83773
150.065873260762 2.55911
151.074473310875 1.32961
159.081217902316 1.38182
160.08173725279 0.607465
163.075453658435 3.34825
164.077619969062 1.8373
177.090249754759 8.8171
178.096352211899 1.42764
191.105637404566 0.853748
192.118153014527 0.519564

