>compound Riboflavin (Vitamin B2)
>formula C17H20N4O6
>parentmass 377.145707024613
>charge 1

>ms1peaks
158.963840430101 1.244
294.938409528834 13.9365
376.143357496117 0.729584
377.144843776801 100.0
377.388176477639 0.858212
377.758405743843 0.690346

>collision 10.0
57.035344033486 1.54564
69.0322386709659 0.700783
158.962897985833 13.0859
172.088342977312 1.08233
243.086205756823 6.54794
261.132798350885 1.09388
280.940081694468 0.730179
294.938671163253 8.47291
335.110653622884 1.21808
338.704395971301 0.713307
377.145707024613 100.0
377.265079779874 0.744623

>collision 20.0
41.0380771919492 1.54629
43.0528665683364 3.23259
45.0338816505827 2.91275
57.031825088388 1.55395
64.9774830035797 3.98478
69.0337508873685 9.16391
71.0471865488655 2.15658
73.0318181196202 1.4332
75.0421987315591 1.45681
99.0422787628465 3.51115
117.053275047683 4.96352
158.962629383676 15.608
172.0880444938 5.49855
243.088047417976 53.5836
335.119997760835 1.40526
359.132251719552 7.62939
377.145270492599 100.0

>collision 40.0
41.0384648425651 10.3224
43.0186866421429 28.2567
45.032809103631 13.24
57.0337278631323 36.393
57.0708162613228 4.00045
61.0275789890783 14.2926
64.979462251116 16.7877
69.0319462482083 29.8243
71.0157103355448 4.39778
71.0529777975742 7.64721
73.0282274096793 13.9906
81.0343814950053 15.3984
99.0452868560006 6.54666
130.060521675071 3.96739
145.075515079895 4.96089
172.087339287199 76.915
183.086122719207 7.1929
184.088921366879 11.4292
198.066422886284 59.2217
199.092451516144 13.9471
200.082458652901 18.4504
226.058596273886 14.0926
243.088717670797 100.0
298.114912200156 7.75896
359.13589088444 6.44739

