>compound Disopyramide
>formula C21H29N3O
>parentmass 340.236078014616
>charge 1

>ms1peaks
194.094834329632 1.18401
195.102938518413 1.7557
239.115985105493 17.7533
340.236078014616 100.0
340.46171991866 5.72931

>collision 10.0
194.09514612054 5.08157
195.10252025728 10.9392
239.116445625007 100.0
239.305327333113 6.4891
240.119233525379 0.652417
340.235956209656 87.2863
340.461608231804 5.04739

>collision 20.0
118.064548462069 0.651111
194.095152795025 13.2374
195.103196729615 31.1688
195.274820911453 1.51941
196.109798697669 0.891759
221.105976085075 0.898681
239.117433921858 100.0
239.306505343101 8.19672
340.235531372052 3.02655

>collision 40.0
91.0546737294986 0.738385
116.049450550401 0.544957
117.057397740686 0.829691
118.064657310876 7.90191
167.073024261084 3.76848
168.080024273198 1.15566
180.079493408725 0.529574
192.075845024823 0.877437
193.086169223488 3.97386
194.095721400473 100.0
194.268307704635 7.04571
195.103391499455 89.2531
195.2749587684 6.05022
196.110328622967 2.09913
221.105859264617 4.20903
239.115868591757 6.97223

