>compound Ritodrine
>formula C17H21NO3
>parentmass 288.159311400965
>charge 1

>ms1peaks
121.064126019227 0.956593
150.091435437838 0.845946
270.148316473875 6.52227
288.158803190221 100.0
288.287367865641 2.06234
288.372291400191 3.37262

>collision 10.0
93.0701114466484 0.564638
121.064829169283 17.2642
135.079523071604 0.769709
138.090553638093 0.790752
150.091184213867 16.8154
209.964327551979 0.790314
270.148919528399 100.0
270.356175411392 2.32437
288.159311400965 87.49
288.28869565062 3.78386
288.372334660598 1.94341

>collision 20.0
77.0388284662495 1.79068
91.054218070064 1.57122
93.0695143050394 3.66562
103.053775169371 1.88482
105.069068263598 1.50655
107.048326786862 0.729391
121.064143497574 100.0
121.20020388446 2.05864
133.063995211175 4.09504
135.079104210024 1.6147
150.09059806631 60.9096
150.244080147892 1.34957
151.074516432876 1.46038
270.147833866734 48.6015
270.355991433708 0.712588
288.158964330231 2.06721
288.28963812117 2.40284

>collision 40.0
43.0186134256187 2.01054
43.0550694743627 0.627997
51.0234793688492 1.5006
55.0181078795439 2.05772
56.0500116286858 2.70642
57.0345217826528 1.29284
57.0705040332172 0.826566
65.0388726259139 0.53417
70.0658036466268 0.76842
77.0391335315807 47.6038
77.1507014708308 0.736799
79.0548095130442 3.19069
91.054626336983 37.1632
91.175574431905 0.557336
93.0699240865436 42.964
93.1870609994756 0.690536
95.0495336603187 0.82822
102.046874412509 0.924351
103.054190509146 50.0298
103.183297411095 0.655376
105.069509034986 22.9736
107.048737748754 3.55428
109.06471914938 1.53786
115.053630709433 1.22721
121.064509636656 100.0
121.20131915056 1.54598
131.048232592969 0.505496
133.064526692431 16.9616
135.067581167001 1.47211
150.090841300253 13.811

