>compound Pyridoxal Phosphate
>formula C8H10NO6P
>parentmass 248.031133485555
>charge 1

>ms1peaks
30.9446084445132 1.35036
82.9626965607592 1.31251
131.064501142484 1.13789
150.053903591265 9.79379
150.094187980462 1.38628
206.025180619659 1.37459
207.1299783727 1.83642
207.168806358412 2.02102
216.968756677392 1.35514
246.338011191173 1.86816
247.182046847617 1.86317
248.031900438254 100.0
248.12318577104 3.08998
248.180221321267 1.93652
248.265563514116 1.35355

>collision 10.0
26.2184670412875 2.05969
60.0426575274623 5.72681
70.1445889111425 1.98526
72.4895853138667 12.9072
94.0636082669545 6.31297
122.056756416248 3.29657
132.095805699376 4.83725
143.664325301106 2.65077
150.052859194008 66.4706
150.501498554466 3.07391
168.064889834245 4.19485
174.990558760388 6.9347
207.016712769409 4.0416
207.132900433439 2.43137
220.037505743684 5.93952
245.375906654554 2.24215
248.031133485555 100.0
248.519607770113 2.4426
248.889491815788 2.3152

>collision 20.0
41.994372902625 6.7214
67.0544956538035 7.36956
82.0274172245099 8.58325
93.0563315875382 5.4576
94.0651833172763 14.7067
106.061812613206 13.4909
122.059830810643 77.3806
150.053528578472 100.0
150.106712322869 4.78329
150.815367605994 2.988
157.051026720569 5.08614
168.06790311872 9.23728
220.887450791801 4.66378
248.034012455349 4.84032

>collision 40.0
41.0457232502225 9.52123
53.0399801186872 27.6515
55.0178569971321 9.58899
65.038469507177 19.3908
67.0552611291693 72.8309
67.2157937421721 5.54456
77.0396608883832 27.5794
80.0504141863532 8.80631
86.2014061646132 5.32205
94.0639586298588 100.0
94.1171341661935 5.42237
95.0482230804394 5.78835
118.927004949566 10.0772
122.057155785471 17.5564
123.074818950264 6.10537
140.072215274882 7.30431
152.721995713282 6.07946
153.37933571606 6.35333

