>compound Ropinirole
>formula C16H24N2O
>parentmass 261.196192546882
>charge 1

>ms1peaks
114.127618530101 1.69136
261.195634578234 100.0
261.399989901806 4.00947

>collision 10.0
86.0968087880445 0.532595
114.127764093927 18.5379
160.075322230551 1.23847
261.196192546882 100.0
261.400125286506 4.04159

>collision 20.0
72.0817435575872 1.9202
86.0972843791423 6.32828
114.128274018407 100.0
114.26085874949 2.85976
132.080944924348 2.98892
160.076148224784 13.0182
261.196521325503 25.1076

>collision 40.0
30.0338835561964 3.44413
41.0393621297673 5.71634
43.0552845064463 26.6805
44.0503502206862 17.1302
54.0353818839218 0.660904
58.0657259170535 7.58209
72.0813452703047 39.7686
72.1878617247217 0.706656
77.038863694977 2.60273
79.0546549663997 3.2755
86.0965290931794 74.0399
86.20908843015 1.09827
90.0466371076783 0.580633
91.0542750261088 3.22996
92.0512267760669 0.617792
103.054766002784 2.74728
104.053516300513 2.26548
105.069413717286 28.3337
114.127355018083 62.6295
114.25777671194 0.643449
115.053892131034 11.5728
116.054724241965 0.87854
117.058383431588 26.4591
130.064459577711 2.98771
131.072374741718 4.13418
132.08023307133 100.0
132.220410150442 1.44667
133.06250225417 0.529473
142.064585044633 1.41351
160.07504623688 20.4347

