>compound Pyridoxamine-5'-Phosphate
>formula C8H13N2O5P
>parentmass 249.062899414079
>charge 1

>ms1peaks
90.9770627663376 2.28203
101.004434640524 0.809151
106.070647050133 0.595111
129.050047859269 0.688128
134.062137175701 3.21827
151.084784256973 3.90475
168.99146112956 1.1061
169.992886620852 1.35493
170.986419386212 2.62634
171.07852108316 8.87692
181.010762946492 0.631647
232.037997581058 8.39549
248.015550877936 0.781509
248.160371066977 0.522063
248.997359659468 1.16647
249.064688185447 100.0
249.18737442148 2.16531
249.265344418828 1.14086
249.33921157494 0.816221
249.483850282829 0.938842
249.610752393607 0.696297
249.702753823491 1.15435
249.788717740322 0.593993
249.936291203235 0.56375
250.06185357544 0.780275

>collision 10.0
38.3330782139357 0.526772
41.0379082987014 0.563096
77.0383411439357 0.823389
79.0529959666907 0.569806
90.9768027882806 6.34136
106.063223209693 2.53474
118.984044703954 0.69902
134.060413983871 24.8859
134.125951943502 0.8592
134.164058984085 0.578465
134.472982142943 0.772094
141.015098830448 2.25469
151.087466277091 21.7733
151.531024238311 0.5922
168.984631934478 0.94764
171.083533297313 13.8246
171.183227480486 0.528164
232.037144724516 100.0
232.176105129323 2.10675
232.237176145512 0.838928
232.319674566843 0.981196
232.469403420237 0.667075
232.588201921192 1.20853
232.671013907505 0.752184
232.762434951475 0.630062
232.989918091475 0.531185
248.036976690743 0.915265
248.169873973463 1.82851
248.228352473563 0.9119
249.062899414079 58.4602
249.144753743825 2.86653
249.210490348562 1.25239
249.252975366913 0.732274
249.535173385716 0.526558
249.76689727183 1.10692

>collision 20.0
28.0157853309734 0.749454
68.0484945153309 0.805887
79.0543220035131 2.61364
80.050440919667 0.77661
90.976534205823 3.80467
91.0479772631247 0.658753
106.022936389443 0.612043
106.065194313333 18.7
124.075108699808 1.21114
134.06043383677 100.0
134.165257523321 1.74566
134.200443041122 0.853995
134.246809726711 1.07197
134.270169317488 0.587039
134.377858843623 1.27881
134.497656688938 0.855269
134.547818380548 0.659073
134.632043880557 0.520899
134.949013468055 0.553914
151.087527863332 12.8495
152.072667916381 1.12928
171.089492303726 3.39819
214.024842951003 1.03322
232.037880227866 41.6302
232.16162581927 0.978022
248.233805997408 0.708409
249.060642277664 1.10769

>collision 40.0
39.0232253624485 1.26992
42.034989423822 8.34568
43.0195349922028 1.25052
51.0282582115952 1.77356
65.0380393477025 26.3079
67.0438201255012 5.72386
69.5453665391517 1.60083
76.7390816434526 1.40306
77.0397039737847 62.7109
77.1187772363325 1.24172
78.0375470631856 3.39805
79.0546797180198 56.8248
79.120492166123 1.25378
80.0488571855031 4.6792
91.0414236138929 3.14758
93.0664170660024 1.17247
93.9862600922723 2.36913
106.065104647015 61.3853
106.117820429183 2.45861
106.182306755541 1.23484
107.093164516077 1.89998
117.054196016667 1.99664
121.076640127568 2.6119
123.078110010515 1.40784
124.07903328429 5.31696
133.051322718528 2.30931
134.059644089595 100.0
134.164431581018 2.41964
151.084828015103 2.27323
186.026105660565 1.69729

