>compound Salmeterol
>formula C25H37NO4
>parentmass 416.278823176525
>charge 1

>ms1peaks
232.169326816543 0.7079
380.25816573303 1.74112
398.268727588675 7.0697
416.280245776076 100.0
416.529954728939 4.69351

>collision 10.0
91.0543380754176 2.49894
135.079960069877 0.627357
230.152860192963 1.31655
232.168661289442 10.109
248.163395675447 2.00317
380.257802023746 23.9456
398.268186487801 68.9753
398.511701020995 1.58654
416.278823176525 100.0
416.529538675847 3.18829

>collision 20.0
55.055544751806 2.79229
79.055162680647 0.507892
81.0704097305806 1.47772
83.0861530589238 1.1394
91.0548421752347 25.1209
98.096976022899 2.72046
105.070182375416 1.24185
112.112888941399 0.56005
121.065243854796 2.89911
131.085629771285 4.47327
133.077689997798 3.87801
135.080044961166 6.36597
145.100583698503 2.37357
147.076414056604 1.36418
148.076052197349 4.29213
149.083844226082 1.03223
150.09151421092 2.69787
151.075428936602 1.15638
159.080292988211 0.574465
160.075971489279 1.05416
162.091613832742 2.55064
164.106259198146 1.99471
171.080484181906 0.722831
213.127216920934 0.848536
217.145653409585 1.23666
230.153616206957 10.9123
232.169282747258 60.5401
232.355474049812 1.03228
247.156067755442 0.642325
248.163955028815 15.2811
250.181316609266 0.607056
380.258414556991 100.0
380.503503900002 1.51863
398.268618164413 89.0929
398.511986352482 1.59989
416.278701015432 9.46022

>collision 40.0
41.0398895835681 0.617698
55.0192671485288 0.50139
55.0556829600049 20.8681
56.0511447404531 0.611913
65.0394968072176 1.74437
77.0395303928915 0.807039
79.0551091542507 1.90034
81.070944718313 3.30232
83.0860915318677 2.3393
91.055243041757 100.0
91.1761302765828 2.89563
93.0703258774172 1.01659
96.081852306986 0.756568
98.0970722366416 3.73213
103.054756513969 1.21149
105.070294955241 9.10299
107.050326412562 0.795851
107.085586201762 1.12338
110.097575146486 1.55654
112.112825806588 0.710228
115.053832931057 0.913728
117.068135700726 1.76693
118.065575383375 0.53699
119.058132274945 1.21686
120.080701447154 1.46017
121.065375779071 8.25696
129.070126922059 0.805849
130.066130878224 1.76631
131.085218191438 5.28315
132.080391391034 0.891747
133.064519608973 19.3747
135.080192100177 14.1635
145.100093188738 3.23919
146.060939348163 1.31452
147.071228580069 4.24675
148.076167484362 10.9907
149.083891213655 3.20624
150.091679726796 3.52946
151.07568894412 0.77481
159.079627553706 1.14273
160.076499846985 3.19816
161.087144763362 0.81482
162.091259940023 3.60452
164.106726662244 1.03865
171.081030351271 0.763903
173.091311227915 0.520642
217.145383327036 0.85063
230.154065049254 11.003
232.169105406389 7.23587
248.164520192768 2.57878
380.259616046788 1.49321

