>compound Pyridoxamine
>formula C8H12N2O2
>parentmass 169.097669955398
>charge 1

>ms1peaks
90.0061952502634 1.02672
106.064795962438 1.20149
121.501219286645 0.588578
122.500645559242 0.615135
129.012207829277 9.81868
129.513462178271 6.86191
130.011110926497 7.67974
134.059578489834 1.2827
151.085969924362 22.6217
152.069950148536 8.35499
168.019055848945 10.6399
168.51996223265 9.17729
169.018002221051 9.97408
169.096806984196 100.0
169.261876554501 2.01786

>collision 10.0
77.0396654588842 0.696172
79.054374905263 0.636379
80.0504469215178 0.570254
81.9898931988975 0.783585
82.4951734406233 3.12499
82.9948909385663 1.03687
83.493440077347 1.16432
90.0065760721007 11.3269
90.5076914592926 6.64475
91.0050394996574 5.65313
96.0818562371369 0.708416
106.065650930432 14.3846
121.50124420662 6.64398
122.002076859922 4.6818
122.060089117707 0.819795
122.499912787799 5.8757
124.075978096185 3.95061
129.013075594855 12.8749
129.513758955019 9.07044
130.011303260999 10.2787
134.060104563465 11.7634
150.054354099422 0.541854
151.086640093583 100.0
151.240856262971 1.44291
152.070281756374 57.4535
152.219976628263 0.845452
169.097669955398 14.2006

>collision 20.0
43.0186324997867 0.555226
53.0389568594312 1.0137
55.055178446275 0.628903
62.990239543687 0.872154
65.0396042014217 2.66417
66.967299218948 0.545348
67.047010749837 0.870474
74.478756504527 1.12348
74.9815830620118 2.04971
75.4804674375236 0.914532
75.9820004452631 0.692529
77.0389633569219 8.73434
78.033417595682 1.46128
79.0542261666963 9.23667
80.0497818800415 3.45834
81.0573228377304 2.67655
81.9904483649494 5.32132
82.0648808335933 3.03331
82.4939062312728 24.8744
82.6063531443285 0.532204
82.994138375399 12.8114
83.4930226497589 9.66316
90.0059014643845 33.3336
90.5062987979486 15.751
91.0046348504007 17.9352
91.5039660138948 0.845166
92.0494912412418 2.32706
94.065225139918 2.2484
96.0806351803836 8.0397
106.064814173556 100.0
106.195180698032 1.38612
108.045548191681 0.733339
118.051379345533 1.52323
121.501540068788 1.60815
122.000298865671 0.839527
122.059273259513 3.8989
122.499176920214 0.579325
123.074061583714 2.71138
124.075360434807 24.3972
133.076899810203 0.864263
134.059434078984 84.8146
134.20383342763 1.21156
150.053189655411 1.3208
151.085764094055 50.0243
152.069460216533 40.9736

>collision 40.0
39.0239291834744 7.31735
41.0384642497116 1.42335
42.0345592743066 1.69904
42.9844744855376 0.821307
43.0187634228592 3.92649
44.9793862196962 1.1946
46.9954495649025 3.31259
51.0233927177187 10.3418
52.0077453510821 0.534157
53.039682069037 11.068
54.034590937912 2.08435
55.0549613532095 1.74018
56.0501047232882 0.686894
58.9953596217268 0.505125
61.0102047816127 1.37505
62.9907860912967 10.5404
63.0229659974485 1.65562
64.0313765940779 0.611241
64.9924148334442 0.655974
65.0394052511738 18.1387
66.0462383138246 4.00631
66.9672306440103 2.18051
67.0438494577744 10.0091
67.4678063158146 0.763578
67.9666795580483 1.0866
73.975676332041 4.8701
74.478737918584 15.4893
74.9804429105838 12.505
75.4799626059323 7.90893
75.981248046083 2.9899
77.0391707398262 100.0
77.1505098803605 1.62902
78.0339347153545 8.76898
79.0543985398296 27.5245
80.0499338446538 23.1296
81.0574464777824 13.008
81.9903103067886 14.0323
82.0654913941633 1.07785
82.492705995575 10.283
82.9902248091156 6.85787
83.4924028842022 2.18874
84.959138978718 2.10674
85.963436550986 1.95411
86.9705541698902 1.98153
87.9722041709638 0.627772
89.0389882852096 0.84468
90.0349626903475 0.527498
91.0422513495283 5.94163
92.0495718434482 0.770661
93.057218921621 1.43767
94.0648692526299 12.6226
95.072042924332 1.61303
96.081451630188 2.3231
100.991056981945 0.675026
101.997464459441 1.67187
102.971240549773 2.78085
103.976088472036 1.15519
104.050993906521 2.13816
104.968378681564 0.941687
105.05609414583 0.858007
106.064959567585 34.305
107.072654008892 0.825653
108.044199881859 2.10198
109.05151657275 0.830504
118.0525358431 1.62561
122.060793987596 1.66544
123.068358986839 2.51986
124.075509891694 3.46397
131.060389343344 0.609725
134.059723008977 19.238

