>compound L-Isoleucine
>formula C6H13NO2
>parentmass 132.101771704904
>charge 1

>ms1peaks
69.0703768963563 0.985633
86.0967755560807 46.1894
132.101771704904 100.0
132.208508400946 0.558605

>collision 10.0
30.0339183846366 0.669016
41.0388751839482 1.06776
44.0497496088001 4.01544
69.0703677434663 10.3035
86.0969321017833 100.0
86.1830842781538 0.604657
132.101487100016 5.05196

>collision 20.0
30.0341314647336 4.58825
39.023650624476 0.53536
41.038885210098 26.7568
43.0529028471269 0.663194
44.0495696911896 50.5433
45.0332134761699 1.78791
55.0548894290941 0.687811
56.049988079715 3.3016
57.0585397778326 8.96354
58.0654256570631 4.54997
67.0543614289873 0.91242
69.0704653175312 63.9268
73.0660127399432 0.708212
86.0967765506327 100.0
86.1804745957439 0.501433

>collision 40.0
30.0340923084649 3.54803
39.0236645637497 17.757
40.0305511583496 0.653193
41.0392787813023 90.618
42.0345688358531 19.6576
43.0181514350873 4.09164
43.0421354979603 4.39437
44.0497568898479 100.0
44.3050174515083 0.513668
44.9973127884586 1.88607
45.0337002090668 19.6141
53.0399476981942 1.29874
55.0537317482066 5.86667
56.0501867492339 70.8302
57.0581070764756 50.2047
58.0649310147486 4.35523
59.0483225589688 1.31314
65.0377169044387 0.596539
67.0551096145922 0.883246
69.0704682236507 4.18623
70.0651846302776 6.87551
71.0758994550376 0.646551
83.93761197512 0.553159
86.0971182356024 4.16843

