>compound Selegiline
>formula C13H17N
>parentmass 188.143305204054
>charge 1

>ms1peaks
70.065873145677 1.29919
91.0543736086596 6.36402
119.085469537 5.0197
188.143536550689 100.0
188.312351764085 4.95115

>collision 10.0
65.039427674642 0.798603
70.0658627929001 16.3394
70.1704303785492 0.536195
91.054575968884 100.0
91.1712946716802 3.67772
119.085495570706 60.4752
119.221503184015 2.19666
188.143305204054 81.5601
188.312022960769 2.19065

>collision 20.0
65.0388284629666 0.9691
70.0657936575319 4.86388
91.0546981668003 100.0
91.1716306773208 4.61555
119.085386943169 5.82448
188.143448315884 0.557128

>collision 40.0
39.0237910684359 1.52969
41.0394596583275 1.34671
63.0236075219317 0.591364
65.0393112528583 14.3847
91.0546490895518 100.0
91.1714144286932 3.99761

