>compound N-Desmethylselegiline
>formula C12H15N
>parentmass 174.12701142054
>charge 1

>ms1peaks
56.0511413497384 0.907516
91.0548024731495 8.77363
119.085391571003 9.62943
174.126949703861 100.0
174.287933624792 1.31729

>collision 10.0
56.0503369917076 5.98561
91.0549156613005 100.0
91.1761270645511 1.67479
119.085601140425 50.7829
174.12701142054 19.7594

>collision 20.0
56.0509414879144 1.89891
65.0401268477619 0.938103
91.0553127729074 100.0
91.1761713591728 2.98605
119.085945757782 2.30054

>collision 40.0
39.0240112425729 1.95851
41.0397805807974 2.07309
51.0237252827001 0.581607
63.0234163126308 0.818522
65.0392718012513 21.1514
77.0396132699455 0.644649
91.0545502520173 100.0
91.1758321333554 2.43247

