>compound trans-Dehydroandrosterone
>formula C19H28O2
>parentmass 289.217408085958
>charge 1

>ms1peaks
210.974135819005 3.96907
231.1700456538 3.31379
253.19286416157 31.7394
271.20460532009 84.695
271.659557629095 3.30179
288.219026726623 8.50414
288.281037810831 3.9881
289.101539202634 4.91638
289.21762828166 100.0

>collision 10.0
38.9667346516777 5.37973
107.082015273562 5.07912
109.100788629449 7.27041
135.116835364882 6.0975
141.063278239553 10.067
143.081326208267 9.60401
145.101063256584 7.36428
147.117970424046 8.79722
169.093037193131 4.54415
171.122845691429 5.75029
173.131566335836 16.7895
185.132023977561 6.45496
197.128413095025 11.6457
211.147821765078 9.74784
213.162716699847 25.7219
225.164146588555 6.86312
229.214177994237 15.8639
231.170244491498 6.41977
253.193292363498 95.1341
254.395237276295 4.18843
271.206713050735 100.0
289.217408085958 13.3

>collision 20.0
69.0687479700893 13.1474
81.0716897587683 35.9127
83.0852442591434 14.3193
93.069547873795 23.3021
95.0835779050224 13.7163
97.0630178478383 10.5899
97.1019343729022 12.4113
99.079601183167 6.72623
101.003792006078 10.811
105.069433570782 10.883
109.098947618424 13.3881
119.084905492577 8.51713
121.095715557239 6.36432
125.098794403224 7.84366
126.04432587563 8.78611
130.082478618669 7.11708
133.101123504348 27.0405
135.069217707619 6.12791
135.118076145652 11.966
143.081873412987 10.4281
145.103311707185 28.827
147.112705652332 6.78598
157.099871379186 58.5164
159.11429791751 41.5585
161.095973753225 7.31048
169.097462188916 16.1326
171.114587117522 34.9739
173.132036169272 8.81069
185.13494238631 12.7311
187.142620319157 6.68981
197.133409330377 50.7107
198.058398740741 6.28966
198.139844211414 8.51686
209.161845348012 8.30534
211.141875347442 20.0075
212.1536574581 6.18092
213.163436404324 94.0932
215.14282090266 13.3259
225.159688228569 9.65534
229.224023789205 7.7672
231.22795722136 7.49292
253.192835387544 100.0

>collision 40.0
43.0166504563207 31.7248
53.0404500586265 20.3069
55.0549855522801 39.9932
57.0672769587258 37.0399
59.0492605903825 25.9397
67.0554960721083 51.0172
79.0524138947336 42.5132
81.068721017657 86.762
91.0538498045797 100.0
93.0714256237976 28.6461
105.071431236811 96.1783
107.084399731432 15.7128
117.070349946431 32.5489
119.082590082344 56.5743
128.060771306815 16.2534
129.066991250463 88.0102
131.089838533001 17.5104
134.108314455913 17.3495
141.07463835042 23.6614
143.085086228557 51.6487
154.0783309558 23.3766
155.080232681829 40.8795
157.097308367653 68.5172
159.120212533263 40.0913
169.100250310703 32.7126
170.10741759903 37.8322
171.120107914427 49.7834
183.114532922659 32.5233
197.129234622825 45.2067
223.151497314109 47.3554

