>compound 20-hydroxycholesterol
>formula C27H46O2
>parentmass 425.339487357497
>charge 1

>ms1peaks
25.013487952656 1.16134
78.2032928260417 1.04177
259.246638169435 0.728695
288.930190266206 1.23052
289.14255980434 0.598988
357.146720706462 0.790017
383.253138668755 0.635061
384.258102482635 2.26126
384.347338368536 0.702582
424.781833411454 1.24356
425.339479950546 100.0
425.746501129234 0.729809
426.148898521915 0.839494
455.14889852191 1.0e-13

>collision 10.0
45.0356338585486 1.48949
57.0713810910415 1.08464
74.0976243826639 1.8958
239.150101774771 1.34681
249.149828260529 0.924301
306.859219900633 1.40321
313.270416245906 2.00878
352.195258719561 1.1771
365.267282998267 1.01975
384.256142339917 1.4281
385.219262786486 1.54059
424.326998039732 2.04464
425.339487357497 100.0
425.90328848031 1.61059
454.90328848031 1.0e-13

>collision 20.0
71.0511073374239 17.6856
90.9805856189565 6.7302
113.095147686408 6.78924
121.62406908502 6.30442
161.015333396913 8.38187
170.979616883681 6.58329
215.088258110531 14.3862
224.134522889674 14.7772
424.494700658132 8.71121
425.162035997667 15.9883
425.296622851082 100.0
454.29662285108 1.0e-13

>collision 40.0
43.0194985103056 49.2528
45.0364620170689 100.0
74.0977952125073 47.309
97.9702949404718 37.9568
126.955814103871 47.6324
147.567403640594 45.1914
154.944190378273 47.0362
170.980313865284 55.3186
190.960967161575 40.5003
210.892475993104 57.2091
425.271935897655 41.2333
454.27193589765 1.0e-13

