>compound benzylazanium
>formula C7H9N
>parentmass 108.080626684604
>charge 1

>ms1peaks
91.0545100131939 100.0
91.1195065286266 3.0286
91.1428773832385 4.67707
91.1698626941152 1.91736
91.2149815694197 0.512009
91.2581342276436 0.612856
108.080626684604 72.4784
108.176347407758 3.0153
108.206708276025 1.1272

>collision 10.0
65.0395474409538 2.07488
91.0547000457747 100.0
91.118874398544 3.67582
91.1423775715448 5.24258
91.171009669556 2.27059
91.2145025642075 0.822547
91.2360798778581 0.775089
91.2575530557074 0.933431
108.080817668358 1.0197

>collision 20.0
39.0234617811304 0.91996
41.0391278283333 1.16897
63.0237902417588 0.765504
65.0393168440478 23.8856
65.1137523955565 0.644222
91.054549715156 100.0
91.1193243507428 3.27148
91.1426064004483 4.96591
91.170422494468 2.08446
91.2146833044927 0.656701
91.2362497750426 0.607492
91.2578682622006 0.757629

>collision 40.0
39.0236220497882 45.6665
39.0818314776568 0.670558
41.0392160378589 11.9524
50.0154389890507 2.06448
51.023402535149 13.4248
62.0160949961295 4.14538
63.023920507112 17.2688
65.0393378686903 100.0
65.1138025449256 2.83472
65.1364338805116 0.83813
89.0388939748352 0.781818
91.0549029391469 25.8476

