>compound Caldine
>formula C6H17N3
>parentmass 132.14952581896
>charge 1

>ms1peaks
58.0664403111975 1.45937
75.0927294718671 0.617595
98.0972286860175 2.50949
115.123611430203 5.85792
132.150280778845 100.0
132.253313751184 6.02009
132.299858882668 2.69897
132.366242308871 1.2512
132.39380781562 1.53884
132.447838429781 0.81841
132.533535462307 0.662618

>collision 10.0
44.0502542764653 4.8466
58.0659990062586 43.7048
58.1365734088947 1.44462
70.0662581490395 4.65496
75.0928370200759 9.21546
98.0967016371304 66.9031
98.1881171858818 2.70704
98.2166830198366 1.04243
115.122896979167 67.5282
115.222043114428 2.61688
115.252674135353 1.0656
132.14952581896 100.0
132.254868431356 4.96113
132.289128822211 1.78684
132.320964082387 0.795649
132.367296358806 0.547415
132.394382078045 0.788499

>collision 20.0
30.0344501077219 1.69362
41.0393922111306 4.20172
42.0345404884247 3.03264
44.04998674854 24.0037
58.0660627603994 100.0
58.1363997207401 4.08773
58.1583763397796 1.5816
70.0659456586912 41.9934
70.1432552615771 1.10639
75.0925103403517 2.87541
98.0966620534806 97.9098
98.1880921763954 3.98427
98.216614847903 1.53106
115.123403497815 12.0856
132.149761561902 2.50694

>collision 40.0
30.0343724270818 9.10929
39.0236930054168 5.42426
41.0393790821738 47.7496
42.0346819803601 64.2288
42.094414317952 0.703276
43.0429792689676 12.4398
44.0502953473403 100.0
44.1112132361116 1.55287
54.0345161520648 0.526925
55.0427841657634 0.914019
56.0504722813541 2.25225
58.0664736239251 99.008
58.1364216524353 1.36675
68.0502382148978 0.68699
70.0662648531171 72.2194
70.1430219479223 0.792106
98.097027618288 4.82224

