>compound Hexylglutathione
>formula C16H29N3O6S
>parentmass 392.184615060019
>charge 1

>ms1peaks
160.117200783073 0.773786
162.022023787211 0.649565
246.114853981518 4.78631
263.14298995487 4.74558
392.184481092827 100.0

>collision 10.0
116.015271588942 1.30327
130.04942489254 1.8968
144.010835927326 1.76487
160.114641631921 19.4192
162.021414864895 10.978
246.114807943935 68.7489
263.141846412451 35.1494
317.152157434682 4.92837
329.152574475596 1.55242
374.173721116874 1.19098
375.151039913028 0.655332
392.184615060019 100.0

>collision 20.0
43.0547995489795 2.32225
58.9965964615175 0.736287
76.0246861040418 0.873839
83.0751263660164 0.533376
84.0446742371086 3.41223
85.1029977751137 1.52076
86.9907202880418 1.0476
99.056535279085 0.592529
105.000618276761 0.508583
112.03932902397 1.10823
116.016092582031 9.66264
129.064241691505 2.68619
130.049490199883 8.12857
143.086696331989 1.45599
144.010887125358 12.4345
145.059763626107 0.900484
149.02407827252 0.676458
160.115369287569 47.1488
162.021085421291 54.5733
189.094360320826 1.58917
246.115366563775 100.0
263.140744783323 7.58355
299.141718107215 1.55973
317.151538136326 7.69347
329.153632217607 1.38818
374.171393179577 0.870304
375.160533277124 0.54931
392.180813428856 2.77049

>collision 40.0
30.0335728052531 0.553026
41.0385965718062 4.32395
43.0547598926723 43.2421
44.0508924617933 2.91487
55.018231828058 2.22859
55.0551059219187 4.68441
56.0498170174027 1.25452
57.0701503303229 11.1483
58.028918946281 1.23538
58.9951350855374 15.2372
61.0127309820218 1.74838
67.0538931706854 0.939631
73.0118011544995 4.70345
74.006826442303 5.1438
75.013878381134 0.512043
76.0235097076805 21.2845
81.0717519953667 3.4036
83.0842972259718 5.45165
84.0448418458513 46.4529
85.101747776927 3.92412
86.9903508115957 13.1385
87.0255088833697 2.79124
88.0218424148719 7.32812
99.0580528517036 1.35602
100.111967976046 3.37841
102.053474901364 1.16031
105.001489155399 1.83351
107.061147730029 0.581852
112.040399278467 1.97705
115.055493787879 2.78988
116.016108502266 100.0
129.065819538134 5.8182
130.049878807577 8.55208
143.088126728003 19.0816
144.010662293468 22.4481
145.101085815844 0.582924
149.022757247428 1.01789
153.064374167455 1.75494
154.046285473981 0.564482
160.114961408434 49.8585
162.020853252606 25.9127
189.092990185066 0.612448
199.074294077438 0.524581
211.070526035428 0.566967
225.139023699032 0.629696
246.112946650319 1.43759
271.144543375979 1.02632

