>compound N8-Acetylspermidine
>formula C9H21N3O
>parentmass 188.175481816056
>charge 1

>ms1peaks
114.089500709764 0.737022
171.148051365381 1.03111
188.175349055496 100.0

>collision 10.0
58.0666034127936 2.87012
72.0451085049398 0.673253
72.081480801716 1.83064
84.0829712981697 1.23052
100.074481988598 1.05542
112.111647924608 1.71977
114.091038105279 9.64734
131.117934026831 2.45557
143.118524776028 0.887547
170.163667688965 0.706963
171.149017383107 24.5271
188.175481816056 100.0

>collision 20.0
30.0341209248623 6.17345
42.033206773146 0.873907
55.0566705035028 2.07606
58.0660186939976 52.2611
60.0458840233128 3.79941
70.065577427597 2.58456
71.0686961715694 0.882338
72.0453790481627 25.4453
72.0813662926737 30.3276
75.091366998558 1.5583
84.0817137747697 28.6183
92.0603634512732 0.700017
98.102782358952 0.541575
100.07566790429 0.974977
100.953139241441 0.548845
101.956397696323 0.67586
103.002497214484 0.52297
106.004087672581 0.922555
112.112388015477 43.8547
113.115446504517 0.508313
114.090960787481 100.0
129.141345668823 1.39498
131.117502427679 7.59097
143.116884835645 6.17572
157.13304437802 0.887237
170.163142087314 0.871901
171.148888259785 56.4208
188.17464792749 12.517

>collision 40.0
30.0343636990644 11.9759
39.0203866270586 0.877735
41.0399807595245 6.46719
42.0347704425874 11.6833
43.0178195682373 12.93
43.0445342485302 3.7281
55.0556134184507 25.9299
56.0505032800556 3.63831
58.066098569487 61.8817
58.9449427016139 0.658873
59.9291009990944 0.563663
60.0446418088474 12.6384
64.9771664720817 1.17399
70.0662050242632 12.3386
72.0459741100503 2.14682
72.0812337564249 68.397
82.0661558870456 2.17174
84.0810685804859 100.0
92.0561879919024 0.770562
110.093899245176 1.38543
112.110906414162 6.49154
114.091247244474 4.61605

