>compound Atropine
>formula C17H23NO3
>parentmass 290.174495869971
>charge 1

>ms1peaks
290.172004884592 100.0
290.324477345919 3.79612
290.381749802215 1.76909
290.453806284437 0.664175
290.494233119928 0.643817
290.533863687538 0.690083
290.597107215427 0.547592
290.659834246783 0.525108

>collision 10.0
93.070524203751 0.556632
124.112301196712 3.48888
290.174495869971 100.0
290.323513423198 3.98449
290.383675643608 1.74543
290.492864275298 0.712771
290.535445454227 0.778621
290.600100319765 0.594289
290.658428185738 0.576477
290.694876296609 0.565363
290.752669902876 0.547582

>collision 20.0
32.0500677871332 0.535524
91.0546543657024 0.825586
93.0708937589557 8.46474
124.113009793572 44.9542
124.213289932639 1.21237
124.246517863446 0.504703
125.120255664946 0.759964
260.164782591886 1.08423
290.175960541144 100.0
290.326997243207 3.35209
290.381959376536 1.43443
290.495081740367 0.60765
290.535922300455 0.659392
290.593553282279 0.525919
290.685559048309 0.561014

>collision 40.0
32.0496393761668 3.28577
41.0394533067989 1.26889
42.0345768953092 1.20408
44.0500914225124 3.72997
51.0233973392077 0.576939
55.0544089581095 1.0627
56.0499232652525 1.15245
57.0580748570363 1.8694
58.0653894493232 1.35463
65.0388222584044 1.31646
67.0545770304232 23.8158
68.0496611817774 3.88764
70.065361258335 4.57574
77.0387467895431 22.5583
79.0542297169951 3.31445
82.0650487715051 7.87681
83.073204037002 5.24809
91.0540894384178 33.8105
91.1421173484046 0.655113
93.0697984238816 100.0
93.1587845015753 2.66996
93.1844114062463 1.13802
93.2128633598164 0.506802
94.0651127165822 1.10191
95.0839828932779 8.17117
96.080445013296 5.51117
97.088274484772 0.522958
98.0962052697017 3.1444
103.053667650993 11.1448
107.08279298474 0.538527
108.079985047196 0.936721
109.087776334041 1.60982
121.063900810102 5.72402
122.095456262944 0.850691
124.111331371255 79.507
124.212944298317 1.98012
124.243751917699 0.862683
125.118195161548 1.00297
140.105872429812 1.83257
142.121607515168 6.89052

