>compound 4-Nitroquinoline-1-oxide
>formula C9H6N2O3
>parentmass 191.044824738955
>charge 1

>ms1peaks
107.964250143767 5.61876
145.049887298659 1.86111
161.047204235443 1.59679
162.40652074314 1.39337
190.07274576357 1.89502
191.045354931157 100.0

>collision 10.0
128.047306437483 2.89948
144.042321316845 3.05402
145.053352916139 25.4179
161.047504377476 20.6463
190.693263084479 1.82835
191.044824738955 100.0
191.662219609505 2.26209

>collision 20.0
59.0510205891953 4.24068
77.0377032661655 9.82863
90.0464500497948 4.00785
91.052861238368 4.09832
102.034104005567 1.84512
103.962915237441 2.01417
105.96280790507 3.0421
116.051341152211 10.044
116.800256004419 2.81738
128.049268652585 6.16574
133.052552872276 6.01247
144.04563951759 2.51534
145.05223737338 100.0
161.045507351095 5.08133
191.039657311277 3.83719

>collision 40.0
51.0204772574436 8.27522
75.0251450554283 11.1008
77.0378289570697 14.9489
90.0476147837674 10.0724
101.038732690184 100.0
104.048262572032 5.62343
116.049528014921 4.53612
128.050088913646 82.4181
145.05051377308 5.4792

