>compound Quinacrine
>formula C23H30ClN3O
>parentmass 400.21488520539
>charge 1

>ms1peaks
142.159030455598 1.8857
244.050664029134 0.863728
327.126434322925 1.04904
400.214164708123 100.0

>collision 10.0
74.096832909268 1.75767
84.0808605846586 1.10655
86.0966822070397 0.731309
142.158616184541 13.9346
157.17039915157 1.26308
244.051759483234 6.08725
259.06369571477 0.806385
327.125147551635 8.40746
400.21488520539 100.0
400.395035362523 0.587726

>collision 20.0
41.0390013188668 1.0526
69.0712426938333 2.57638
74.0972647592454 8.21391
84.0807146797758 3.87395
86.0970485745302 8.5547
98.0966883420766 0.552655
140.14233397772 1.47636
142.158538781211 100.0
157.169748172849 1.77202
244.05164970747 33.6102
259.063638771813 5.30525
327.125308078606 60.2145
400.213947841329 41.4742

>collision 40.0
41.0385979544352 15.2328
43.0557384858621 0.618702
44.0487135399069 0.53686
56.0494004124245 0.620334
58.0661302999401 4.7674
67.0558512326805 0.639784
69.0706932915834 37.707
72.0814426929083 2.96292
74.0970130088942 14.191
84.0809076342175 1.92962
86.0969810069409 100.0
98.096832862243 9.38143
99.1037448754527 0.557692
100.112943956063 1.67357
112.111843203458 3.2058
114.126259931699 1.24417
140.143506634661 1.30089
142.158934539691 99.2105
201.032651544183 3.57474
215.0455109002 0.694873
216.044427686368 14.9473
227.033703704782 0.588077
229.034080418528 3.26036
235.084033315061 0.54875
236.093819504456 1.02046
240.045540119056 4.65214
244.049501722155 33.6757
253.048694712666 0.728274
257.050265576898 3.6675
258.057894446677 0.811872
259.063431745675 36.0382
269.049290622329 1.06239
270.056951287672 1.00594
271.063101152538 11.5138
284.071563788419 0.708641
285.079427627552 1.17541
297.074840809901 0.514054
327.125539172601 37.1442

