>compound Chimyl alcohol
>formula C19H40O3
>parentmass 317.305003744609
>charge 1

>ms1peaks
57.0361678890928 4.20738
75.0425923443437 16.2262
93.0545048674148 21.3135
161.022142746294 2.93614
234.996955766954 19.9741
298.241341286189 4.36413
317.138623114369 3.63731
317.305785577472 100.0

>collision 10.0
36.8875403490508 10.7952
45.032026261653 15.5637
47.0478907736162 11.5282
57.0356567515261 54.3505
57.0695024183072 31.7897
71.0847651671027 39.7239
75.0450260174837 66.2229
77.0591872720995 22.1846
93.0558620711399 100.0
99.117540609425 18.6941
193.975047041384 17.7201
223.171206092629 14.8065
234.995593165747 21.3995
317.305003744609 15.8701

>collision 20.0
29.0011131307141 14.5593
45.0358675595908 25.0957
57.0337380082028 96.1567
57.0700874222191 15.4932
71.0888442662162 44.2902
75.045072089822 100.0
85.1008809522321 30.9125
87.0385888621273 9.70115
93.0549292579133 28.782
95.530044961726 8.81441
99.9876865272033 31.2346
149.023837024737 12.4654
193.966899832451 25.1388
258.00533393007 8.45988
317.114551118876 11.1633

>collision 40.0
29.0395744440724 16.1698
43.052700709953 24.2857
57.033448284614 100.0
57.0695398882396 89.0872
75.0440438921979 15.3528
83.0843245902026 13.2286
99.9878337383425 13.6211

