>compound Niacin (Nicotinic acid)
>formula C6H5NO2
>parentmass 124.039274793923
>charge 1

>ms1peaks
124.039294910952 100.0
124.141864206987 0.747198

>collision 10.0
78.0343771694325 6.22805
80.0501463747215 6.33083
106.028783672961 2.1724
122.023129577487 0.572692
124.039274793923 100.0
124.142170182995 0.69625

>collision 20.0
42.0333819629236 0.608732
44.9977315500862 0.698157
51.0229246151711 0.989684
52.0284952892238 0.632448
53.0391493498788 17.3465
78.0344801849074 93.0192
79.041867922581 2.36227
80.0499926578474 100.0
94.0301402996448 0.634323
96.0424863786177 0.681211
106.028887767725 8.21369
122.024157691052 2.65566
124.03913987379 92.9682

>collision 40.0
27.0231949212849 1.60109
39.0230345145577 0.720732
41.0399045501133 0.546657
42.0326888338245 0.896642
44.9972509944902 2.53892
50.0158257407337 2.52694
51.0229992502737 30.0182
52.0244275354913 36.765
53.0019749097793 0.554049
53.038873054211 91.1127
78.0344858469832 100.0
79.0423518749072 24.5308
80.0499292512496 57.7475
94.028484413748 0.86891
122.022133533013 0.681188
124.037395749748 1.70901

