>compound N-Acetylneuraminic Acid
>formula C11H19NO9
>parentmass 310.112262927753
>charge 1

>ms1peaks
231.000593718151 5.11385
232.085586234466 3.80546
274.092907904683 32.7576
292.101037352844 31.511
302.674581899159 2.64906
309.182453390871 3.10123
310.112262927753 100.0
310.22632506645 5.17345

>collision 10.0
52.9685211371623 3.49489
60.0441625699886 5.29518
70.0303619215732 4.07072
81.029744246739 4.06859
94.0700121794154 3.39349
108.044069308973 4.13966
116.032767873721 5.44343
121.029040259163 3.73714
126.059381839619 3.9583
154.048378366257 5.27854
166.046698341079 3.87949
167.031171851296 11.7839
179.03417650897 12.5651
185.046608122824 7.58567
194.073822807341 3.87663
197.042761016615 5.03004
232.083072595652 7.01874
274.092596699244 100.0
274.82184368885 5.99272
292.105846450324 37.8365
310.119907912288 5.99123

>collision 20.0
44.010550888743 15.0267
60.918191784914 16.8904
73.027308375191 44.8348
95.0503792136618 28.5694
103.039006900111 46.9328
103.952440041082 15.7635
110.059913563575 18.8556
112.039681447056 23.2586
113.551246173461 16.2406
121.025737336909 65.4205
123.043488171887 16.9114
126.053896166405 15.4173
136.04034917825 22.1035
138.058884677431 30.6153
150.053514770058 38.763
151.035832717684 56.4633
154.045732111753 14.8457
167.032484463859 72.9783
170.036526119588 28.617
178.050607204807 45.8465
179.030907276138 42.2854
196.059563105073 21.2847
197.045201457182 100.0
231.852243970039 26.6117
250.093604000621 27.9268
256.085193185321 26.4624
274.092288961687 19.4317
274.451047623322 17.301

>collision 40.0
44.0494358287145 34.3939
55.0455279063589 11.2641
57.0348152409091 20.923
60.0479980707977 25.3041
65.0409255680948 22.4986
67.0573401857933 13.674
73.027676135752 23.8826
84.0455118053775 15.2695
92.0475012538225 16.7058
94.0627303299245 20.0408
98.059154787867 18.1267
102.050882635897 18.826
104.047582023836 20.3342
110.020099928384 14.2668
112.041049031822 20.0508
120.041124436452 20.4981
121.027436258394 100.0
122.031384600756 13.9254
122.061164216808 16.9911
123.039292079595 11.581
138.06151793915 21.198
139.037974184748 12.1114
150.054544761197 24.2261

