>compound 3-(2-(methylamino)ethyl)-1H-indol-5-ol
>formula C11H14N2O
>parentmass 191.116935933456
>charge 1

>ms1peaks
148.075009965888 3.1739
150.983070733059 1.95264
151.486739392891 1.53148
151.985354694624 1.98462
160.075162871582 20.0325
189.992256761772 0.772833
190.133575197087 0.778539
190.513758535065 1.12418
190.990267748489 2.92401
191.116935933456 100.0
191.287881468457 0.762045

>collision 10.0
44.0512635964137 2.77451
111.976089404254 1.0636
115.052922814625 0.87894
132.08206351259 0.983959
134.058838732009 0.567065
148.075804112679 19.4253
151.48516273064 0.560728
151.994356903048 0.956464
160.075005922527 100.0
160.229398840725 1.08937
191.118217015462 5.69564

>collision 20.0
44.0513455752058 6.12148
67.0432616255681 0.865817
103.054297886302 1.527
105.070431633169 2.76095
115.055233396895 5.48969
117.058780960638 3.05197
118.064752305346 0.526737
120.079216782706 0.930206
130.06551122109 0.776545
131.049606132674 0.84891
132.08070847097 9.97268
133.060204173848 2.21521
134.061714401773 0.833917
142.065024287013 2.30518
143.071665212436 1.08169
148.075705207611 16.998
159.068575105635 1.72385
160.075646813299 100.0
160.230781296621 1.12586

>collision 40.0
39.0255417329073 2.08238
41.0400283198627 1.24346
42.033841402493 1.48843
44.0125246329553 0.523703
44.0503516415244 29.4161
51.0237657560301 1.90363
53.0413940972702 0.54498
54.0333763240375 2.1731
55.018449620165 1.38598
63.023173008456 1.27997
65.0390920405401 6.33061
66.0343414315939 0.752675
67.0426098628888 9.13047
72.937352906816 0.577672
77.0393385122874 37.4251
78.0463064492791 2.10958
79.0543688781156 20.0426
80.0160645323974 0.629816
85.0098838285193 0.595434
89.038505025754 10.1514
90.0456403149827 7.46688
91.0554474355882 9.83561
92.0526565351381 0.517665
93.0606143749274 1.45674
94.0435933038274 5.06521
102.044103338531 1.41061
103.054067218229 25.3997
104.050612160449 11.2848
105.06858325201 24.3005
106.065768149108 1.12586
107.050346045798 3.90136
113.037911699249 1.21442
114.047592764175 1.18593
115.054106877495 100.0
115.187937074614 1.05287
116.050796554108 10.9706
117.05787960649 55.3361
118.064144890173 3.25764
119.040471085318 0.517667
120.080077941949 1.9538
121.061807492036 0.520522
128.049188789803 0.535323
130.065277595025 28.251
131.060785720149 6.98814
132.07953560097 15.3423
133.052842803811 32.6256
134.05993713627 1.58432
140.048123811845 2.91857
141.057251838253 5.47553
142.064964207514 10.565
143.07246536498 14.2756
144.044394224086 3.17621
145.051050084685 1.84429
146.060590573335 4.6733
147.065234724061 0.617545
148.077604005057 1.66443
158.061395610065 3.12222
159.067603021899 25.8028
160.073934399082 10.2523

