>compound 4-(1-hydroxy-2-(methylamino)ethyl)phenol
>formula C9H13NO2
>parentmass 168.10122491861
>charge 1

>ms1peaks
90.0063200067944 1.94449
91.0536845176272 0.873284
119.048269271793 0.603406
121.501566845118 1.66384
129.012731200874 25.671
129.157331989675 0.524766
129.512444918937 1.03467
135.067361418172 0.914517
150.090963304866 100.0
150.244592775409 2.04935
167.486475518137 0.628971
168.019725135549 36.9482
168.10122491861 76.3381
168.182698225653 0.928646
168.261012830083 1.37954
168.51999482779 1.52404

>collision 10.0
32.0496904123339 0.753157
82.4950047349936 1.39126
90.0063723608806 8.65809
91.0549497092321 4.56954
107.049312699029 0.903398
109.065200213592 1.02449
119.049144341835 3.61647
121.064895097506 1.94102
121.501128411729 7.09465
129.013081938084 13.3754
132.080089049425 0.565934
135.06790380268 5.05441
150.091326375137 100.0
150.244594698163 2.74481

>collision 20.0
32.0501926024243 4.54631
42.0350428408267 13.0367
44.0508875531782 1.36914
55.0187114026913 0.676272
56.0500037421818 1.83658
57.0588061114374 6.4083
62.9908525375827 0.725506
65.039581582514 1.04968
74.4794478689618 0.740634
74.9830143170175 2.35509
77.0400289264136 5.94824
79.0548439731529 2.141
80.0501949650002 0.864669
81.070502283321 3.5919
81.9906981463302 5.45095
82.4952653056394 32.0705
82.6102831806783 0.682065
82.9962767289973 2.00043
90.0069732549212 51.1034
90.1249471062888 0.882814
90.5093476293477 1.88059
91.0553308006299 87.7671
91.1761246947491 1.32421
93.0696642504144 6.00612
94.0432975646668 1.16493
103.055846792423 3.95168
105.069571556474 2.18476
106.065997968111 1.47558
107.049401401702 29.2224
108.05762295959 3.49892
109.06542681766 16.1225
117.058119346321 8.20001
118.062254182042 5.6553
119.049574959212 29.4129
120.046805092844 2.91668
121.065586456053 19.4566
121.501799758881 1.91421
122.095855814826 0.946425
132.080532267636 4.91178
133.086515311064 1.29395
134.059910501208 10.6356
135.067846835976 96.1802
135.210557347374 1.29715
148.075179818605 0.676647
149.082767209794 1.46184
150.091538436173 100.0
150.24458599164 1.41513

>collision 40.0
39.0241118984389 2.02655
41.0390718804668 1.75062
42.0348094668314 18.8776
42.984235339241 0.707067
43.0194678099081 0.546316
44.0505712292313 2.08276
44.980577742767 0.654813
46.9963320754209 1.8106
51.0234061773496 5.87054
53.0398965491956 1.61774
55.018714106294 4.91672
56.0499306589598 5.03034
57.0577139826009 4.54702
62.9904067144525 4.74701
65.0391293913538 22.2814
66.046250782953 1.36444
66.9673187828659 1.86986
67.0445848104048 1.00221
73.9751923370874 3.83578
74.478895815157 10.0167
74.9828679811438 3.65999
77.0389277589554 75.3431
78.0408873652765 1.2766
79.0545919188748 20.1898
80.0542925136168 3.78188
81.0521826100985 1.13166
81.9905771548089 10.6715
82.4947551761018 4.79765
84.95978969893 1.68762
86.9735549248727 0.782193
89.0386246166222 4.56997
90.0465487589886 7.08427
91.0544437403646 44.7943
91.17582692877 0.500126
92.0498445034087 5.63915
93.0455258417318 1.08138
94.0412091141464 6.07234
101.998727812213 2.02477
102.044504668895 0.549239
102.969913683617 2.04512
103.053905206489 4.05979
104.061389369391 1.08332
106.064793691312 9.83983
107.048691629093 100.0
107.175610694113 1.71826
108.056875249353 6.12681
109.064547643633 0.76378
116.049202872028 4.18994
117.057052143551 5.0893
118.063543947604 7.8089
119.048177001731 1.42084
120.044852523272 11.2428
130.06359113891 0.737932
132.079287824865 1.11498
133.051552490909 1.18817
134.059246753918 22.4457
135.067246710672 9.28417

