>compound Doxepin
>formula C19H21NO
>parentmass 280.169879123057
>charge 1

>ms1peaks
65.0378077668821 0.847447
91.0611221572419 0.63195
107.047710303631 0.972053
111.198070929833 0.931876
149.019699899693 0.646332
179.08756127771 0.962168
207.086738191025 0.79343
235.115235398954 0.928005
279.159938090196 2.5845
279.19894001465 0.628185
280.16924104503 100.0
280.243176725771 2.55708
280.298610445411 0.658065
280.825218131568 0.764726

>collision 10.0
58.0642248003178 1.87264
107.05139506136 4.56324
117.072597440761 0.943758
119.046657488708 2.0301
129.078610329104 1.54701
141.070069981039 1.11937
149.0212771341 2.19479
179.087446086506 1.0544
207.109375173618 1.888
217.097452465307 1.12574
220.08402012813 0.899625
235.1103955746 5.91951
243.11731861033 0.619361
280.169879123057 100.0
280.267885601338 1.53178
280.300924801339 0.678655
280.324005044328 1.14628
280.731671479839 1.08855
281.04720321133 0.711739

>collision 20.0
58.0658293979041 26.2731
58.0795852023985 2.31643
63.0208603664152 2.32645
66.0405412702291 2.59578
71.074916238698 2.75618
79.0511142051753 1.73603
84.0815706528441 24.9946
91.054512574209 10.9144
107.048451762945 80.8071
107.067609389422 5.07893
115.051181407261 3.27676
117.068721176139 20.5211
129.068715534943 3.28042
131.045487093967 3.37596
141.072508410857 2.37129
142.076424824661 15.3447
143.07860026851 4.088
149.021337393517 5.75569
157.064454983458 4.49279
165.07013368407 3.48699
167.082847218127 2.0357
179.080520337275 2.72657
192.094187756276 5.56924
194.075687329855 5.75077
202.08042204512 5.78192
207.078625834292 3.10936
207.115182061087 6.28814
217.100636193645 5.4174
220.087789586816 5.7824
235.111000581042 38.7107
235.146936932552 1.96988
280.099318222248 5.07163
280.13566096419 1.9295
280.16784434654 100.0
280.219414458986 4.48229
280.31899754108 2.0671
280.951415329344 2.10976

>collision 40.0
42.034421972354 7.93122
43.019536723607 4.1873
53.0391044887765 5.18145
57.0635719052623 5.82502
58.0667926532683 63.0249
77.0387201563609 37.4315
79.0538326958788 23.5809
84.0819288879035 30.0111
91.0569450693146 51.6174
107.049561075073 100.0
107.066924863111 5.42749
115.054485477034 32.917
115.08229188112 3.88871
117.068934003278 28.306
117.088145795671 3.87987
127.052308093422 8.74394
129.074608256496 3.71951
131.045333320217 11.6889
141.068136132923 19.2783
141.086661798193 4.19869
142.079387552742 4.83623
152.460569443003 5.29792
156.080576321143 5.46307
165.071845640691 19.0029
167.083096272805 13.6661
178.074993325436 23.3092
179.08303587107 10.2496
190.06995742995 5.81733
191.077824788617 7.28551
192.098001654959 17.5206
193.061354253794 8.76062
194.071307374578 21.6822
194.095360225798 3.89141
202.077419497394 32.3115
205.046461720701 4.54767
205.065151610208 7.88541
207.08683817899 4.24846
215.082664769621 8.73993
217.098837330395 3.98902
219.080846151068 4.59109
220.085681411874 9.0103
234.107037836083 7.94441

