>compound Folic acid
>formula C19H19N7O6
>parentmass 442.146671672713
>charge 1

>ms1peaks
120.046461912756 0.682694
295.093446354445 46.8647
313.10203680471 2.01019
441.271170745932 1.65802
441.775130662614 0.666977
442.145665180087 100.0
442.526687870184 0.524692
443.138257733322 0.778981

>collision 10.0
120.044677930252 1.08105
171.150853159606 0.525273
176.056870455584 1.78748
295.09368949617 100.0
296.09166170533 0.679491
313.103482849745 2.65684
441.295225939686 0.513269
442.146671672713 10.5044
442.262219013272 0.702002

>collision 20.0
108.056355515156 0.623909
120.045476578735 3.79894
176.05616860466 2.95966
295.093260051044 100.0
296.100499308395 0.772682

>collision 40.0
79.0306620946271 0.868586
81.0432735051354 4.60976
92.0517723007175 3.87497
106.039743399896 4.4176
107.024520573348 0.576883
108.055976034526 11.2125
112.074692340377 1.32523
120.044069484803 63.7192
133.051595251364 1.71425
134.035165375558 2.51803
148.061869452734 1.94957
164.915111955381 0.819529
176.055960559621 100.0
176.763962051009 0.52795
177.360181253663 0.542789
222.073447377182 1.42079
240.08311124895 0.576766
250.068166356898 1.02945
267.097905785921 1.22098
295.093051020244 65.2034
295.248241523132 0.776575
295.485516910469 0.901106
295.87003868155 0.979023
296.055077996558 0.533519
297.256398978956 0.588406
441.375440671282 0.831657

