>compound Sotalol
>formula C12H20N2O3S
>parentmass 273.126867679664
>charge 1

>ms1peaks
133.074749987132 0.587535
213.068294650259 1.34658
255.115364925556 15.6994
273.126426172916 100.0
273.335899065089 1.35499

>collision 10.0
133.076397853794 4.16876
134.083187221334 1.14359
176.130125002974 1.8914
213.068720436691 17.3649
255.115880948821 100.0
255.311636627201 1.91247
273.126867679664 25.4471

>collision 20.0
43.055595404746 1.75674
106.065438232781 3.27213
107.073061134693 1.59233
116.049733411764 0.737442
117.057326285583 0.820674
118.065543710211 1.24582
133.076509735229 54.8516
133.221582822053 0.879557
134.084108641223 18.9216
175.122915133087 0.730842
176.131104658256 17.2307
198.057761652795 0.611881
213.069325053876 100.0
213.248059548481 1.47756
255.116135102538 61.9583
255.311571456448 0.767168

>collision 40.0
41.0396698731794 2.26392
43.0552080760384 6.77701
67.0413610800488 0.553025
77.038429766469 0.971158
79.0543864271868 5.59824
80.051779242145 1.14191
81.057599860373 0.699374
89.038425452065 0.692633
93.0573864585865 2.0119
106.065074182524 46.763
106.194326512655 0.799958
107.072498885361 20.9021
116.049028738958 11.2813
117.057028618361 8.06388
118.063895409959 6.88659
119.060985863924 3.51453
132.067527015558 7.7357
133.075729367091 100.0
133.221533855459 1.91942
134.083641627372 17.9965
176.130782600509 1.59067
213.068028112749 1.26159

