>compound Spectinomycin
>formula C14H24N2O7
>parentmass 333.165413536342
>charge 1

>ms1peaks
333.16667818802 100.0
333.397794489262 1.37103

>collision 10.0
98.059587287393 0.676999
116.07175090212 0.597395
140.0715446441 0.862897
189.122111111111 0.655947
302.122294410716 0.506083
333.165413536342 100.0
333.393722342987 1.25393

>collision 20.0
43.0553393836498 0.529433
44.0507951912798 1.7664
57.0344084808032 0.596664
69.0351261507045 0.740008
70.0660276624857 0.971015
71.0496089279743 1.0184
72.0455542853599 2.605
73.0533149216127 0.539089
74.0608477513812 2.08429
81.0325398263756 0.649737
82.0648670424898 0.520299
85.0770003668374 0.860883
86.0612508904252 1.3714
94.0653843073546 2.1999
98.0603651157185 7.38944
99.0464976760117 2.46252
100.075097704446 3.35707
102.055834016299 0.676321
109.029382939942 0.815347
110.061596155605 0.641205
112.075785298448 3.4471
114.05623294029 1.13674
116.071113453085 4.90856
122.060892257993 4.48927
124.075111605421 1.13147
127.04009788866 0.676639
128.069392373576 0.745609
129.055584868383 0.955825
135.0920156881 0.840344
140.070710757828 9.81284
142.086284587201 0.740152
153.102081983819 1.85952
156.065076889531 0.849976
158.08082273922 3.95003
187.106441568024 0.821155
189.12262292029 6.87868
200.091988056528 0.874411
207.132402233663 0.697542
227.131772231273 0.553239
228.086948013116 1.58564
242.103317759397 1.10554
243.134429880815 1.16887
245.113871880014 0.540523
284.114067796952 2.2764
291.119385449565 0.559391
302.123208999712 3.39979
305.169399524286 0.811203
315.151993618784 2.50376
333.165924225602 100.0

>collision 40.0
27.0216881690745 0.553749
32.0499160698711 3.58545
39.0227224170147 0.575519
41.0403534567194 16.503
42.0356502203275 14.5983
43.0195064605873 20.6823
43.0555121493177 25.7902
44.0511830789626 65.455
44.1358304273743 0.946069
45.0328093788156 1.65902
45.0584551450125 1.35499
53.0392708548121 10.9015
55.0189825481247 3.40839
55.0549983008912 7.6793
56.0503632177584 12.2721
57.0349524582623 18.1877
58.031124087554 3.75744
58.0671347980127 13.2894
59.0376551643616 11.2569
60.0460293109052 5.7622
67.0552931918852 3.6479
68.0509169011633 9.98384
68.9960951140908 1.36865
69.0346878675422 30.5081
69.0714301542152 2.51271
70.0662359626861 42.9463
71.0501227906302 41.5401
72.0453729274764 77.6416
72.1492002462608 1.10224
72.3432812720644 0.56624
73.0527258169644 15.826
74.061260158083 42.8072
74.1656127775128 0.504926
75.0444518161736 0.569112
77.040430520688 1.59127
79.0550544193937 1.69391
80.049406838544 2.16272
81.0339853594508 26.3286
82.066161003829 29.8023
83.0122783809088 2.57706
83.0515495275646 7.82186
84.0449972469364 13.8342
84.082126251912 5.65005
85.0313558696909 19.8449
85.0749902608093 9.61446
86.0608295437554 31.8995
87.0087298571087 5.25647
87.0917817203021 0.777568
88.0379894343915 0.715168
88.0761635057413 5.50396
91.0568485904504 0.636995
93.0407248371403 0.955394
94.0653414099247 59.8277
95.015735178103 1.82234
95.0654073729302 1.81037
96.0453822638438 8.34808
96.0796000850485 6.15955
97.0425386548039 4.117
98.0608556535026 100.0
99.0454066386957 45.7669
99.1686363849943 0.603219
100.041194744551 13.4072
100.076657928494 23.5798
101.055674459775 0.519346
102.056476698273 12.6846
103.039643887058 0.559809
105.066686073003 0.544559
106.064877693417 0.855605
107.010472794455 0.563047
108.080240890839 1.15129
109.028001440969 10.8192
110.061985676707 15.3166
111.055454202116 5.08588
112.074165653908 43.7505
113.038484871081 2.32965
114.055527545905 12.1323
115.061714655503 1.53941
116.072079774305 17.1514
121.029144230435 1.14065
121.07047123406 0.734407
122.060443303441 39.2771
123.0789512769 3.03768
124.076716253926 6.97192
124.911123357202 0.514144
125.032846917904 1.50531
125.107650012843 1.99713
126.05890236398 2.26709
127.040637719728 3.83508
127.079128356589 1.4002
128.067038773469 4.09133
129.054799940547 12.9453
130.048143713363 1.03778
130.087446427839 0.889979
132.064731536655 1.03632
133.023754189169 0.619449
135.092747629712 7.06383
137.064888286727 0.99944
138.055323399592 4.1586
139.066081227739 2.46826
140.071317586122 35.1492
140.219912220453 0.513379
141.068626764644 1.41334
142.085322594202 3.09014
145.053607237708 0.832308
149.023510031337 0.521456
152.073575228268 2.20028
153.10446725331 2.54568
154.089869130748 2.19146
156.067016637448 1.96429
157.073842184672 0.834545
158.079279762296 4.46015
168.069519999904 1.06843
170.094359597394 1.08904
171.113980149026 1.20213
172.098982262598 2.39121
178.054030155329 0.510346
180.071445476348 0.636559
182.078977456214 1.2052
186.075455828568 1.02133
189.122193957146 6.97145
194.090449263371 0.790391
207.133405592487 1.36773
210.080058888561 0.521044
212.090863796157 0.623162
228.085174572909 0.709929
233.115405868681 0.564479
243.137313238379 0.866993
333.169424518388 1.94012

