>compound Streptomycin
>formula C21H39N7O12
>parentmass 582.274281003421
>charge 1

>ms1peaks
99.1158365184058 0.582206
119.083645992774 0.708592
223.428952109215 0.519976
307.649274073593 4.69766
308.15926354201 0.801255
309.658844191936 0.588306
325.87856035869 0.587907
341.304934486291 0.960347
343.505304789309 16.1438
343.676429734952 0.682758
343.84334976771 4.64576
352.18470943226 0.522743
359.314464811122 2.36542
360.315548054505 0.531449
387.184350740409 0.605949
388.67573920497 2.16753
389.174009075809 1.00378
415.179598689407 0.614291
439.526582679476 0.571885
462.938426805283 7.7087
463.272681561324 3.18184
472.173980772609 0.792511
493.426364438575 0.542673
498.281037122316 0.596297
498.747348240394 0.68777
514.753868863585 4.33823
515.25246341425 1.73709
542.792159124975 1.02572
543.430292678871 16.5751
543.931063137733 1.63754
565.737277717246 0.562139
581.364290311364 1.17838
581.790446235842 2.24989
582.271757089606 100.0
582.5460629996 1.34204
582.717012597033 2.31672
582.843824542844 1.21341
583.039201342833 1.07266
583.178930499432 0.697789
583.261074722529 1.33004

>collision 10.0
69.0718961435344 0.681712
119.088236020072 3.94567
176.093198778051 3.85682
205.441252450712 0.80948
222.774237239634 1.1924
246.135309514125 0.550181
256.102130077612 0.510189
263.151174647944 2.78708
281.137004597803 1.07715
291.64125660459 6.37543
307.653184183593 18.7522
307.754501141836 0.754264
308.155230703138 4.50826
320.135715589023 0.55726
341.310555073858 1.00318
342.843896668749 0.654616
343.509913188322 11.6506
343.834626374155 5.73861
352.167897067651 0.665546
359.324054627257 0.531487
360.31263587945 0.535346
363.661022491398 0.65144
364.270697169917 6.57959
364.776487600632 1.46077
372.675149573966 0.617146
378.282699391372 2.6107
382.182968201264 0.78899
387.181627558732 0.803745
388.687485956507 3.95097
389.186992659971 0.999485
407.192530047055 1.08224
415.209930937518 4.92106
417.29347472849 0.868212
439.217768783724 1.76216
471.889436714597 0.523164
498.748089406417 0.886317
501.256219529113 0.753753
515.266792368642 0.698243
542.450386256956 0.568996
543.432642797527 10.3954
543.91551121224 1.51724
564.248648439406 0.923128
581.280318491691 0.771926
581.367435351792 2.37709
581.76955808652 1.10117
582.274281003421 100.0
582.594343665107 1.01788
582.692848686736 0.752563
582.810656997457 1.20466
582.985167423296 1.30382
583.063549002444 0.943918
583.162589801872 0.913112

>collision 20.0
57.0724083081931 0.862898
58.0656395119582 0.537726
71.0843551375598 0.704738
72.0475804843827 0.637128
74.0616262365254 1.78308
86.061860900161 2.00846
105.068407591672 0.534733
111.118936745676 0.734669
119.084427439444 5.82905
133.061726141068 0.570997
135.080377881809 0.812984
158.081215134703 0.732416
176.090898071688 9.56165
200.554460350166 0.838061
205.445835740821 0.639236
205.7709289428 0.563327
206.43002834958 0.579594
231.129659231823 0.58753
246.119279546815 1.65158
259.138607503492 0.614596
263.143166834934 8.78578
281.127854755913 0.963045
291.136677136111 0.817153
291.638857953175 5.95586
292.139115932777 1.97382
307.649972752304 11.0615
308.040704111322 0.610914
308.149698969725 2.72132
320.129416600481 1.46408
341.301135735839 1.48215
343.496042658786 0.524171
347.144525906119 0.528726
364.272938865937 21.6715
364.763532104042 1.13065
369.335996257687 0.792488
378.284949121489 11.7746
378.801543989975 0.637491
385.199827456343 0.519379
388.678466830257 1.88004
389.169469794253 1.23514
390.154936345284 0.928332
391.248779505682 0.638671
407.181800763015 4.43769
415.215768825522 1.54933
422.198370773252 0.57205
427.255215538563 0.618527
439.21023309661 8.96132
440.206393517245 1.04826
504.768338415126 0.629021
540.24024120056 2.45093
543.427114157366 0.86875
564.265713696697 0.708928
565.241212731204 1.4899
581.31190584104 1.08393
582.267664315084 100.0
582.477664529649 1.69474
582.555219953132 1.02312
582.68914925325 0.796568
582.896395045837 0.910052
583.253980722984 2.09175

>collision 40.0
32.0455439443271 1.93071
37.7313190860111 1.07477
43.0202234513328 1.2864
43.0532046742323 2.10525
44.0503073780353 1.85625
45.0339103294241 3.6104
55.0187813700022 1.61248
56.0566826563123 1.1014
57.0314163470131 2.87082
57.0719037510383 7.84678
57.991735683121 1.1663
58.0296109826568 2.00156
60.0543163045095 9.75377
67.0515947496255 1.38201
69.0351364360005 2.85034
69.0703871532802 1.22832
70.0638195454992 3.91864
71.0886768230616 4.25375
72.0152622557394 1.7377
72.0466182700915 1.8086
73.0508305124548 1.83537
74.0614074604066 12.3582
79.0164012802512 3.16648
81.0356226068642 2.06983
81.0703321454213 1.61228
85.0308645840862 4.60502
85.098003895349 4.93246
86.060482375174 30.8014
88.0784823157316 2.58154
95.0851791023853 3.96174
97.0306407059198 2.83463
97.099384107957 5.61708
98.0608807397663 14.1554
99.0491005079218 3.27392
99.1134015694676 1.09064
100.082163468716 1.38304
102.057093741396 1.0899
103.024799061463 2.62204
105.069092310492 4.74035
107.083726093587 4.21645
108.047008036385 1.97073
110.057198489694 3.42472
112.030032698429 11.6164
112.06694899826 2.8505
113.130578306171 1.27907
119.087206077712 18.289
119.611376571264 1.26094
120.091920483017 3.36975
121.06382303187 1.20637
124.767169914552 1.59798
126.052291865613 4.73048
126.092234233353 1.23097
127.04045897088 1.14664
127.079913803886 1.61358
129.055786009003 3.98907
131.004166144858 5.40518
135.080939569436 5.21448
135.112415136835 1.27603
136.07440888844 2.0463
138.052383320123 1.07806
140.070903703768 6.43417
143.062493476467 1.56809
150.068570137659 3.45462
151.051906064816 2.50447
152.074150219623 1.07806
156.075014341671 1.96648
158.082290991625 10.8244
159.080799471443 2.12944
160.049227362209 1.30988
164.065670373024 1.76599
167.097316024672 2.41401
168.076205940582 2.10251
169.053283681512 1.50032
174.073944108569 1.54351
175.084320980802 1.88927
176.091644317513 50.5111
177.095458401572 1.2054
179.107458747356 2.15875
185.059606081264 1.93557
186.086103285389 9.5406
194.072438435398 1.42909
195.149455458286 1.67582
199.082813759894 2.25773
199.131258037197 2.7361
200.08902844189 3.46809
203.119035049392 4.85785
204.100624233176 14.2751
210.102716610697 2.08458
217.093325099019 15.0005
218.097590030459 4.86359
221.124855435997 39.0707
221.532887257396 1.20352
221.897735904284 1.09083
223.051281768844 11.3472
224.087670828003 2.66165
228.104826265724 2.11485
229.096209728603 1.65398
245.153092686787 6.62679
246.121788294704 41.4579
246.237350203256 1.45576
247.095115340632 2.13668
249.064299922254 4.31963
251.108437393467 1.15929
263.148215902365 100.0
263.292940886652 1.60262
263.581566055713 2.43583
263.797190146125 1.12426
263.849825675956 1.40419
264.142888524696 2.94992
265.053721040014 1.11655
265.595003692263 1.32973
266.102295233947 1.19583
279.132091815331 1.33046
284.107890623965 2.36665
287.144630249213 4.50591
288.126771254583 3.62768
291.146299847469 1.94417
291.65064939954 2.82102
295.19043329992 7.29701
302.12843878476 4.45044
303.154154326824 1.34254
308.11957240793 1.68122
316.124446230506 1.51804
320.131130854786 2.46705
323.231038966949 11.038
324.237456490691 1.4883
330.133149984884 2.50174
334.150901478093 2.77451
345.157500715651 1.87105
348.138323930868 8.63244
353.046450933449 1.35622
363.158562161397 1.12995
365.154928938213 7.87098
365.225126189138 1.26091
371.260042135486 1.14933
372.25856634778 1.45493
379.177944846046 1.11394
390.162410950178 11.1376
397.245800762531 1.0704
399.28150795027 1.38341
407.186816221434 17.7732
408.197020216107 2.1804
408.601612848549 1.15137
415.274075356508 3.16624
417.194729472879 1.21659
421.227606320103 1.81301
422.182477125326 1.10793
423.194513971037 1.1605
439.214204504348 14.1369
440.229294343457 2.76859
540.245847920111 4.1414
547.221746171762 1.58394
549.332461757836 2.07785
564.278746511519 3.35117
565.250832667062 2.27661
581.352369215249 1.06438
582.276299335668 14.0098
582.352114396137 4.3723

