>compound Doxycycline
>formula C22H24N2O8
>parentmass 445.159036933201
>charge 1

>ms1peaks
428.133669588702 14.4109
444.331850742515 0.515857
444.951200888483 1.25183
445.159318186785 100.0
445.323542657385 0.548116
445.420730580884 0.864996

>collision 10.0
154.047662227891 0.839618
267.065383877633 0.579062
339.083508924194 0.646705
366.933330569591 0.613902
410.123503631719 2.03285
428.133139074882 100.0
428.388411950791 0.900875
429.138468056378 0.826841
445.159036933201 77.5369
445.420020775558 0.54523

>collision 20.0
44.0511111624078 0.601982
46.0669952464066 0.60106
98.061028095696 0.792199
126.055644153231 1.20825
154.050100607034 3.23028
201.054209855004 0.808885
267.066105459371 1.28916
269.082109272392 0.512459
293.080799188149 0.794804
321.075996254735 2.53179
339.08676229775 2.4828
349.073502248956 0.904926
392.115272410427 1.1636
410.12408868136 5.88192
428.13437679174 100.0
428.388230586271 1.25076
429.094361600245 0.529714
445.161086284248 4.23618

>collision 40.0
41.0393035829903 1.85805
42.0356760030374 2.98087
43.018602507704 2.48289
44.0505885888541 17.6882
45.0326504938444 1.15668
46.0662180346636 16.9609
55.0192421040919 4.47359
55.0536264030196 1.20202
56.0497175291478 3.81207
57.0577789909939 1.34656
58.0274292563202 0.550475
58.0661014956948 38.5311
59.0663071361591 0.524509
65.040381305457 0.576605
67.0161791882167 0.87091
68.9971775112588 1.26215
69.0326717673127 0.578817
70.065947252652 5.03512
72.0441606169956 6.91319
72.08140399331 1.49017
82.065275184501 1.87606
83.0129681976287 3.41667
84.0452175634392 12.9653
84.0782135702398 1.41399
85.0362161795785 1.05444
86.0606606998931 4.1604
89.0599731480913 0.553143
91.0540791036731 0.559768
94.0656954289717 0.757947
95.0124183569199 1.72344
97.0285202645062 1.79138
98.0599822147137 100.0
98.1800266464519 1.21962
99.0079362739773 1.03276
99.061549390658 0.990071
100.075450569325 10.19
101.021911590577 0.557509
103.054455142475 0.886879
107.010356743485 1.07913
107.068556529166 0.620571
109.028908955578 1.06445
110.057997254663 1.91613
111.005825334271 0.948815
112.071428827332 0.891926
114.050969113891 2.28539
117.070593381476 1.26946
119.047012011058 1.35469
121.062283202734 2.6511
123.009363934868 2.16774
124.038577036342 5.08926
126.054834865569 37.2078
127.000534870981 1.0835
127.053464812635 2.7512
128.068855656815 1.87334
129.069457932228 1.2949
131.045871363184 1.25252
131.084172328672 0.912206
133.061012204387 0.971539
134.059331628953 0.826643
135.009590860424 0.86634
136.07752652581 0.992833
137.020860682221 5.09897
139.032740763556 2.11199
141.068959855804 1.39167
144.062564082628 3.64852
145.064609349701 8.48496
147.068586027254 4.87036
148.076539912746 0.655302
149.049494164938 1.90773
150.055155117493 1.36163
151.038169568616 0.753092
152.049474645775 3.2938
153.015299977879 2.79099
154.049192054927 66.0952
154.202486116193 0.658765
155.050321800056 1.39906
156.06261058649 0.972759
157.066003146781 1.74556
158.075144457684 0.849558
159.063222091485 2.19727
160.054676642205 2.38448
161.056657224846 2.36692
163.006984511424 2.49345
164.070376908049 4.12446
165.018374800791 11.4446
166.047786406242 0.560837
167.050085302998 1.28746
168.051770757662 1.7893
169.064300784089 1.45093
170.057358409773 0.754943
171.079318308977 2.93764
173.061787218329 6.17582
174.066349195784 7.33383
175.074091927577 23.5859
177.064536974276 1.14839
178.052559747275 1.48134
179.082544314817 2.87887
180.063363418208 3.10691
181.064348068812 1.58102
182.076272572831 4.49741
183.081132351238 0.834417
184.077259573441 0.561163
185.090604853091 2.3588
187.073922398762 21.6197
188.079121619965 2.29645
189.067620773874 0.578799
191.026593216887 1.45713
192.065798243722 6.2071
193.071311626031 1.01046
194.071760550785 1.28819
195.079061009764 7.08185
196.05398831968 2.92536
197.085823028009 2.44649
198.07058879293 3.96135
199.075072646792 5.23796
201.053951128061 77.4239
201.228866037018 0.72341
202.063412774882 0.614597
203.072739333478 1.99209
204.061549212828 1.3005
205.072968558185 0.556841
207.079813968073 2.88688
208.059562174841 3.99909
209.083564641903 1.49905
210.072525386475 8.37763
211.073811984141 11.396
212.061551607174 0.984365
213.087645606592 13.7293
214.116405061486 0.908952
215.067325946955 2.28374
219.028453176484 2.098
219.078508052679 1.11082
221.068211541631 2.05783
222.071516092426 2.20226
223.07480783566 9.92509
224.050824390353 2.77794
225.089720384121 11.9315
226.06202145759 9.682
227.070973436152 8.33988
228.072275682168 0.595838
228.13335778441 0.577452
229.063167666672 1.6322
231.072235515692 2.17957
232.055496418009 1.0461
233.090980031526 0.990553
234.0679239026 2.3492
235.073672441714 9.11289
236.052698830299 0.94685
237.084158995026 5.04355
238.063165139108 3.03249
239.06866441161 19.1967
240.076678479882 4.7979
241.085566117699 29.886
242.057239166205 5.07228
243.077172202067 2.43457
247.074269488823 3.88643
249.077448158899 3.42923
250.061383218253 5.07994
251.067937264453 10.5363
252.041304437494 25.4296
253.084947469008 17.5885
254.058765207577 2.27235
255.064364663565 6.70958
257.082175155374 5.86639
259.070491865881 0.734594
260.048148245255 1.10948
261.055649955233 2.18856
262.067854751172 1.63178
263.070046867467 6.42494
264.078662904911 0.971988
265.083713619556 11.2459
266.062328905833 1.36781
267.064523983182 95.8718
268.036200410406 2.57623
268.135031862099 1.42378
269.080022975153 41.461
270.063974909632 0.775732
273.051172177982 0.672292
275.070740682695 9.56648
276.043459771577 1.37496
277.08691083233 4.05751
278.057566740842 8.84159
279.065431606929 9.88422
280.06906475673 2.92872
281.082353608079 7.59055
282.052111064072 0.503112
283.060331350471 5.20277
285.075275470766 14.4679
286.140281771664 0.810876
287.086526340614 1.41913
290.064343462608 0.889347
291.063531295007 7.66804
292.07257863284 1.78083
293.079492424209 36.6854
294.105752920841 3.74277
295.091440465948 3.83373
296.126542544079 8.68533
297.078903580043 2.68611
298.103370974455 0.776301
303.063181636052 11.7652
304.038127842365 1.72008
305.088515683466 2.1159
306.051760758773 12.6017
307.089475540509 0.611781
308.100890175927 1.49898
309.072761011918 5.74786
311.091811577116 3.79252
313.132958312392 0.518149
314.137697207681 2.64834
318.110803447228 1.15819
319.059085244257 13.4311
320.125668889475 1.81899
321.075832924506 73.3239
321.302889445596 0.504699
322.049498844 2.67371
323.09762231169 1.55414
324.127566584395 0.505674
331.061019983971 1.70645
332.028910452964 0.938779
332.147674029712 2.99283
334.046495151899 18.6179
335.055400763825 0.565235
336.124713118926 3.88157
337.070239748748 6.53295
338.135895797475 0.991423
339.086451049429 31.3251
346.10966397629 0.871395
347.059030605978 3.43649
348.121469885704 1.1528
349.069419657382 17.801
350.036174520917 1.23969
352.054354587895 1.26845
354.131282673716 0.936098
364.116012456143 4.15582
365.065717701243 2.70577
366.134189790608 0.607642
367.081577404132 12.8924
377.090716515115 2.13242
382.128191037269 2.9841
383.078946228547 0.617486
392.111071611279 6.65225
400.137501096275 1.25686
410.120923801762 17.7912
428.133172393064 37.2737
429.340263542757 0.593179

