>compound Edrophonium
>formula C10H15NO
>parentmass 166.124137084344
>charge 1

>ms1peaks
136.077931040441 0.618879
137.084799709175 1.09175
138.093041228156 0.719492
166.123312695401 100.0
166.242295456641 4.48458
166.279913588049 1.9271
166.33871670186 0.68962
166.368569412003 0.646959
166.398378626892 0.709982

>collision 10.0
136.078134798195 2.60202
137.086214846147 11.6458
138.0940484106 10.6988
151.101598545092 0.776813
166.124137084344 100.0
166.241999830394 4.92039
166.284053016375 2.17897
166.36889929777 0.779811
166.39936201228 0.917616
166.442265097241 0.551281
166.492382781927 0.506534

>collision 20.0
44.0507854228979 0.938685
122.060969033465 0.665602
123.068743229446 3.10092
136.07666539236 32.4402
136.183637257811 1.16308
137.083205466235 100.0
137.192050449562 5.17674
137.225584377119 2.36921
137.280636521264 0.814858
137.306797907124 0.750246
137.334293675203 0.922152
137.386318204624 0.510602
138.091879273113 38.9476
138.200212409261 1.71415
138.238738316649 0.759999
151.100294248532 3.68667
166.124177555485 25.2515
166.24248441224 0.73753

>collision 40.0
39.0246473106348 0.857778
42.0356116130648 1.9694
44.0512793875563 1.98315
65.0405740142727 9.25756
66.0483254441628 1.32689
67.0560914411956 0.844715
77.0405433094501 1.88189
79.0563014868177 0.713945
80.052684783205 0.66102
81.0626058546177 0.688116
91.056335470145 6.51004
92.0515267598543 0.734415
93.0371154538656 5.43842
94.0439229836528 12.1122
95.0515598370768 2.18783
107.051569470216 1.91719
108.059599452506 2.47699
109.061538826971 0.943717
117.059568682588 0.662909
118.06751293811 0.943563
120.046718542828 3.6347
120.079878754836 1.05555
121.054588500499 11.8475
122.06217047146 7.67036
123.070249058494 2.58425
134.062626317394 1.83745
135.070404987119 0.597158
136.076626648066 100.0
136.183606235264 4.90581
136.218539246778 1.9731
136.249276125477 0.906223
136.297993629332 0.679149
136.325680653248 0.84271
136.367651156629 0.502304
137.085916479188 4.59656

