>compound Sulfacetamide
>formula C8H10N2O3S
>parentmass 215.050240262407
>charge 1

>ms1peaks
58.9875590906436 1.0031
90.4840166156215 1.41173
97.995836378412 5.38724
101.005030555579 0.558188
137.001685899781 37.2561
137.067767108108 0.515209
137.510459924795 0.519986
156.012106857349 2.84822
176.008917241782 100.0
176.509410506474 5.61554
177.006278284467 0.856655
214.251293230951 9.24958
215.050240262407 5.68467
215.122665010634 0.683776
215.255065436678 2.40625

>collision 10.0
51.4754359244101 0.540987
58.9885318413147 2.16478
90.4855606731157 2.47283
90.9840295029678 0.5289
97.995773014239 44.6105
98.4999439737502 0.7699
108.043900769251 1.64367
129.488161179806 4.12012
136.066384457695 1.29749
137.0024507315 100.0
137.503454853946 6.10057
137.589910183905 0.574806
156.011705890077 4.38272
214.252170401168 12.9908
215.14501590119 0.801352
215.251372579794 1.3955

>collision 20.0
43.0537240085738 0.520951
46.0650698161092 2.92734
51.4762221698675 0.762102
57.0744153391477 1.22399
58.9898947256781 10.881
80.0527446531942 0.707612
90.4842366524224 50.0684
90.984571751931 2.73199
92.0501933636887 5.0436
97.9954140784526 100.0
98.4951659633716 2.98718
108.044656449503 5.14587
136.071353244351 0.553833
136.999961313675 2.74417
137.050396147831 1.03058
156.011173128121 1.46354
159.95883667713 0.538851
214.254772753376 5.75031
215.255886474486 1.71927

>collision 40.0
41.0375011306832 0.730794
43.0541229878935 2.19658
46.0653405721051 1.57378
50.973315784441 4.07677
51.4769301205912 22.8434
57.071784918895 0.648678
58.9888684093148 100.0
59.4893285476567 1.53071
62.9896102425656 0.67612
65.0402195299948 7.44962
80.0494376801193 1.36274
82.9703137701876 1.42473
89.9769505279742 0.689165
90.4831300796212 9.93534
92.0498899476879 0.953027
102.953846261745 0.822179
108.044278233386 0.545192
118.943298285338 0.648917

