>compound Sulfadimidine
>formula C12H14N4O2S
>parentmass 279.092658823926
>charge 1

>ms1peaks
201.04631459084 0.694943
279.09217729849 100.0
279.300557349589 0.934411

>collision 10.0
108.044196738751 0.544018
124.087286583491 1.65912
156.011340215723 1.92508
186.03351222237 6.90068
201.047451611537 1.87818
279.092658823926 100.0
279.30194148781 1.09356

>collision 20.0
65.0387170636916 0.70004
81.0463221164265 0.520713
92.0501117463168 17.2363
93.0569826960055 0.596146
94.0662874646755 0.934444
95.0615626127386 0.942567
108.044397422697 18.7325
122.071053780247 2.65416
123.079831969772 0.512248
124.087061083568 36.8407
124.224485204812 0.575319
156.011727561411 28.7949
173.051728924112 0.63309
186.033696028177 63.955
186.207322817278 0.682223
201.046928292547 28.6386
213.113735635601 6.09798
279.093104529977 100.0
279.299274054441 0.854421

>collision 40.0
39.0229904324761 0.928691
42.0350767836635 1.02683
51.0246908043019 0.837858
54.0345954633581 1.83075
65.0390144285245 40.4
65.1389513715446 0.752643
66.0354078239598 1.83559
67.0304691874882 1.83459
68.0505815390505 2.19975
77.0389060730264 18.95
80.0496719351945 11.0948
81.0452429612782 5.07756
82.0657332080931 2.95122
83.0597472539262 0.9721
92.0496107791883 100.0
92.1697562730025 1.96574
93.0574278356853 2.78332
94.0636535065933 0.632683
95.0044511191722 4.32145
95.0600801304338 12.921
96.067823205848 1.72876
105.042378098319 0.644853
107.05942036293 11.1567
108.043690690496 68.0061
122.070548814265 5.8501
122.999383676041 2.77964
123.079018127475 1.35741
124.086242903451 67.5539
124.22447791775 1.1066
128.061272037216 2.91277
129.069610412607 3.43549
133.018790222409 1.23281
141.066731925882 0.732656
147.036202147144 0.706355
154.075832636944 3.06649
156.011330737255 2.67725
171.034376076371 6.27506
173.050656869588 15.312
183.035211330721 3.26416
186.032369284684 5.70301
196.085485203396 1.84927
198.08964327984 1.04009
199.030966002993 0.542426
201.045381161591 55.3246
213.111301204145 3.66877

