>compound Enalapril
>formula C20H28N2O5
>parentmass 377.208973031623
>charge 1

>ms1peaks
130.085785396822 0.506503
160.111715781229 0.504446
234.149131794469 8.0303
303.170741424352 2.71915
377.210922863538 100.0
377.450723109324 10.2269
377.694962133978 0.645478

>collision 10.0
44.0503782470018 0.597801
56.0503490697614 0.652489
91.054579177049 0.838217
116.070224498769 0.501191
117.069495619121 2.18742
130.085683252818 3.22673
134.096128369784 1.71351
160.111523744055 3.38122
234.149307755587 49.1936
234.341578389566 2.74477
303.170651364967 14.6024
377.208973031623 100.0
377.450343093767 8.04651

>collision 20.0
44.0505515351469 3.09511
45.0343661453287 0.592222
56.0502375788082 2.75644
70.0651224134798 0.528368
73.0651626224054 1.2943
91.0542304338496 3.07963
102.054873999232 1.85848
116.070221695738 1.42994
117.069700859334 11.0299
130.085965206225 14.4079
134.096108883733 7.28871
160.111719110215 15.765
160.267914756935 0.516939
206.118304349202 1.10491
232.132815535774 0.577405
234.149440049544 100.0
234.341551134549 6.66477
303.170642702554 24.3352
303.390751548926 0.626087
377.20749577768 16.4771

>collision 40.0
28.0183623341479 0.845361
44.0504174777391 16.1506
44.1334960417112 0.640833
45.0344620270796 8.71582
56.0503478057375 37.5115
56.1444844495521 1.12327
65.0392112728777 1.27095
70.0656906337849 4.44751
73.065455074131 7.20615
74.0238591961598 0.645203
82.065653953125 0.642175
84.0446361232854 0.576771
91.0544516358626 63.1576
91.1722662688812 2.10046
98.059124631996 0.759653
102.055091447671 18.8078
102.180867379563 0.606059
105.06983730963 1.73893
115.053952531299 2.60179
116.070325594474 2.60809
117.069904208043 100.0
117.204283333196 4.98862
128.062888178191 0.583361
130.08592169834 28.1158
130.225074514703 0.736436
134.096033472287 15.6316
143.08531485009 0.917655
144.080880332388 0.544594
160.111724016081 33.5792
160.267910318853 1.05125
162.127381339826 0.500835
206.117607354227 1.14604
232.132751168853 0.660636
234.149193855999 7.70999
303.169979570742 0.826873

