>compound Sulfadoxine
>formula C12H14N4O4S
>parentmass 311.080760443595
>charge 1

>ms1peaks
92.0499062484594 0.757997
108.043737920102 0.876305
156.010697613513 3.59424
156.07700313972 0.602605
232.954987742291 1.06119
310.969219576433 1.67411
311.080779022878 100.0
311.302049233742 4.96721

>collision 10.0
92.0494025712282 4.1471
108.044241284798 4.82815
140.045127034265 1.6747
154.060189696949 1.25959
154.940451032966 1.23802
155.068892414595 0.588584
156.010820089 22.3301
156.075545207144 3.33479
156.165817905986 0.70512
232.9554073318 2.83667
245.102977314555 1.97439
311.080760443595 100.0
311.302077701753 4.3049

>collision 20.0
45.045080828946 0.583599
65.0393203127483 3.07024
76.9282463773626 0.705854
80.0489248971978 1.15064
92.0494604570015 37.0664
92.1662805045266 1.02269
93.056860884603 1.26574
108.044281123339 42.5731
108.173300327486 0.870854
109.061026675255 0.80023
113.034534972876 0.82092
124.021242336767 1.04391
126.065336723309 1.43254
138.031592645691 0.710022
140.04508289971 16.815
141.05311436208 1.93963
152.94400915168 1.86711
154.060487916427 11.6049
154.941111424135 7.07643
155.06847651442 3.96924
156.010803787508 100.0
156.075969131719 23.9002
156.165800216039 3.61467
156.233950326168 0.609221
201.076346165454 0.635532
212.068465430683 0.953455
218.022802824077 1.00551
230.078805730347 1.7029
232.956076406639 1.15433
245.102546695511 9.76063
311.080512552927 39.9444
311.302045079637 0.768755

>collision 40.0
39.0239984463957 1.08525
42.0349696952772 1.1934
45.0456305876756 9.81163
46.0296524472048 0.700992
53.0394830735625 0.626303
58.0300780129934 0.977336
59.0608561398601 0.808142
60.0451558540592 0.506183
65.0392448373323 30.5833
66.03637785766 0.683093
68.0142370005979 2.36535
74.9311796255345 2.94836
76.9283883502159 7.58561
80.0489809257662 9.67384
85.0395006162186 1.41559
92.0495056998588 100.0
92.166340120605 3.3122
93.0577600756356 4.45161
95.0401230825097 1.27299
96.0078555032812 2.18913
96.0549617161514 0.742234
108.044376411553 72.2023
108.174058124466 1.65144
109.05975836939 0.914569
110.023971435876 1.94462
112.050106860315 5.65024
113.034164907143 7.25313
122.036091678374 0.67761
123.041598060648 1.92612
124.032387620159 1.0114
126.065482519827 3.05299
127.050506770064 0.892968
132.055340695277 0.796386
133.064219418475 0.772787
138.029127165116 4.15725
140.044893828673 21.8246
140.190820303805 0.52264
141.052611786288 11.7979
152.046277772913 0.729526
152.943270159333 0.767929
154.060494513073 23.0964
154.212617895335 0.530381
154.940765088246 2.61748
156.011252671419 3.87216
156.07599214271 11.7242
157.062866055762 0.787065
160.050121656409 1.40201
184.073233054108 0.974358
201.076455214735 2.15539
212.068604699556 3.16074
230.077812717084 0.931747

