>compound Sulfamethoxazole
>formula C10H11N3O3S
>parentmass 254.058694411159
>charge 1

>ms1peaks
156.010954753044 2.37848
188.079485889905 0.74173
254.058763729468 100.0
254.252918969688 1.76573

>collision 10.0
65.0376162226976 0.710211
92.049215658772 5.88273
93.0573883346325 3.7113
94.0650879601968 0.923966
99.0555609394392 3.76747
107.062059202099 0.864866
108.044236472204 6.25932
146.07137218245 1.40889
147.079672416007 5.1318
148.086624883024 2.09817
156.011075635155 32.6348
156.166598856147 0.663917
160.08648286199 3.51673
161.001550640367 0.573965
188.080851714355 7.55306
190.096690022102 2.86476
194.036413518091 1.62479
236.049210919321 1.06052
254.058694411159 100.0

>collision 20.0
65.0401747763849 2.3785
80.0489194770778 1.60639
92.0496410754814 77.685
92.1665185585657 1.87615
93.0578261034719 27.0678
93.179871225223 0.669316
94.0648815596437 2.35741
99.055238203272 27.0738
99.1750460524156 0.513376
107.061466131067 2.45034
108.044321796443 86.7881
108.171808618785 1.5645
121.077926359288 0.905874
146.069748356762 3.75383
147.078894523052 13.8711
148.087750167545 2.60417
156.010767772313 100.0
156.166521865717 2.13025
160.086678678161 21.7931
160.246257302582 0.703042
161.000420301876 2.11333
161.063534307264 0.720349
173.065858318147 0.575058
176.019911966373 0.637574
188.08075967068 7.3918
190.098398507797 1.63688
194.039165122337 2.56903
254.056877745919 8.70361

>collision 40.0
39.0247082077741 2.95588
43.0174062416704 0.822751
44.0499968792742 4.18807
53.0384794424635 1.72978
54.0332537496939 0.932013
55.0190557689221 0.81871
65.0393123189043 56.9924
65.1408380429278 1.31932
66.042436911038 2.21949
71.0611852235796 0.699437
72.0437388260428 0.730955
79.0407527476681 0.798389
80.0498360924375 16.1687
92.049445836159 100.0
92.1664349655187 2.81674
92.2900470717998 0.509718
93.0573212628716 16.7016
94.06508018825 0.934628
99.055699939924 8.09577
104.04896367074 0.511703
106.055157825396 0.829256
107.060561394812 2.27415
108.043912558353 55.9679
108.170435121763 0.905499
119.060839312804 1.49245
146.070506431628 4.12706
147.077388930815 1.62433
156.009346363346 0.684068
160.083226058503 1.27914

