>compound Spermidine
>formula C7H19N3
>parentmass 146.164868547729
>charge 1

>ms1peaks
64.0164766147298 65.7716
72.0810057299035 6.84143
75.0915937937945 1.26754
105.042359943743 8.99847
112.111390082196 2.53142
129.13805329126 3.03012
146.1645273659 100.0
146.31645194837 0.507337

>collision 10.0
58.0651674987432 5.04597
64.0168445252417 26.0732
65.124650133075 0.539575
72.0813661879071 100.0
75.092331986392 12.0092
83.5186818054951 0.552252
84.0804828192941 3.58097
86.5497089604873 0.673952
103.955461996634 0.73363
112.112291138058 28.1749
129.138574702616 28.3623
146.164868547729 35.6886

>collision 20.0
30.0346745094901 2.63311
55.0569180699277 1.37467
58.06626022548 14.3149
64.0166076970394 0.545946
70.0643203953326 0.510369
71.779957865088 0.531827
72.0812301036845 100.0
72.160450837745 0.514096
72.4885826156411 0.598705
75.0928667420815 1.65383
84.0810961066169 19.765
100.957433351193 0.735091
112.111896685813 15.8858
129.139263019963 1.2723

>collision 40.0
30.0338425008414 14.9511
41.0399859173245 7.54387
42.0348605624764 22.4255
44.0478922265332 3.44337
47.9984705797225 1.37484
55.0544069459785 11.4939
56.0514146353181 5.60188
58.0665464341275 19.0164
62.9334057597041 3.10583
67.0541452709782 1.38552
70.0644256024281 2.90391
72.0809524086382 100.0
72.3076350661398 1.51447
82.0659837353715 3.06984
84.081017105131 53.0172
94.060995675323 1.7555
124.029981644333 2.17468

