>compound Sulfasalazine
>formula C18H14N4O5S
>parentmass 399.072058889571
>charge 1

>ms1peaks
381.061846205957 1.90819
399.072058889571 100.0
399.24458958974 1.57927
399.317991487596 0.917193
399.452319876152 0.560002
399.544006621612 0.52362
399.639777699772 0.547613
400.067427165761 0.526713

>collision 10.0
223.048130730433 0.784335
241.060073803476 0.800542
317.100280633192 2.08877
333.09733997996 0.649456
335.110722733433 1.36894
381.062575465803 21.95
399.073284558627 100.0
399.299185002717 0.834125
399.391367214179 0.677301
399.448955581911 0.641657
399.498063887388 0.568574
399.559886922459 0.53308
399.670750419672 0.670668
399.814831596411 0.556159
399.897077081459 0.555807

>collision 20.0
91.015345091675 0.718381
94.0521296586665 1.63905
95.0595957757673 1.05066
119.010742567533 2.85893
137.021144401033 1.21183
147.016096714155 1.61537
165.026979467078 2.33698
213.062466739022 5.86147
223.045563705469 10.713
224.05408398155 0.75772
226.058603305067 0.831635
239.042023383497 3.32736
241.0583523526 5.86463
287.008907500797 0.978336
315.080249216356 2.67584
317.098207300253 22.0471
333.093150179445 4.54204
335.110464643395 2.18015
381.058808138281 100.0
381.235457132201 1.47896
381.294261515635 0.919583
381.380736173942 0.5132
381.421942914759 0.517253
381.623052415979 0.614017
381.749800527011 0.500096
381.91507748427 0.524347
399.068792598593 37.3339
399.251639560875 0.505341

>collision 40.0
39.0240148838079 0.717397
63.0248470280178 1.79761
67.0422418838472 10.7226
76.0313133140487 0.806682
77.0387555184484 3.35361
78.034221347468 1.00837
81.0341313093004 3.22721
91.018229045654 23.0556
93.0440463822521 4.24755
94.0528623007945 65.6528
94.1410006075612 0.964843
94.3931005798317 0.504882
95.059173490879 1.2298
104.038876243546 0.681446
105.046381018721 1.53978
109.02963603053 1.58827
119.012652519971 100.0
119.112392159732 1.4815
119.142672030885 0.519913
119.17921810423 0.531857
120.020101839641 1.47377
121.04066880743 0.73088
127.051622009768 0.960526
134.0243468835 1.06653
137.023087997513 23.7036
139.053825279587 18.9071
140.050082787763 1.81565
147.017775476742 49.9531
147.130190207165 0.567415
149.034044273615 0.645574
155.057606477221 3.52722
156.065903531452 0.938623
157.007583601678 3.1413
157.074692800705 7.08288
158.060829220331 1.07738
165.026463320557 5.58388
167.057365599063 4.30692
168.065941528744 5.15037
169.07516919161 4.8102
170.080209179485 0.73745
171.054132314821 1.28182
177.031673826053 0.886518
181.064284256706 1.01094
183.057445007595 2.15235
184.058536930254 0.606912
185.066989070923 5.61212
186.053492635136 2.31929
195.048477225869 2.58467
196.062658693349 0.650661
197.068299201996 0.946399
211.050226527218 1.77005
213.064460682628 13.5494
223.048235378544 56.8186
223.189874972428 0.818539
224.055162659405 4.04141
225.066861599374 1.12788
226.060274657322 1.14071
231.089424241839 0.77541
233.103037767229 0.843886
234.042912780519 1.70768
239.043752875753 23.8221
241.063472905856 1.11782
259.085675522282 1.22641
287.009134832282 0.587182
287.082096609078 3.82035
289.103238666049 0.780419
315.088398044884 2.05959
317.103429516466 3.44483
381.063705044033 3.44439

