>compound Spermine
>formula C10H26N4
>parentmass 203.22300331383
>charge 1

>ms1peaks
112.112028717815 1.03049
129.138528116307 3.97539
203.22328377378 100.0
203.354677292426 0.872522

>collision 10.0
58.0659780165008 1.67087
72.0815246468014 2.04462
84.0810212988798 2.56462
112.112152255516 30.8832
129.138545676716 100.0
129.243721756574 0.666699
132.14879427653 0.955171
203.22300331383 44.6137

>collision 20.0
58.0660849130623 10.8116
70.0658596171704 0.56877
72.0813756893402 6.00133
84.081106200047 23.7671
112.112146334803 100.0
112.210653701355 0.774806
129.138060891726 23.6322

>collision 40.0
30.0341174075108 0.700483
41.0388963131982 1.37447
42.0342163543302 5.93631
44.0499327756559 0.770147
55.0548519679406 5.78525
56.0502583184296 2.33596
58.0659636416776 15.2861
70.0656891131158 3.30816
72.081354807927 5.61397
84.081290080314 100.0
84.1660771279858 0.767402
98.0969204909596 0.690104
112.112263348469 13.2476

