>compound Trans-4-Hydroxy-L-proline
>formula C5H9NO3
>parentmass 132.065314521679
>charge 1

>ms1peaks
68.0497886821797 1.96901
86.0602636448078 9.04725
132.065227548927 100.0
132.171717828713 0.510522

>collision 10.0
41.0388220038088 2.09909
58.0656387012309 1.21058
68.0504928221023 30.3758
86.0606517016015 100.0
114.055469894638 2.28098
132.065314521679 58.1044

>collision 20.0
41.038962026121 17.7208
58.0659312301005 14.6592
68.050547789991 86.2756
69.0328587599269 0.598918
69.9957285099715 0.812428
86.0602437674262 100.0
98.962197650045 0.60839
114.056067647125 1.278
132.065966366757 2.09642

>collision 40.0
30.0340093921034 4.17298
38.0167049046958 0.628973
39.023290041586 12.5509
40.0182478929449 0.555631
41.0390256740812 70.5297
42.0340550317982 5.64805
43.0178867482198 0.515551
43.041805126185 1.56402
44.0269061857178 1.08331
57.0601339645289 1.34079
57.9350758493028 2.12086
58.065681205542 20.3006
58.7575216021545 0.552668
68.0499551521236 100.0
68.1110886470332 0.763667
68.2500774827349 0.653369
86.0598826074871 9.2913

