>compound Ethambutol
>formula C10H24N2O2
>parentmass 205.191280684088
>charge 1

>ms1peaks
116.106912914958 8.13547
205.191435578077 100.0
205.371402164951 3.55189

>collision 10.0
44.0504128374842 4.50938
55.0547899985957 0.644019
90.0915496644834 0.571805
116.107144367073 100.0
116.240112951955 5.66966
205.191280684088 66.5619
205.371383402592 2.70624

>collision 20.0
44.0505090682811 28.8035
44.1334992580899 1.40655
55.0551238514058 5.48636
56.0502647726923 1.26736
62.0607350863027 1.08602
74.0603561882981 0.56883
90.091930938208 0.506655
98.0962957996585 1.87529
116.107297644349 100.0
116.240134773659 6.73142
205.190854328104 1.07036

>collision 40.0
29.0391101894304 0.641163
39.0236463060265 1.00529
41.0393525990096 1.66088
42.0349498722727 1.18096
43.0548678224361 3.87428
44.050566444869 100.0
44.1334989597464 5.4861
53.0395863496737 1.02746
55.0551215874504 38.2044
55.1482299920958 1.51302
56.0503916592826 3.95464
116.106940080966 4.06937

