>compound Uracil
>formula C4H4N2O2
>parentmass 113.034538339497
>charge 1

>ms1peaks
70.0286883903737 2.32105
70.9929767334786 0.949379
71.0631738181825 0.996
71.5154424310413 1.24498
91.5039280230237 0.800134
92.0252221360782 0.931772
92.5274065300985 0.583272
96.0085200007796 1.34603
112.533822740206 0.615943
113.034758550275 100.0

>collision 10.0
28.0200200836872 1.02036
42.0350577689313 1.00783
43.0199491544934 1.78006
64.0003947935306 2.30848
70.0296045705913 30.58
70.9918402585005 2.17387
71.0615475043219 0.693205
71.5115577650114 2.72062
72.0157453692703 0.542913
95.025296902019 2.19722
96.0081450095508 20.7904
113.034538339497 100.0

>collision 20.0
40.0184342899643 13.4036
42.0338855872328 13.6554
43.0181364342234 23.9695
44.012481607047 1.48517
44.9795292030582 1.31129
47.5123878703271 0.973593
53.0005306785415 5.87119
62.9910653446572 1.87025
63.4955927789616 2.24221
64.0004409763654 4.8285
64.5028743025162 1.87406
67.0291976054197 1.92977
68.014873570021 10.3787
69.9910637967027 1.73772
70.0299036134919 100.0
70.9932444263194 0.62395
71.5109551288979 0.542601
82.0174196577024 0.614034
87.9397754742148 0.521217
95.0239462711303 9.28701
96.0082198879248 72.3224
113.03484677867 31.0938

>collision 40.0
40.0184780049872 100.0
41.0256711406662 1.76106
42.0347048164953 47.7356
43.017611257338 9.80623
44.0131871021242 25.0241
45.9861056741885 1.43515
47.9668665439595 2.00996
52.017020066898 4.85502
53.0025781294072 16.5996
59.9294471814259 3.12856
61.9312495666616 2.31685
62.9911174400297 2.49513
67.0316644056117 1.57884
68.0141467382215 11.5596
69.9915788572396 2.20484
70.0295976859255 15.5208
70.0603769979607 1.99481
96.0086266395834 6.90779

