>compound Ethionamide
>formula C8H10N2S
>parentmass 167.063471534651
>charge 1

>ms1peaks
107.071683012001 1.78457
121.501272930298 0.891465
129.014039008847 1.41273
133.07601937663 0.951878
134.083404629518 1.0746
140.052789965333 3.24029
167.063497267847 100.0
167.224782161292 2.35771

>collision 10.0
82.494383412451 0.589148
90.006752621282 2.34697
106.065601924888 0.794877
107.073377292963 6.73523
121.503383840073 0.566936
125.029012000806 0.843882
133.07574999815 3.30173
134.083882135066 3.47178
140.05267207768 19.3079
167.063471534651 100.0
167.224792305114 2.31887

>collision 20.0
56.0491286487013 0.531177
62.9919076964831 0.922706
65.0386549034408 0.598006
66.0476444487803 0.559844
66.9663166128294 0.913801
74.9839101680208 0.946955
78.0348974257382 2.02303
79.055207696876 0.664385
80.0513523422439 1.30715
81.990286424324 3.60301
82.4946924704835 7.07803
90.0059500180135 4.6518
92.0505717201026 1.26082
93.0575462590382 3.34323
102.972057314344 0.629295
106.064257545386 6.66232
107.07298160296 82.5864
107.204443816853 1.80049
108.076564745558 2.4598
117.054314300251 0.953429
118.051472983632 4.66485
119.062887071449 0.836616
123.090939448103 0.56344
124.083041988128 0.662908
125.029661913227 14.24
133.075627898588 22.418
134.083698175614 27.6246
134.225028432653 0.666958
140.052837019269 100.0
152.039690996868 1.24445
167.063553276062 78.9299
167.224771367533 1.59739

>collision 40.0
41.0271747368906 0.659082
42.983358715103 0.544103
44.9808658524922 1.09965
46.9952723996429 1.57793
51.0219350368862 3.57457
51.9967078245003 0.73995
52.0309976091083 1.26446
62.9903336444703 3.29086
64.0305008792373 1.40099
65.0388931297614 7.76724
66.046820229012 1.40575
66.9656445609574 0.592486
67.0428895224563 0.800615
73.9742804542136 2.40962
74.4790653727082 2.60054
74.9805917951949 0.747947
77.0389650041922 4.93422
78.0340789789463 13.9247
79.0536400851355 10.0698
80.0507295206265 14.5322
81.0578499365222 2.57055
81.989567006336 0.656531
84.9601756591283 1.45377
89.0391520284905 0.770455
90.0481110288469 0.549339
91.0416323459432 5.09344
92.0492305808695 8.17795
93.057627983541 7.61771
102.969008664167 0.544038
104.977154705545 0.554202
105.04293257105 0.947247
106.064878704435 69.4875
106.191514914875 1.34249
106.542602212196 0.608692
107.072885743434 100.0
107.20434497215 2.14114
108.072006542062 1.2494
110.006025279581 2.65721
117.044940161665 1.27632
118.052404810881 23.9589
118.185380363069 0.61418
119.059063765609 1.22115
124.021379078813 2.65844
125.029149329669 37.5558
125.166580938888 1.07191
133.074971222008 14.5921
133.218459936596 0.516146
140.052474549986 11.4688

