>compound Methimazole
>formula C4H6N2S
>parentmass 115.032425405953
>charge 1

>ms1peaks
115.033465430933 100.0
115.130393636134 2.11427
115.161931979939 0.886663

>collision 10.0
56.0502738100532 0.993053
57.0581604786432 6.33749
74.0062172793036 1.44744
88.0217451157832 2.58593
115.032425405953 100.0
115.129849868464 2.06477
115.159357574415 0.889862

>collision 20.0
28.0187917014755 0.956402
30.0354101897541 0.826303
42.0355829234517 2.97385
44.0503062088401 3.09845
46.9966813078344 0.59471
54.0356925465476 0.854784
56.0506674123836 19.2066
57.058665410405 71.2859
57.1278860089275 1.31921
57.1520287990775 0.546622
58.9966623204068 3.55342
61.0137540251932 0.516547
69.0457104968702 0.741478
71.0613707754639 4.79143
74.0069591627712 10.9634
81.0456970917537 2.37946
82.0531020183669 4.06607
83.0616341135285 4.90616
86.0078003650212 0.53099
88.0223588442869 17.1604
100.009693269577 4.11766
113.015950623806 0.850837
115.03313885684 100.0
115.128913154539 1.60055
115.165057728554 0.71283

>collision 40.0
28.0179544295084 2.77975
29.0383790021516 1.71298
30.0340799983187 7.01818
41.0267686195912 9.5353
42.0348773817857 47.578
42.079699521344 0.699342
42.0949042340263 0.700309
43.0423519428122 1.47803
44.0505829548131 11.5662
44.9800916582839 10.9183
45.9878610038094 4.59221
46.9969516702231 9.18883
52.0192652731651 1.40465
53.0253937576067 1.00491
54.0345778078381 36.3682
54.0885404088281 0.723433
55.0327796700149 21.0292
56.0501000268538 100.0
56.119670493088 1.63446
56.1400528332794 0.867952
56.1628705667938 0.683188
56.1780874248456 0.513961
56.2707895211641 0.500182
56.408566775166 0.609312
56.5874816203688 0.57697
57.026567776814 0.549827
57.058529934804 54.3664
57.1514125191122 0.697908
57.2660020301241 0.691071
57.9892623183801 1.30429
58.9958264831492 39.6088
59.0489888870012 1.07053
59.0836492113787 0.568014
59.9901485873995 6.55261
60.1787808604598 0.657219
61.0108055337986 1.41183
66.0274799884829 0.710822
69.0467286141578 6.57861
71.062823809648 1.07605
71.9913029937074 3.93173
72.9993336545633 12.5102
74.006574230914 8.98272
81.045036542226 78.7352
81.1090526217997 1.17971
81.151077763969 0.51338
81.2078869347394 0.819559
81.2857164821379 0.622759
82.052034584832 9.63201
82.9816458286761 0.736575
83.062116709809 7.2915
86.0030173119191 0.789796
88.0203000813277 3.54107
100.009535700766 7.11017
100.213380817371 0.501313
115.035739671777 2.95634

