>compound Sulindac
>formula C20H17FO3S
>parentmass 357.095874245982
>charge 1

>ms1peaks
35.4821428835887 0.505181
52.753897521637 0.551123
86.5887432416388 1.11829
233.083318949839 0.565951
317.041235122548 2.0104
318.015731544595 0.640326
342.089124275292 0.526971
354.625264005969 0.965943
356.115462586655 1.29109
356.30394785698 0.925859
357.100348553107 100.0
357.257019708085 2.82718
357.342981023841 0.994826
357.385352374819 1.05617
357.528891481862 1.07471
357.673710178038 0.533099
357.782181738197 0.808419
358.032137293836 0.53078

>collision 10.0
31.5040116460174 0.752802
70.0640312593542 0.898198
79.0201323846128 1.01686
100.075351920351 1.53587
111.084916705204 0.67671
126.77690634324 0.598946
233.07524593189 3.67243
280.067202185241 1.36125
294.113491946854 0.540664
297.068927807904 0.545348
312.227508448645 0.500918
313.109279963384 0.958579
339.085785863992 1.02724
340.096060893585 5.10576
342.07355308636 1.50344
356.349537724382 1.96175
357.095874245982 100.0
357.269504876966 1.34891
357.355569581773 0.700328
357.574514906798 0.779124
357.752574375469 1.37992
357.918070758711 1.18117
358.014315820116 0.520429
358.094078709762 1.28789

>collision 20.0
105.225990203134 1.1431
154.56228766823 1.1285
217.537374144972 1.42068
219.886804234477 1.51304
233.077434793047 39.4903
233.216264616838 1.35668
234.088829788267 5.73845
247.093978318357 7.38468
248.108168117988 8.42105
249.11790986949 1.07349
250.102976632371 2.09113
256.883767845298 1.39581
264.047594349791 2.73825
265.049877984229 3.46793
279.069217091766 2.03536
280.076278423769 6.85238
281.075791162318 1.30275
282.045858997379 5.42409
293.10158403475 1.87741
294.096474349773 3.33377
295.097680327051 13.3098
296.088568886524 1.55401
297.077445120481 5.47295
298.076921175727 2.39151
311.093659877563 2.60806
313.112610177187 2.08329
339.174061453496 1.96516
340.096826862096 52.404
340.21597862212 1.74831
340.258291776435 1.2413
342.078958013915 13.652
356.357189381324 3.26087
357.100381073511 100.0
357.25168147976 1.80564

>collision 40.0
118.06638301412 1.03596
135.025889190487 1.83832
140.96494568267 1.37518
147.056173773023 1.04387
152.060594729133 1.0091
159.057940887863 1.61204
161.079231806844 4.04333
162.041585049197 1.86524
173.078192185497 2.59891
186.054202716755 0.973229
191.020078752948 1.79477
215.086621568105 1.54302
225.140594216484 1.80425
227.078949998722 1.9876
228.090233971408 0.930664
233.077081279711 100.0
233.215946533197 1.24803
233.576958646715 1.55692
233.794545907128 1.31973
234.085964552522 16.8889
235.101656935894 2.14501
235.631664303795 1.09013
246.091552429022 1.91897
247.093059630923 17.6638
247.818426607626 1.0303
248.10139874775 62.6869
248.174554748608 2.89741
248.229340502931 1.07671
248.405121058799 1.18369
249.09672709152 1.81789
249.383292801902 1.10208
250.088983040119 1.23416
253.137100926435 1.89102
265.040756015298 3.95285
266.042335986937 0.916923
279.069132192285 2.63977
280.075506721693 1.24672
281.086631191769 1.47683
282.061039979671 2.39804
283.061888849914 1.83385
291.080732191639 0.975732
294.088199644939 1.52689
295.100067367257 2.8421
297.06671277762 1.8427
340.093468928418 1.7128

