>compound Tacrine
>formula C13H14N2
>parentmass 199.123335929309
>charge 1

>ms1peaks
199.123491797961 100.0
199.252390368782 1.69969
199.291856638306 0.528764

>collision 10.0
199.123335929309 100.0
199.252405847199 1.46886

>collision 20.0
171.090947541485 1.94932
199.123288369605 100.0
199.252245920802 1.26432

>collision 40.0
77.0394428262257 1.97296
91.0539045685166 0.681524
103.053747873536 1.80304
104.049256546056 0.636269
115.054379744117 1.98898
116.050079687298 5.18294
117.066772555177 4.11849
118.06433558968 1.63547
127.053651952469 3.48845
128.050775536324 3.28357
129.050031966217 0.712551
130.065353329332 6.7306
131.069145976704 0.850845
140.049464274982 2.01619
142.058957757964 1.71338
143.071423464169 6.13013
144.080715794198 85.0353
145.0779917691 0.675426
154.065161035511 1.36886
155.062179031356 1.37989
156.068446158403 3.1034
157.076078423568 7.116
158.083626772707 10.9871
166.065130902188 0.565177
167.072614961605 3.75793
168.079942608339 0.877856
169.074166758446 1.39777
170.086705466177 3.01202
171.091748552144 100.0
171.211951987465 0.666403
172.10406788441 1.63079
180.081164725194 2.82908
181.077453593364 3.05079
182.084978721386 9.53211
183.091830115429 21.1721
184.098143465234 0.733814
195.092679476222 3.99275
197.107095410997 16.5762
198.115929567993 0.710136
199.123210218668 66.0766

