>compound Etidronic acid
>formula C2H8O7P2
>parentmass 206.981020413455
>charge 1

>ms1peaks
61.0285271598486 2.1506
82.9891512195962 1.52008
98.983804525257 9.54243
109.004438769474 7.15339
124.999259371275 2.22452
206.981207016524 100.0

>collision 10.0
61.0285364543338 83.0189
64.9786316758564 0.967362
80.9734311646852 2.79897
82.9890706674468 37.055
90.9941956256254 6.43595
98.9838417090049 100.0
109.004632094059 68.4414
124.999389303685 23.9515
127.014969107073 1.24417
178.949904133095 0.652346
188.971098813061 0.522751
206.981020413455 22.141

>collision 20.0
61.0286119367712 100.0
64.9788936707006 3.10759
80.9734139672354 6.83638
82.989051938343 33.6141
90.9942382800043 19.3709
98.9837878644402 48.2799
109.004479168449 16.6755
124.999223574544 0.970703

>collision 40.0
46.9681515674049 5.95774
61.0285433264595 100.0
62.962746707439 4.76712
64.9787839990652 46.1986
80.9735393817007 51.2832
82.9890145113401 34.8313
90.9941098322889 12.8583
98.983925110867 18.5095

