>compound Deoxycholic acid
>formula C24H40O4
>parentmass 415.280091465736
>charge 1

>ms1peaks
314.916816569374 1.33867
374.845955012691 1.31044
415.280862216829 100.0
416.052053731521 1.30756
445.05205373152 1.0e-13

>collision 10.0
89.698742862892 1.84522
398.36814489733 1.55006
414.575808536733 1.58059
415.280091465736 100.0
415.475445098542 1.47518
444.47544509854 1.0e-13

>collision 20.0
236.130318372879 2.04272
415.281222577913 100.0
444.28122257791 1.0e-13

>collision 40.0
258.885046986913 74.6874
415.282609811597 100.0
444.2826098116 1.0e-13

