>compound (&#38;plusmn;)Fenfluramine
>formula C12H16F3N
>parentmass 232.131105633293
>charge 1

>ms1peaks
159.041003692348 1.63667
232.130395449745 100.0
232.319493695978 5.6243

>collision 10.0
46.0663207440676 6.29498
159.041367101201 21.96
187.072743972588 8.3284
232.131105633293 100.0
232.319522379491 5.59499

>collision 20.0
46.0658714678907 11.2877
109.044449762853 0.991737
159.041100687668 100.0
159.197004022737 5.87356
187.07183289272 5.04353
232.1297678159 7.21094

>collision 40.0
46.0659483295443 3.76449
83.0294390293075 1.00686
99.0230515357544 0.864338
109.044695339435 43.4183
109.174777083613 1.30074
119.028670904358 6.06727
139.034708022949 4.15686
159.041188773455 100.0
159.196990075012 4.5917

