>compound Terazosin
>formula C19H25N5O4
>parentmass 388.197757684606
>charge 1

>ms1peaks
75.098466832171 1.65004
147.152733729767 2.06568
157.883195622691 1.05585
290.16216234283 1.18867
348.717094685287 0.966499
367.094622017935 1.30442
371.327751605789 1.27946
388.19751009825 100.0
388.322775386871 1.31595
388.763954846801 0.849341

>collision 10.0
36.7704805103402 1.50797
214.99799560334 1.19519
221.108443222137 1.15067
247.114452437197 1.1267
259.193080449667 2.03307
290.163565248125 2.91639
308.966661397568 1.25523
347.296915779193 1.47943
388.197757684606 100.0
388.247427593597 6.48757
388.31522425715 2.00339
388.635798945526 1.18585

>collision 20.0
71.0492130257796 15.2527
72.0436644866422 3.24319
142.096608688823 3.40181
221.10280725085 6.27873
247.122432262109 8.74392
290.157527791643 21.9438
290.189309589576 2.61536
373.171184312924 2.26417
388.198873034498 100.0
388.240956040329 12.1841

>collision 40.0
30.0341093027807 15.8653
43.0537619698645 34.0369
70.0674887739249 25.3621
71.0500818793356 59.6324
98.0630583077515 11.3566
127.095962829744 10.3363
173.00947482352 6.48476
202.091323498903 20.6464
205.073335196559 7.68577
206.087396257874 7.57117
221.10840376894 28.9602
231.087009560783 39.533
232.09245411349 36.1407
232.108791506464 26.8223
233.095034529364 7.31255
245.105304848077 12.988
247.119650450396 100.0
258.104669335692 6.28825
290.160406557008 55.0499
300.144817953383 11.7381
334.311077653472 14.0654
372.171888176622 13.8342

