>compound Cortisol
>formula C21H30O5
>parentmass 363.215731651947
>charge 1

>ms1peaks
233.132330167327 3.41392
363.217061718851 100.0

>collision 10.0
62.985553580536 6.41492
121.064785921803 8.83737
123.611295904538 4.34844
135.1126212196 10.7125
167.081341476776 5.14023
185.129527377648 5.2628
327.199442015666 9.86047
363.215731651947 100.0

>collision 20.0
83.051531819912 28.3617
91.0555838589844 24.1464
93.071579051884 19.3039
97.0615969877631 27.4899
121.06344696024 57.0699
145.100244142076 29.7535
149.025011931779 30.4948
161.059869296256 33.5696
163.107225190625 18.5775
171.115723545565 16.3204
187.106675484057 22.9036
211.140014307015 20.1345
213.132777213227 15.6897
243.164857466764 15.3052
249.15791831689 16.0297
266.16228805235 17.3645
297.187928961046 20.0589
299.193884234408 14.2792
309.185838601118 80.6379
321.18647384424 13.6134
327.191964991216 49.6244
363.216234228095 100.0

>collision 40.0
53.0416174740103 30.506
55.0545829958233 27.3502
57.0692440617492 26.7668
67.7543926424691 20.8103
105.0691330554 100.0
119.081212744272 24.312
133.176826397395 20.793
137.060090066976 41.2463
137.093537275101 30.2832
142.075984699036 49.1544
145.1033399601 33.3491
147.114547206753 33.3286
154.075494248303 27.4444
157.097514325796 78.5971
171.075833292838 33.5557
179.088500563521 23.7672
184.089102245991 25.0607
210.135129523478 20.7011
227.139142885379 26.6732
241.153908973525 21.333
271.170720312341 25.8846
275.140681013617 30.7294

