>compound Methotrimeprazine
>formula C19H24N2OS
>parentmass 329.168939430064
>charge 1

>ms1peaks
100.111975353998 1.21089
329.169133760847 100.0
329.250961972922 1.81099
329.336611726977 2.9828
329.388226687149 0.91519

>collision 10.0
58.0658681189897 5.33067
100.112243542829 17.2203
100.140154617036 0.51541
242.063114544798 1.13555
284.109853454283 0.713858
329.168939430064 100.0
329.249043836317 1.75983
329.336545038206 2.76016
329.388120873747 0.798279

>collision 20.0
58.0658909707951 54.2942
58.089056069331 1.58608
58.1045706444534 0.524576
58.1377305070992 0.727499
100.112322369429 100.0
100.143045026133 2.55393
100.161537835707 1.19681
100.183141861452 0.812695
100.206525894388 1.92291
100.232248495262 0.50373
210.091125555812 1.25267
229.055137703107 1.54138
242.062906055797 9.39733
251.130028766102 0.511294
284.110147202452 3.78841
329.168212887879 38.3631
329.217458050395 1.34363

>collision 40.0
44.0496026066753 1.06312
58.0659373344844 100.0
58.0894925531582 2.55291
58.1041108128646 1.18474
58.1198724780075 0.832313
58.1377519358301 2.06075
58.1574920394126 0.531543
71.0737164191387 0.550741
85.0890712871058 0.863186
100.11226253776 32.3042
100.139455225647 0.968566
167.072637166392 1.25537
186.036996754768 1.03502
195.067317213351 0.500079
199.04455422773 2.25446
208.075097017743 0.567763
209.082978441093 1.13982
210.090994935047 8.24484
214.031621212401 1.68255
227.039672814248 3.72735
229.055289315961 1.95237
236.106477548887 0.504497
242.062786140407 2.50407

