>compound Terbinafine
>formula C21H25N
>parentmass 292.205064850831
>charge 1

>ms1peaks
141.069618231127 4.82915
292.205358378899 100.0
292.358535345307 5.94225
292.424003050202 2.61421
292.526984026193 1.13658
292.568955550612 1.31727
292.625587504676 0.786806
292.693919355045 0.7093
292.733563667433 0.71283
292.77322976625 0.660933
292.858318907597 0.565458
292.893648024945 0.534118
292.931949165495 0.500716

>collision 10.0
44.0504395225809 3.08238
57.0706342476798 0.859288
79.0544670169831 0.637666
93.0700831046958 6.04857
105.069947401115 0.948698
121.100837500079 1.53622
141.069033778906 65.1363
141.178443175936 2.93147
141.212719365998 1.39319
150.127361252426 1.53559
170.095842427211 2.77223
179.085040834595 0.530166
205.100590617296 1.77789
236.142681833668 0.512754
261.163156989517 1.06441
292.205064850831 100.0
292.359111116575 5.41694
292.417891387546 2.27976
292.527475548517 0.894923
292.569006921817 1.03044
292.635466724353 0.646204
292.734143055635 0.583238
292.772586528042 0.537321

>collision 20.0
43.0550350721978 0.690048
44.050395646758 1.43778
57.0705799880906 0.514794
77.0390645113077 1.05569
79.0545660271695 1.42545
91.0545126760357 1.81106
93.070206364695 10.4694
105.069807928909 2.27793
115.053978254004 0.795529
121.100900890419 0.970131
141.068973474675 100.0
141.176642298536 5.37178
141.213872418844 2.67738
141.268433981797 0.944221
141.294932786556 0.888475
141.321999383345 1.06056
141.352261453365 0.586549
141.385726921212 0.541248
141.436647795824 0.512062
150.127556302333 0.824507
170.095736603068 1.56407
205.100517804666 0.788604
292.205888726531 2.14739

>collision 40.0
55.0548963201435 0.727578
77.0390657376544 7.8719
79.0546930440511 2.66717
91.0545046352209 6.13755
93.0699761619472 2.93431
103.05420928838 0.729798
105.069805449805 1.09529
115.054328426918 13.5139
141.068975137123 100.0
141.178159105528 5.27251
141.213812224875 2.62322
141.26819737674 0.911963
141.294943208384 0.852975
141.35133020479 0.575469
141.385421631592 0.515997

