>compound Flunisolide
>formula C24H31FO6
>parentmass 435.219245005117
>charge 1

>ms1peaks
171.081595858047 0.850859
223.114204884888 1.01477
261.129706265245 1.25694
269.111193399233 0.517555
275.14222022313 0.602765
281.153990548638 0.551596
293.163877511133 0.925919
303.13792433906 1.83228
311.171176294446 0.626933
321.149041240843 5.03685
339.158147029194 6.7826
357.176720900699 0.655877
359.164947943694 0.620716
397.204071444241 6.62824
399.208549417102 0.521938
399.517365034811 0.598955
417.208769051905 7.03004
435.219245005117 100.0
435.3998154294 1.74779
435.461161427953 0.991344
435.501848362879 0.872133
435.58152186889 0.778831
435.716662041368 0.85688
435.865458988415 0.769471
435.938799017946 0.833396
436.006667680297 0.935944
436.210893762764 0.85972

>collision 10.0
56.7792277492665 0.882886
59.0482026261621 1.4029
95.047268351043 2.7639
97.4497382732457 1.11337
101.020171300632 1.0315
107.044491897523 0.963023
115.037605116969 5.03544
121.063358556788 2.73205
124.960127337097 1.16298
135.077909841471 3.33559
147.076605076 1.97971
149.057669199789 0.903424
151.073321208907 2.16893
155.068884507237 4.75895
159.082899153995 1.54484
165.073277576925 1.11861
171.077424348197 4.20295
173.094723816648 3.73817
175.079154001307 2.99168
181.087770457565 2.74787
185.090581928482 2.30027
187.106644131564 1.95973
191.089432323816 1.50533
197.091977869416 10.0806
197.565244147781 1.67454
198.411602776389 0.990533
199.113738914832 1.29409
203.078256540172 2.11212
211.105514926411 4.92531
213.118897677866 1.98408
222.103526238856 1.63498
223.109514307052 9.29314
223.930035920358 1.19824
224.114772399531 1.05555
225.126060895404 11.4629
235.102510081235 1.15084
237.131306075598 3.06545
239.136653356328 5.63195
240.701238552495 1.448
241.10606127024 1.73767
247.110623396781 1.43328
248.535990675281 1.16402
249.124870363379 4.68195
251.143623768076 1.82661
252.325658530523 1.03003
253.11287611518 0.960269
257.135804673679 1.4906
258.108922405392 0.899336
259.108290570388 2.83619
261.126404090051 9.36204
263.135637414771 8.26146
265.159117921583 4.44186
267.136244433347 2.38332
269.119181003628 1.27694
273.138618595134 1.79872
275.136972289479 10.357
277.147120468621 2.19697
277.849285536445 0.921609
278.12939121731 1.09823
279.136822014384 7.07701
280.604118292491 0.969657
281.152070605361 6.20789
283.156251835232 1.84452
285.037079216513 1.16461
285.126741608674 4.22025
285.164196036606 1.42482
291.130000609804 3.19506
293.152305035533 13.5467
295.127188307752 1.42221
301.171241079136 2.52436
303.133569568722 13.0411
309.139286364116 2.49142
311.162061296273 5.61174
319.134835559081 0.877538
321.145546590703 58.4123
321.360091454743 1.17131
321.820121718291 1.86439
322.448227817054 0.983463
323.144647547799 2.8018
325.154964877663 1.49558
329.180311736833 1.34283
331.167513749939 1.27293
337.490567124599 1.05204
339.157299169415 59.2295
340.804767622155 1.00728
341.152145658846 9.17814
351.187877714336 1.80837
359.16252510738 6.40702
379.200021100282 1.43766
397.196568974571 39.0589
397.332815320109 1.31512
397.375170483845 0.964919
398.212372267647 0.903471
399.297530038348 0.906593
415.212227711044 3.30524
417.206082108166 41.0323
417.341527156888 0.882104
417.611565211048 0.901077
435.215366742059 100.0
435.395233028762 1.75844
435.465227081976 1.07632
435.611336271366 1.10721
435.913199254718 1.20673

>collision 20.0
43.022623642609 6.17557
43.056155684108 4.17746
69.0308964991441 9.70297
87.0459856817915 8.41673
93.0675561886173 5.05226
97.0204863858113 4.00979
101.02084845528 6.81805
102.602366197976 3.68873
105.069375791269 8.44965
107.08600636348 7.7665
113.016820585365 3.21656
115.03767773983 15.0007
119.079394192076 10.2842
121.064683764987 40.2833
127.036617364532 7.56062
131.091562292444 5.06485
133.061420993138 6.9718
135.082231108395 21.1078
137.061924345174 6.8011
141.055350352651 5.3104
145.05873718004 3.80604
147.081905354466 13.3421
151.068746777887 5.86432
155.073404982473 22.2215
159.083768194136 12.8905
160.05296735893 4.68349
163.080697643373 5.71687
165.076709584358 3.2305
167.094691335628 5.81165
169.06008826537 3.55126
171.080790948256 38.4381
171.126467593196 3.61427
173.093372240177 12.198
175.08574749192 4.02152
177.089311704584 3.52989
179.252561864153 6.48943
181.093380161289 10.3595
183.082206408287 5.75598
185.096204749771 19.4584
187.085187513748 7.38949
191.099845554115 6.98268
193.085335875246 3.28778
195.075823306722 9.08533
197.094214363622 59.2155
199.117094396928 10.1046
205.096070411968 4.74265
207.112546900635 4.65268
209.104217381506 6.97035
211.109459461959 19.0981
213.116319175119 23.6204
219.107667337956 7.25718
221.10071906153 15.7974
223.109281495856 80.2614
223.177777546958 5.25726
224.121774386108 9.03704
225.127950750857 54.6137
233.093602688363 4.525
235.11522296106 37.4518
237.132567979506 14.6002
239.142041175985 30.9862
241.117806258841 3.20759
245.11202741793 7.32512
247.106876098237 7.62204
249.130475704657 35.0108
251.143783692414 18.2867
252.151694703826 6.4181
253.122146673853 9.4803
255.138073592979 4.80485
257.130890760064 7.15512
259.117202435251 5.39945
260.114863517008 19.6323
261.125064145455 62.9647
262.146068198537 6.31717
263.144556517265 100.0
263.300680985141 4.89158
265.159088462887 29.2785
266.11984253764 6.9832
267.128722781492 9.14164
273.132356461877 14.8351
275.143007458198 56.817
275.223883825392 3.28837
277.123449258334 9.8012
278.122311254719 10.6473
279.139061694972 25.2182
280.068728968991 4.51826
280.148825042084 7.96574
281.153153858625 19.0934
282.142827502664 4.20195
283.141254313772 17.916
285.129344790494 14.1026
291.143565012355 13.196
293.15216665652 57.3359
295.139372644037 5.96078
299.125636897365 4.3516
301.182129762737 10.931
303.138727057083 58.3919
303.212694918336 3.71657
307.128324601196 5.49968
309.147408265803 12.9411
311.161750709928 16.5358
313.158876648167 7.77224
319.147533038529 3.20982
321.154064287749 69.2081
339.15773621739 81.6785
341.141818863902 5.53453
360.171045375281 8.92635
369.144018308959 6.42778
388.116858986926 3.21953
397.203358437036 21.0309
415.220141791647 4.37601
417.206372703067 20.709
435.199421202971 4.19794

>collision 40.0
41.0382856088635 3.38168
43.0177134768447 6.34935
55.0152598240967 6.1699
59.0487278709256 8.99352
65.5526779460611 3.73047
67.0566701865351 8.56045
69.0345378134073 11.1914
69.071555361822 9.56466
79.057634254995 12.743
81.0672237329518 3.67453
83.0474623375833 22.6067
87.04178282291 9.44777
91.0539522624714 21.2569
93.0717487145585 10.2504
95.0469326166508 4.26901
95.0852536384916 8.95758
97.023003250749 4.086
102.126165457488 9.08384
105.070376228991 15.898
107.049612857339 6.23587
107.089795485109 5.85736
109.062408429385 12.835
109.102719133797 8.28451
111.048339129959 4.20598
115.034950259261 16.7629
117.069180680883 11.6258
119.089005094148 3.55184
121.064318582041 85.7172
123.084911340256 3.96749
128.060644680095 5.56994
129.064159106375 6.27918
131.091355216266 5.37224
132.089510634236 3.41348
133.062197438138 10.3676
133.099963988481 4.22141
135.07962941446 8.88547
139.066103957719 4.66376
143.08556790972 14.2777
145.073477176187 27.2057
147.081434897511 28.8216
149.125573075021 6.09438
151.080759053417 4.67282
153.073300754675 5.27693
155.082802444001 17.9906
156.051599651917 5.75462
158.077367140655 5.93601
159.079566077856 17.8115
161.089803998569 4.41061
163.07544030892 6.72547
165.06884100206 10.4153
167.085551674399 3.54685
169.069075284708 5.55723
170.067991871829 7.74035
171.079562368874 100.0
173.084594314107 7.48963
175.074870722881 6.82655
179.090609440687 11.2747
180.092348658749 14.29
181.065988120263 7.14766
181.106923415679 12.6143
183.077444720693 10.8334
185.096654881482 26.3816
190.076738543936 5.77932
192.096895027004 4.28695
193.09575602168 8.33
194.046841619141 3.76926
194.102769160418 3.78754
194.394471965169 4.71358
195.073929488785 8.41025
195.111752636409 8.64124
196.08721250492 8.28472
197.097409832762 31.1928
198.101771171752 8.11681
199.107229414997 5.61631
202.080177998026 6.18336
203.081455219741 3.46298
205.107009006069 11.4899
206.105799198115 3.66705
207.115089751523 18.488
208.089630409302 38.3748
209.102071405694 38.0662
210.095488817044 8.91896
211.109048103034 10.4708
211.234316741631 3.96268
212.117403072944 9.50599
213.117373890565 16.2726
216.096987591714 9.69788
217.091971549226 5.65198
219.106871088133 7.17789
220.083217858128 6.79373
221.092598477888 15.5823
221.127021913316 6.67946
222.10448801602 13.8416
223.108512860216 21.9964
224.115305734149 25.015
225.125062802658 28.8612
229.096206629424 5.80652
230.10715003014 10.0578
231.034197114711 3.73184
231.11974975707 3.51163
232.121436202738 5.84115
233.092617264657 15.3357
234.102253446313 7.88445
234.550027035262 3.92384
235.109671443072 53.5972
235.991620699458 5.37367
236.123065393609 5.79543
237.132235030047 8.52176
241.099674155167 8.08358
243.117195474438 10.7106
244.123904780045 4.40818
245.094096982789 16.6212
246.105103819258 8.22621
246.192494838333 4.67938
247.106427282473 21.4141
248.115913092215 16.3335
249.12994177059 16.9483
250.102376829244 4.86698
251.12261791119 7.09024
252.155014951771 4.07664
257.132110438772 6.95731
258.099284206933 8.01921
260.117705225333 19.378
261.128440533948 14.6849
262.145034200829 13.9286
263.146033445306 14.3654
265.081055149976 5.27299
265.139898041623 7.58505
269.151576140338 3.94207
273.129038793264 14.1946
275.138187780615 9.39831
276.113830903432 6.52317
279.144220151956 6.09164
283.139300047148 5.94505
285.124066765084 6.9421
290.120322185682 4.06367
291.134481296106 6.03351
293.151091598272 5.44234
295.154505172317 5.5589
303.138791581276 3.47345
306.125053527597 3.4694
418.757286844918 3.35292

