>compound Trigonelline
>formula C7H7NO2
>parentmass 138.055311177282
>charge 1

>ms1peaks
92.0501996204041 1.84071
94.065959547783 1.78919
138.05518801276 100.0
138.161041324953 4.94168
138.198387123303 2.29445
138.251108801632 0.820735
138.278050362438 0.752633
138.304634801843 0.95861
138.338447433622 0.538192

>collision 10.0
53.0397782041221 0.826125
65.0399230208659 1.24931
67.0552480210395 0.77443
78.0349437817944 2.47535
92.0506461106558 12.0889
93.0579985205444 0.999559
94.0662755012225 11.7308
138.055311177282 100.0
138.161332685748 4.79005
138.198279603318 2.22274
138.250895232908 0.779678
138.30494076671 0.927087
138.335524968274 0.522431
138.368767230026 0.501325

>collision 20.0
39.0238520795636 1.23832
41.0393724029237 2.37651
42.0346418950961 2.59804
51.0235306632688 1.88854
52.0311958019099 1.27705
53.039260157386 8.34298
58.9883672451641 1.47427
65.0390824187872 13.8248
66.0404753274268 1.78858
67.0540899029373 5.84205
77.0383776154207 1.32517
78.0341091181237 18.2996
79.0418740533767 5.76313
80.0494456560448 1.29679
92.049794533674 59.5918
92.1374326948049 2.02967
92.1646680265609 0.847599
93.0573180895258 8.65392
94.065396066678 57.6922
94.1548297881045 1.89917
94.1814410695363 0.833263
120.043879154673 1.57301
136.038540133757 2.25675
138.053916778118 100.0
138.161441369833 4.04525
138.195886878643 1.69175
138.275258587891 0.50162
138.303643390848 0.627483

>collision 40.0
27.023581678242 0.536297
39.0241996203257 33.2686
39.0820670136649 0.610878
40.031990610371 2.90441
41.039738005005 20.9047
42.0351385491935 16.2525
44.9983511350586 2.00077
50.0164643204645 7.87817
50.9735514060959 1.72513
51.0242408011519 45.7039
51.0897899295182 0.882743
51.4773179298729 2.92799
52.0319667620404 52.8433
52.0982316059242 1.1472
53.0397865225789 37.9086
53.1066234706068 0.839165
54.0353823229069 1.16494
62.990704631137 0.756268
63.0241566089487 0.668427
65.039820652689 100.0
65.1131471691682 2.33477
65.1359730550064 0.915114
66.0401650733897 35.3884
66.1071537132891 0.911918
67.0479407767541 18.5741
68.0504125760446 1.10156
76.0192515267826 1.87721
77.0327147550461 6.2068
78.0348618837109 62.2775
78.1163586172052 1.23666
78.1418496408342 0.521848
79.0427586633332 62.6787
79.1243328467994 1.17797
79.1507308344986 0.603966
80.0504901511736 14.619
91.0432294459084 1.07479
92.0504664934892 66.1003
92.1383694849503 1.2508
92.1649579951112 0.611786
93.0583220953613 35.3261
93.14655523579 0.595819
94.066143495217 36.6823
94.1552343051133 0.729545
105.02200842674 0.503866

