>compound 1-Naphthylmethanol
>formula C11H10O
>parentmass 141.071082205172
>charge -1

>ms1peaks
97.989132022025 0.516271
115.053140606417 0.603122
140.960089458713 4.68268
141.013061537307 0.897364
141.069491543391 100.0
141.175994470965 1.4883
142.17599447097 1.0e-13

>collision 10.0
96.9745528816562 0.523994
115.05566278042 6.87534
122.94913974322 1.03868
141.071082205172 100.0
141.177959396801 1.68457
141.21513073711 0.625389
142.21513073711 1.0e-13

>collision 20.0
56.9632072062728 0.818308
63.0218064093975 1.13764
91.0511929562156 4.31909
95.0811893595694 0.832713
115.053032210406 91.423
115.151971958406 1.22363
115.185105787806 0.536816
115.242050963677 0.795852
115.803811172031 0.679509
139.052914326148 1.3095
141.067635898191 100.0
141.173402210552 1.07137
141.213657518924 0.528262
141.262299079727 0.537552
141.842730615544 0.550251
142.84273061554 1.0e-13

>collision 40.0
39.0214764964986 1.2025
41.0399594886121 1.23577
44.0477086243157 0.567515
51.0245624940966 1.25473
54.9480164954229 0.530912
62.0110786404216 1.32766
62.9822744575578 0.897244
63.0234103707004 15.1006
65.0391364965286 17.2305
75.0254726529522 1.22237
77.038637648735 0.585128
87.0230476200379 2.84889
89.0385082147735 28.0986
89.097403330221 0.872448
91.0539179651775 8.09906
102.045889267512 2.36121
113.038827675792 0.88914
114.044528760413 0.816579
115.05370889112 100.0
115.145875584869 1.52325
115.48392390242 0.750437
116.057954018741 0.593632
126.043741183359 1.48074
139.056094646703 5.28939
141.071220737676 3.15385
142.07122073768 1.0e-13

