>compound Succinic acid semialdehyde
>formula C4H6O3
>parentmass 125.020875424244
>charge 1

>ms1peaks
104.034911046228 1.31765
124.08800394242 1.80972
125.020875424244 100.0
125.122067224754 1.87785
125.153237584256 0.981979
125.183008842367 0.578332
154.18300884237 1.0e-13

>collision 10.0
40.9873003087789 7.40038
42.034439088862 45.3098
57.0319452988537 3.91847
60.5181059114923 30.2387
61.0204184555233 5.24306
63.004192786649 6.39182
74.5165914197875 30.3748
74.5634206791507 2.18945
75.016968776986 6.04503
75.5539525375239 2.17166
79.0035397487282 6.44151
81.0209460035582 8.4153
82.0141974832496 11.7477
83.0200676242355 7.25672
83.0592314728236 2.5012
85.0258664977761 7.78924
91.0679170308405 2.78983
96.0559710057026 5.72426
106.000870476348 2.59427
108.079694259944 2.4342
121.028966684629 3.15842
121.962113485618 2.41435
122.044441927132 7.38504
123.050732836745 2.17419
124.086151551818 78.2133
124.191670901565 2.52945
125.019790389691 100.0
125.085714197357 8.04539
125.159745996854 2.14211
154.15974599685 1.0e-13

>collision 20.0
32.503991999011 6.1434
42.0349857481261 100.0
42.09014956626 2.51233
42.492643678656 5.08069
43.0184691438563 4.39261
46.5167974817272 3.73929
47.5125847164494 3.12847
55.0184310838031 4.06093
57.9374877370223 3.39723
60.5191430274879 20.4432
61.017804409077 7.4796
65.0052582972232 7.47551
66.0179778772945 13.9935
67.0158391078149 2.48551
69.0711602189626 2.93318
69.5235093377394 3.78423
80.929255523494 3.79961
81.017780467138 8.40467
81.0672491657654 4.55677
82.0168928397094 11.6735
83.0159327110707 4.92788
83.0586795000962 4.93557
85.0279075680903 3.98114
97.0175885088088 4.1062
106.010935585786 5.02839
107.058325943228 4.73122
124.083355659475 10.1907
153.08335565947 1.0e-13

>collision 40.0
33.0044945384617 12.1872
39.0233426520584 44.3596
40.9880783266201 68.2616
42.0349499991507 100.0
44.0480372354579 15.2151
51.0084768322605 30.0803
56.025267764444 15.02
56.9659399274244 9.22567
60.9596304380824 12.2066
63.9257788174307 10.1267
65.9253115108921 12.7928
79.0050896842831 7.75955
94.030923465146 7.2747
123.03092346515 1.0e-13

