>compound Terbutaline
>formula C12H19NO3
>parentmass 226.142153585947
>charge 1

>ms1peaks
152.072791968275 2.84087
170.083227064311 0.864321
226.145349545241 100.0
226.282078313078 5.09487
226.336599253651 2.43149
226.429967808623 0.95974
226.4657318021 1.1158
226.51508599145 0.689313
226.575258225891 0.644753
226.610426246306 0.640521

>collision 10.0
57.0708586475205 2.11772
107.049309836956 1.20746
125.059737984371 2.21458
152.069118487741 100.0
152.18329692698 5.15947
152.219159878536 2.2058
152.253687881315 0.953741
152.304122509701 0.696937
152.333411587993 0.898023
170.081483473764 23.2887
170.199741157851 0.689292
208.133451710546 4.87559
226.142153585947 86.5217
226.279678177948 3.93363
226.326279576791 1.83879
226.42770574436 0.578603
226.462842591862 0.711326

>collision 20.0
57.0715812149394 10.8108
107.050713247143 9.20492
109.0661553363 1.18151
110.061245845178 1.49394
125.061287440467 21.1904
125.163478547273 0.645991
134.061331855069 0.512282
135.045696225226 2.79824
152.070959785746 100.0
152.183562691811 5.22543
152.223244413144 2.16341
152.304443336177 0.803394
152.334248526442 0.99204
152.375824696278 0.557007
170.083279616893 1.04367
226.146778681529 0.625366

>collision 40.0
29.0391810550388 0.603278
39.0245160285893 0.625637
41.0399589603722 7.30727
42.0352723577097 0.73926
43.0193355659906 1.01107
51.0243456706183 0.754404
53.039903846964 0.69455
55.0193307623264 1.28125
57.0713978572091 20.6669
65.0399518200327 0.908242
67.0536419455612 2.05298
68.0508358207829 1.02152
68.9984386195563 12.6297
69.0705400590333 0.544664
70.0301609646927 0.683015
77.0400183733931 26.5686
77.12077358013 0.632983
79.0556459979939 19.8979
80.0507474582505 0.560924
81.0349120818121 1.11154
81.068137557124 0.868536
82.0662002105474 2.44704
84.0821520050125 3.5736
89.0396089715499 0.613505
91.0554390141211 1.217
92.0508590631566 2.23078
97.0658009279035 1.19845
106.066367738677 1.73939
107.049477454242 100.0
107.144315476758 4.05504
107.174229416603 1.70997
107.202406280296 0.751771
107.244080094839 0.50148
107.269799045272 0.579388
109.061894581031 1.12057
110.039779988623 10.0174
116.050869746458 1.74582
123.045387354969 1.82645
125.06109451451 23.7849
125.163220051813 0.504726
134.061009159895 1.03136
135.04597572457 1.68153

