>compound Terfenadine
>formula C32H41NO2
>parentmass 472.321484085429
>charge 1

>ms1peaks
436.298194130588 0.643631
454.30847581472 1.16084
472.320199811751 100.0
472.593863423846 3.73718
473.314626549108 0.720974

>collision 10.0
57.0713104936247 0.519669
436.300155879638 4.27785
454.310329634899 9.83047
472.321484085429 100.0
472.596280804728 4.2498
473.301708340763 0.614773

>collision 20.0
57.070417464732 7.62165
129.069091355022 1.29889
131.084771535947 0.629137
187.14667149211 0.5682
203.141857972176 0.721781
262.157981470283 1.49317
436.298117778481 63.8284
436.559270581221 0.88409
437.299290748044 0.708811
454.30840890183 74.2381
454.568578200589 1.36075
455.310343792907 0.595379
472.319177528643 100.0
472.591723453744 1.93041

>collision 40.0
41.0393065231337 3.60733
44.0506130769401 1.05516
56.0500992735153 1.17179
57.0706377289308 100.0
57.1653294084755 3.31881
68.0498043292902 1.11318
69.058230533597 1.28925
70.0657618891495 0.733899
80.0497316502407 1.05286
82.0650991913392 3.05427
83.0729706939364 1.30212
91.0545759412625 7.52369
96.0809608651382 2.21995
98.096543145993 1.32189
105.069522827353 1.62852
111.103954796677 1.60902
115.053501525487 0.527171
117.069695675358 2.05819
120.079745986627 0.50411
122.09548454759 1.33873
124.111599764829 2.80443
128.061127202873 0.964873
129.069448878221 10.0311
131.085034068702 7.87146
132.084962121775 0.906012
143.084769459517 1.83897
147.116490365526 5.85079
155.084895111703 0.70672
161.096122306197 2.50759
167.085938645031 1.71496
187.147231821508 1.20616
191.085159035434 0.532257
203.141769836811 4.23812
205.10009107666 0.830675
216.092841419389 0.745573
219.11593113433 1.2494
230.189842246817 1.80487
231.116673473313 0.757622
242.190949589967 0.688675
250.158776328262 1.31096
262.158239072084 10.1405
268.204959181503 4.4646
270.220926522329 0.716211
280.168873252344 1.06456
288.174484586371 1.96905
436.298750868227 63.9115
436.560669499383 0.699213
454.309240446409 12.4274

