>compound Fexofenadine
>formula C32H39NO4
>parentmass 502.298458334827
>charge 1

>ms1peaks
502.298458334827 100.0
502.493189425842 5.35321
502.580838851304 2.34629
502.713098796996 1.14924
502.772547692547 1.22313
502.841535549927 0.910319
502.935690721374 0.845323
502.987295055097 0.863075
503.055744467186 0.828399

>collision 10.0
466.27396756588 1.90152
484.284644538915 3.50378
502.292465418559 100.0
502.493432722565 5.25708
502.581872098833 2.45697
502.715383696778 1.07342
502.770650632176 1.1905
502.861264543193 0.825797
502.984868544421 0.776505
503.035277240513 0.732184
503.097588645541 0.67993
503.15185278927 0.665319
503.196780770751 0.638935

>collision 20.0
171.118464206339 2.32407
262.161554159732 0.543555
466.279618728099 27.1369
466.467486458094 0.778286
484.290289849753 33.3789
484.481940737987 1.06384
502.297824096312 100.0
502.49307319501 4.89624
502.574917591042 2.08375
502.712827955725 0.949408
502.771907879563 1.02687
502.857484148458 0.801045
502.931635485088 0.762953
502.986065378327 0.759433
503.044219001214 0.7138
503.106573936839 0.693688
503.198629460791 0.65196

>collision 40.0
44.0508823778919 0.758741
56.0513000341386 1.07883
59.0508377811301 2.229
68.0515056876575 0.749322
69.0590187823823 0.763905
70.0671704587831 0.696921
80.050846078927 0.787796
82.0668326021709 2.34623
83.0749529472647 0.743177
87.0457249507313 3.73259
91.0557190094626 8.80689
94.066520053769 0.550073
96.0823348348982 1.93616
98.0978894756233 1.1473
105.071306768715 1.42579
107.050954285171 0.712915
111.105463385259 1.10107
115.055864080428 0.709121
117.071166332107 2.04044
122.097682573283 1.18657
124.113497099813 1.75992
128.06310324139 0.926436
129.071378331849 8.18255
131.08709241679 29.6807
131.190884211883 0.690926
132.083160003817 0.716573
133.102815763595 0.730263
141.071285194502 0.699971
143.086972668769 6.16941
145.102146072277 1.44963
155.086740283925 0.73184
156.093738166223 0.506088
157.102682433759 0.549941
167.08703997709 1.59403
169.101886104619 0.736776
171.118635771528 93.9636
171.237573337149 3.22715
171.27628845741 1.38319
171.335360853785 0.541876
171.396068531295 0.522803
172.117531308414 0.724075
173.134103041743 1.64482
177.092978740038 2.56857
181.103201449587 0.758364
183.118133059344 0.652773
189.128951692819 2.37902
191.075065855477 3.21097
199.114081742449 0.830604
200.145157506517 0.665121
205.103445347524 0.920242
216.095390933491 0.56331
217.12326542233 1.03407
219.119130460038 1.21777
231.119698432899 0.783601
233.120018742972 8.24393
246.150825027511 1.58403
248.15537880269 0.722542
250.161849430592 4.19461
252.177376848082 0.598542
260.166523813744 3.07915
262.161627862955 14.7588
272.166903477379 1.51641
276.173149474911 0.695983
280.171696548836 1.36958
288.177703127479 1.91597
298.183036231286 4.82552
466.278625434883 100.0
466.468908080892 3.43547
466.537793032708 1.49795
466.677898210882 0.713502
466.733338587787 0.725456
466.807322965926 0.648592
466.853009771498 0.623221
466.989433170148 0.596068
467.048388896752 0.579107
467.138784280077 0.531864
467.281317553227 0.683266
484.289162670623 18.5967

