>compound Fluphenazine
>formula C22H26F3N3OS
>parentmass 438.182961640009
>charge 1

>ms1peaks
171.149619713534 0.716863
438.184012890011 100.0
438.443227000702 5.34488

>collision 10.0
143.117628618321 1.70928
171.148582976331 4.31925
398.170598502101 0.517308
438.182961640009 100.0
438.443156652861 6.03242

>collision 20.0
70.0660492108805 2.03354
86.0970596523322 0.547086
98.0879891609004 1.57027
100.076174434644 2.11847
113.108092479673 0.559137
125.107066603724 0.622217
128.095222418039 0.659719
141.11038738712 0.584447
143.118034628915 15.8892
171.149192900281 32.1728
171.309193486386 0.754362
258.038505659958 1.83405
280.040146331617 2.25209
308.071808671686 1.07897
398.170427231203 2.37902
438.183057800859 100.0
438.4431347385 4.1089

>collision 40.0
42.0353960320978 2.82403
44.0511273377437 1.04388
45.0351188097463 1.71226
56.0509489421705 4.44067
57.059905489334 0.635424
58.0668155377897 3.41865
70.0664424957065 52.7482
70.169166822851 1.2107
72.0448953462423 0.647601
72.0818639512781 1.27693
74.0608038072436 1.44229
82.0664662753519 1.44783
83.0624770604146 0.616944
84.0817895603525 7.31783
86.0971142581634 3.82351
88.0770471037047 1.0287
96.081697035164 1.86752
97.076653217942 5.50759
98.0870579119072 36.7834
99.0959943984851 1.30356
100.076542844446 50.0024
100.198057778391 0.866097
112.099844967664 1.78974
113.108381161368 6.86109
117.071106289896 0.51844
124.100701073343 0.842698
125.108182762726 2.88736
126.115586542034 1.40513
128.095346497996 7.32062
141.120407831415 4.19428
143.118530053541 100.0
143.264662506773 2.00092
171.149589559664 44.0884
171.309215476675 0.653081
226.066894469818 1.62476
239.077007794413 0.814475
247.059131738735 0.652053
248.068491270856 14.8308
258.039506661271 3.90006
260.034692085911 1.88682
262.051445382676 0.789343
267.033598835989 0.743779
274.084316783757 0.628272
275.091899268858 1.12889
280.041018933222 22.1534
308.072201112221 2.52593
438.181761448524 1.68952

