>compound Methoxamine
>formula C11H17NO3
>parentmass 212.128320429973
>charge 1

>ms1peaks
194.117485457502 28.8533
194.154451458973 0.88519
212.128320429973 100.0
212.174957682139 2.61364
212.230914607475 0.851077
212.26438174101 1.79743
212.304931113487 0.514699

>collision 10.0
121.06496554816 0.578256
138.066838626837 0.585132
147.067417167702 1.51341
162.090969086209 5.80473
163.075530933938 1.16128
179.093715582534 4.19754
194.117636317304 100.0
194.162122347278 2.53122
194.215915651462 0.953537
194.24780081107 1.96968
194.285401547915 0.556759
195.101344661123 1.26387
212.127426028159 2.38246

>collision 20.0
42.0338502430275 1.69442
43.0178979363593 1.16291
55.0183515755617 1.31881
56.0501143144164 9.60871
77.0388599938631 0.803148
79.0553594609226 0.894508
91.0544622090277 3.02795
93.0698508803744 1.02886
103.05454252292 0.909645
105.069416432392 2.79374
107.049348384103 0.818441
109.064283595045 1.39146
117.068719855957 1.37957
118.064798154341 0.788344
119.072947848933 3.75335
121.064572352986 15.4573
123.043846630327 6.95494
123.07916838253 0.760495
130.06482369432 5.0285
131.07284278325 15.9357
132.044451257761 1.79503
132.080499864023 1.33922
134.071637449591 1.06331
135.080238460921 10.431
136.075696553211 4.99264
137.059332530891 8.37632
138.067289666886 31.2663
138.098782099212 1.14561
146.064353072139 2.04329
147.067515890565 56.7246
147.101184161799 2.23427
148.0754521648 2.40655
149.095920262434 4.34622
153.090381453447 2.93786
161.05971836719 1.53789
161.083033517751 0.77863
162.090691164752 100.0
162.123860230249 3.5899
163.07574003381 4.50225
163.097999967544 3.13865
164.070354221833 15.858
165.090482069917 1.27966
177.090840304938 3.5265
179.093688627017 70.8149
179.129894716864 2.5917
180.076440577116 1.96985
194.117199333597 86.7331
194.160029793849 2.86117

>collision 40.0
41.0386141508629 3.58258
42.0340127014474 27.2675
43.0180504123949 8.98604
55.0182332456226 70.7768
56.0501828468098 10.9432
65.0392024124191 12.5344
67.0548050893827 18.1766
77.0390440525245 36.0922
78.0466755124618 11.1561
79.0547393232955 16.3995
91.0543436429676 64.7331
93.0579715021516 6.59675
94.0413137015533 5.52017
94.064920669937 5.44067
95.0490881307256 23.4914
103.054305562809 20.5717
104.049585436753 14.2653
105.033513626392 4.17964
105.069375754787 12.172
106.041717866137 3.06758
107.049196454066 5.42846
108.053888754514 3.35303
108.081202929679 3.20148
109.064569734636 9.93887
115.053708788796 7.10454
117.060128692206 3.08707
118.064881917943 45.0444
119.048919936589 28.5778
119.072704875525 27.6788
120.056374559667 3.38411
120.080450252927 3.68768
121.064382239243 15.6285
123.04371870585 100.0
130.06486826616 24.5538
131.048979367478 6.21917
131.072840948417 21.4102
132.044277997764 29.4828
135.07979832637 4.18108
136.075451681907 26.5742
137.059410660507 9.67934
138.067185180154 18.9701
146.059930422184 19.1466
147.043755775932 26.209
147.067358505964 41.9007
148.076131056188 6.68458
149.047143896586 4.68134
161.058929551287 15.8355
162.090896395922 30.3015
164.07055438441 9.6739

