>compound Dimethylglycine
>formula C4H9NO2
>parentmass 104.070395791073
>charge 1

>ms1peaks
58.0659658852967 19.5061
104.070688711681 100.0
104.138434210841 0.5167
104.165133288822 0.77957

>collision 10.0
58.066071204844 100.0
58.1355973359742 0.604975
104.070395791073 27.169

>collision 20.0
42.0339372983438 1.97831
43.0423018712328 2.03408
44.0499118205219 1.54842
45.0576046992026 0.553099
56.0495699166021 0.65915
58.0661277573212 100.0
58.1361536414107 0.63247
104.070613992426 0.605124

>collision 40.0
29.0378351954271 1.27513
30.0342724578633 2.80624
42.0343186032286 66.4264
43.0422265066456 35.2176
44.050006151811 45.8673
45.0571673768825 1.0288
56.0493473292166 4.74105
57.0571943929257 2.44917
58.0660216405636 100.0

