>compound Betaine aldehyde
>formula C5H11NO
>parentmass 102.0914950607
>charge 1

>ms1peaks
43.0555977226671 0.860383
58.0657970661819 2.62621
59.0738460539694 6.39873
84.0795568581244 0.595603
102.091635414327 100.0
102.184547438853 1.7968
102.211602585704 0.915058

>collision 10.0
42.0348351035889 0.658809
43.0550088523571 2.17941
58.0660567743427 30.4194
58.1349521036617 0.543264
59.0736691204927 34.5086
59.1445026274637 0.722484
72.044251038203 0.609939
87.0674893275593 2.01865
102.0914950607 100.0
102.184218618202 1.72756
102.212581727883 0.890069

>collision 20.0
41.0391123848094 0.8683
42.0347102391062 1.87417
43.0522079893112 1.29408
44.0511658204529 0.867115
58.0659132390305 100.0
58.135224636123 2.04837
58.1588855051968 0.920029
59.0736885882991 51.8367
59.1450618008551 1.02587
72.045467159899 1.23731
87.0675578238056 1.91348
102.091293772718 19.7792

>collision 40.0
30.0331420058016 1.90573
41.0405110136085 0.572958
42.0346449869918 14.4293
43.0422794482231 9.76201
44.0503310017353 2.52243
56.0503120190706 3.36294
58.065846128202 100.0
58.1349399692274 1.84188
58.1569175203018 0.756883
58.1931812586247 0.507036
59.074202397239 1.10506

