>compound Androsterone
>formula C19H30O2
>parentmass 291.233732440353
>charge 1

>ms1peaks
107.086647141848 1.04998
131.082270271051 0.549838
135.114994988329 0.744829
147.117039842244 0.74095
208.948595621918 0.584932
249.977916443883 0.625893
255.210575961895 6.62291
273.221376375328 54.9383
273.459155636399 0.553548
273.647259671215 0.538305
273.931964822202 0.510862
274.177656360141 0.567953
290.148475744729 0.676713
291.009879162099 0.51306
291.232143508562 100.0
291.385152074218 1.52608
291.436877571132 1.03199
291.504299117912 0.521982
291.57785033461 0.664953
291.640726830704 0.811612
291.815483265399 0.553718
292.02212353728 0.566371

>collision 10.0
27.138525070177 0.686546
55.0563604012124 1.94703
79.0555789809463 1.00089
81.0693376512813 0.657114
97.0664192591093 0.602278
105.063225588281 0.782326
119.083123650043 1.05913
121.09959160764 1.21329
131.085156503318 0.771668
133.103028215248 1.36857
135.117449156651 5.92048
145.105267726961 1.10243
145.485730900865 0.726198
147.115936652244 2.74731
151.108469446616 0.53324
159.114953429946 2.43012
161.132913697185 2.05989
163.147320028044 0.947528
173.130320212756 3.35444
175.138166582314 0.668677
179.001650492789 1.06873
185.132807665713 1.9704
189.159331753172 0.500072
191.144239521351 1.80766
199.146794128569 8.57917
201.166189939136 1.03871
208.93738301116 0.528676
213.161270111574 2.99124
215.177091284283 7.92763
217.157636613335 1.25545
227.172430603602 0.995282
255.20963368227 78.4197
255.322197279232 1.62758
255.356416525997 1.25154
255.715733064658 0.81409
255.948774285665 1.16563
256.123029726046 0.553396
273.037802566717 0.515593
273.221416025213 100.0
273.372751891397 1.6977
273.411481013452 1.5819
273.492654516727 0.890435
273.552495478357 0.596175
273.680679932025 0.590829
273.785239487023 0.643801
274.039536240185 0.727102
274.212990571458 0.633595
274.297632845882 0.64295
291.150716720901 0.843535
291.233732440353 10.7044

>collision 20.0
67.1773195007212 1.06473
69.0699302010938 1.58715
71.0465941199108 1.35731
77.0412751065382 1.60286
79.0534402835796 2.52095
81.0700067892514 7.38013
85.063221523238 0.811135
91.0502727608395 3.02537
93.0699613846752 6.66801
95.0858213181725 8.00615
97.0629988625506 1.04943
102.994288484283 0.925602
105.068010740799 10.538
107.083222281447 6.82754
109.102347018046 1.51545
114.963504728018 3.3032
117.069979044119 2.74287
119.08405303276 3.48438
121.097350048657 7.18837
123.111383456751 1.00162
131.086314958889 2.92073
133.100748134776 16.8517
135.115229217213 32.4932
143.079993663077 1.91115
145.100780635838 11.9639
147.116361402632 19.4933
149.128751324315 2.36618
151.107063741528 0.881613
158.349592308778 0.949935
159.117560440459 15.4297
161.131333262871 11.6515
163.149064812999 1.41874
165.120311535807 1.47594
171.108489728318 1.59508
173.133526382791 10.9323
175.14382514972 2.61968
185.133420063941 6.12101
186.133357337811 1.27909
187.150455267221 2.42218
188.074845713971 1.00467
189.166064311516 1.40028
191.145169765374 2.72101
199.147405266301 46.1338
199.289262696219 0.826834
201.161246774588 1.3595
208.945941538546 1.56198
213.160203355014 5.12474
215.178487219794 31.0067
216.23689820388 0.846374
217.158019121381 4.1098
227.172781091145 1.95905
248.969673981299 0.860534
255.209915534261 100.0
255.332810095467 1.74339
255.416583956682 0.90591
255.63215404833 0.832236
256.044397847841 0.89155
256.306226608922 0.874823
273.220307941825 21.6145
273.330214624282 1.00653
273.729093361491 1.4332

>collision 40.0
43.018205789918 22.8678
43.0530200332916 7.10304
43.0663073175247 4.94001
55.0556959733599 25.1592
58.0273995866264 6.32523
65.0416766945077 4.24817
67.0552501490573 23.2163
67.0803325085645 3.80951
69.0689582517951 15.4528
73.9327278867834 4.49522
77.0386358232929 19.0033
79.05409756662 39.8867
81.0705058195604 60.2287
81.111373067947 4.61197
83.086175250164 6.5916
91.0537757052133 100.0
92.2958396551853 3.9768
93.0709373189615 67.4153
93.1199181953776 2.94896
95.0866403485017 17.3862
105.069811930024 78.7275
105.120567565133 4.18242
107.084541256184 66.2004
109.104188755254 26.5877
109.13788971256 2.96694
116.066011930818 9.7255
117.069982846562 47.1057
119.08443689331 69.5428
119.142162374534 3.1568
121.09985324999 14.7955
129.06719178398 19.997
130.073540381561 6.76529
131.084915415157 38.5824
133.100746022554 44.4157
135.112924075551 17.8435
142.077761468454 15.1409
143.086853076089 29.446
144.094246828764 4.33577
145.099687937212 32.9301
147.117600120506 49.3787
157.100388644973 19.0021
158.104889938169 4.93311
159.116198443645 35.3262
161.129013434663 8.9031
170.103214733905 6.23569
171.115629392179 20.2074
173.130933545963 16.2627
185.130594721331 6.72536
187.144309756481 6.42341
189.15748048243 3.55525
199.150159591142 11.8469
200.151925154423 7.52375
213.161872739382 4.37377

