>compound &#38;gamma;-Aminobutryic acid
>formula C4H9NO2
>parentmass 104.070689584335
>charge 1

>ms1peaks
69.0343350605705 1.46862
86.0602747136905 11.5635
87.0443453728039 28.1366
87.1298492971846 0.578454
104.070755322756 100.0
104.14069282225 1.91166
104.164447272258 2.79724
104.194464198169 1.08811

>collision 10.0
68.0500817170113 2.21722
69.0341116054185 28.9292
69.1107875314975 0.606519
86.0602986506417 27.0672
86.1454946210984 0.578926
87.044487435971 100.0
87.1085306922445 2.00289
87.1302028600586 2.88699
87.1556191092795 1.19713
87.1817431091309 0.508567
104.070689584335 11.3754

>collision 20.0
58.066355134579 1.71837
68.0501003085923 7.45662
69.0341282238032 100.0
69.0909067935978 1.71654
69.1106630187248 2.2059
69.1354314824905 0.865896
86.0605204333634 9.38281
87.044271828252 59.8586
87.106568504303 0.983797
87.1300724027361 1.26039
87.1574634233574 0.519785

>collision 40.0
54.0343788215819 4.21233
55.0356503021977 2.10607
56.0499002541583 38.1126
57.0340939287798 5.47381
57.0578712326021 2.07526
58.0654734016907 10.719
58.0870991430037 1.3302
59.0478481958741 3.66524
61.9242974964187 0.897635
68.0491036272103 47.4365
69.0335024723373 100.0
69.0949762040985 0.954331
69.1093348346676 1.83971
69.1692110170753 1.01862
69.551726171712 0.957089
70.3826760753218 1.00674
87.0443914742391 3.77816

