>compound Ornithine
>formula C5H12N2O2
>parentmass 133.097018059597
>charge 1

>ms1peaks
70.0661171328409 21.7684
87.091696914642 0.926583
90.976218139657 2.2388
91.5047898321132 1.38723
115.086616783283 21.1164
115.111938825677 4.33236
115.137328393839 0.567865
116.07057782495 43.3387
116.094030501391 7.5093
132.100797366451 0.626353
132.139449846197 0.76074
133.097018059597 100.0

>collision 10.0
70.0656810197382 100.0
70.0850624169331 15.1544
70.1441446584722 0.650175
71.049760303257 0.800542
115.0855600877 7.10874
115.118347610888 0.876336
116.07051959575 43.5708
116.095432138569 6.90589
116.126921064988 0.774824
133.096940187052 6.05639
133.119233058147 1.07547

>collision 20.0
43.054449288395 1.61671
68.0500821712323 1.00131
70.0657720028474 100.0
70.0848705388196 14.3209
70.147491661505 0.51919
71.0539450007575 0.512515
116.070767422367 1.50244

>collision 40.0
28.0192175486573 0.952356
41.0397190110746 1.00718
43.0551252095149 12.0657
43.0730778999928 2.6984
43.085973067177 0.517313
44.0515709311486 0.509806
53.037957521263 2.29323
53.0565347520628 0.998749
56.0549647112915 0.738269
64.4936614370007 0.657339
68.0493144030431 7.23705
68.0667946072699 1.35324
70.0241242004793 0.943451
70.0656914425559 100.0
70.0841608282001 15.521
70.1201630632373 1.41342

