>compound Tetracaine
>formula C15H24N2O2
>parentmass 265.190676680876
>charge 1

>ms1peaks
72.0814284882515 1.19915
176.105900312306 7.92221
220.133037053159 0.565916
265.190490354551 100.0
265.393447043315 3.48426

>collision 10.0
72.0815802481575 15.0166
176.106708001829 100.0
176.268500641669 3.70942
220.132994146641 6.17355
265.190676680876 47.3086
265.393443276181 1.12381

>collision 20.0
72.0819500941558 22.0937
72.1879221074986 0.647192
92.0504345374322 0.773571
120.044315609501 0.627898
176.107476937831 100.0
176.270133686567 4.90744
220.133500253619 6.94777

>collision 40.0
41.0393413954085 3.5566
42.0346241013862 3.97776
44.0503484942277 7.32543
55.0550796732275 0.838852
56.050129640859 1.96717
57.0675078029559 5.96119
65.0391196046825 12.1157
70.0658240809821 7.53746
72.0813171020275 73.8238
72.1879177802003 2.0736
77.0391735815063 0.964435
79.0541839627466 3.26128
91.054323145833 1.95313
92.0496488949331 59.2399
92.1713343171487 1.04035
93.0626946283132 1.36915
94.064802473514 1.93936
104.048710512284 0.712704
105.057183842409 18.7312
106.064984262121 10.0508
116.061699309693 0.583289
118.064903447442 3.563
119.074844221435 2.3737
120.043765297856 34.0707
120.17726401829 0.557124
131.084915453229 0.510272
132.08012474307 0.987099
133.086877588787 1.4656
148.111333840464 3.62547
176.106137070808 100.0
176.267709610373 2.41251
220.132906938589 1.23466

