>compound Tetracycline
>formula C22H24N2O8
>parentmass 445.159932665747
>charge 1

>ms1peaks
410.123157478353 4.58341
427.148684922085 5.85595
428.138446168382 1.53391
444.166222077206 1.59221
445.160222743735 100.0
445.797390911129 0.522759
446.160089615146 0.868619

>collision 10.0
70.0676430325352 0.608421
74.097542710197 0.538328
126.050964027611 1.2584
154.049417341134 2.94754
170.083183848865 0.640862
171.085253411195 0.630653
182.075739033252 0.573022
384.145126254686 2.17169
392.107650896327 2.9093
410.122251064548 67.3746
410.593878422282 0.518737
411.128654798723 0.999491
426.158998405373 1.01866
427.149388536335 44.5451
427.386017602751 0.58447
428.135158017136 19.2371
428.490410127195 0.505377
429.116978782698 0.777297
444.167635496142 1.55235
445.159932665747 100.0
445.735513385178 0.603976
446.099640795716 0.504115

>collision 20.0
46.0652865689939 0.965968
86.0592426996703 0.995454
98.0599308515276 2.78293
126.057026509321 1.12166
137.017250247821 0.577538
154.049398565109 21.1346
170.07927319436 1.45814
201.088772272905 0.725822
241.089327190895 1.15919
242.059782898131 0.578695
257.081575993921 1.87585
269.080480987797 1.2943
321.075531775298 2.36732
337.070358417016 2.61305
349.065282896428 1.2963
365.070179332627 1.80811
384.140850276933 2.83918
392.115613184644 3.84876
410.123101739957 100.0
410.286885574547 0.565051
410.945276865075 0.572681
411.129484217476 0.795228
411.226742438865 0.528794
427.149990695009 12.6264
428.134590176319 11.3004
445.159308613759 3.58687

>collision 40.0
41.039712517738 5.52938
42.034003614225 2.09128
43.0407878712439 1.72178
44.0484935109585 3.43131
46.0658408687533 24.5207
57.0625574061621 1.57364
58.0655383113876 8.20179
68.0456852981567 3.64613
69.0346188989385 1.73602
70.0263839516038 3.03485
70.0672512044743 1.89514
71.0368628946222 1.99332
72.0410527949854 2.46473
73.0278530849182 1.99472
82.0667587011653 2.44022
84.045453923577 3.00846
86.060293576887 14.2204
98.0595873439561 100.0
99.0409895516255 1.86788
100.068666226859 2.16062
124.038798659554 2.28885
125.025183956318 1.64064
126.054589697363 14.1209
127.041050817048 2.1474
137.023368174247 1.57325
138.056667088158 1.37398
139.028228720812 1.47037
154.05029327346 57.5295
164.033967996186 2.29567
170.085738833781 1.80083
173.097257606522 5.58914
174.052772737753 1.4573
180.062419240632 2.53035
182.082411051597 1.49009
187.076960163952 9.99149
188.081408061226 2.91623
189.068335892356 1.51198
194.048452523218 1.73453
195.080667483341 4.91169
201.015221924528 1.38435
201.051782381268 2.15462
201.093443566891 10.0332
207.078253391834 2.84279
210.064763892134 2.38537
211.070496386351 2.59891
213.088192828579 4.06986
215.067885573184 1.54517
223.073750996926 9.04559
224.05933166368 2.17193
225.090544268429 3.83473
226.059921862589 10.0264
234.326787247621 1.63761
235.07740816211 4.03846
237.081004943012 3.29746
239.077143009226 5.03296
241.084291257816 46.3874
242.057502127119 6.52808
243.060696475717 3.045
247.077762944227 1.40873
248.051381770015 2.34475
251.070545159598 9.66128
252.043785096659 8.56217
253.085279172568 2.90676
254.064621963686 2.95607
255.066403752761 1.83115
257.081764689558 14.786
263.071197303202 4.96685
265.086466856055 5.29696
267.063268129505 43.242
268.134036002683 1.56113
269.080857155603 53.6785
275.068883642928 1.86498
276.037987911103 1.34114
276.078481707799 2.01086
278.058502461218 11.5373
278.109511639608 3.6378
279.079554379434 4.08552
282.04555836551 3.71495
291.063956007312 16.3741
293.083716480259 8.59546
296.126888954702 2.39016
297.070686248289 9.15351
303.063272948897 6.30639
304.036741399513 5.48071
305.05965727771 1.69315
306.047097064417 3.20423
307.104682712259 1.58173
308.07052754718 1.61035
309.071154661287 3.70414
319.059888223325 6.72101
321.073156205784 20.5025
324.056943822544 2.91591
334.047323987552 13.788
335.08794373579 1.62079
337.069691636119 26.5685
339.080716879677 1.60311
347.065070186222 1.42041
349.069596768141 13.217
352.045162055668 2.05068
365.071677655825 3.00608
374.110282567595 1.60568
377.083890029341 3.48933
380.121519551952 1.53379
392.10852387474 7.55241
410.128616827165 8.34178

