>compound 1-Methyluric acid
>formula C6H6N4O3
>parentmass 183.050185798462
>charge 1

>ms1peaks
70.040377261395 2.1931
89.2069192807914 0.935421
99.962505893439 2.12834
102.998180078693 3.25203
120.837356806513 1.28114
126.955115326594 1.24518
127.504024845538 1.62888
137.013818603663 2.82613
140.954729432897 3.09102
141.001534447469 1.29813
141.552959313841 0.929398
141.958533664897 23.1272
142.055439797124 1.0137
145.993502113171 1.41959
159.043710900978 2.0464
159.57603458606 1.73585
160.524370616262 1.63685
161.532577562207 1.2284
161.993670130812 1.22825
162.061000744465 0.915346
162.107326615275 1.05899
162.528878808214 2.73708
164.910222292796 1.06631
182.023828921974 3.13232
182.081694194116 4.2395
182.132337141836 1.57227
182.519084001615 1.41896
182.985370816281 10.4189
183.050189926869 100.0
183.150340298034 3.77871
183.340164255565 0.853788
183.718489327615 0.876239

>collision 10.0
43.0537542659471 2.3134
56.9405292251227 1.29191
56.9645352294436 2.12982
59.0472198440794 1.07063
60.9863478464899 1.11772
84.975830703627 1.58009
85.5531971317386 1.21475
96.9743823670056 2.86888
97.968212280948 22.3115
100.929494305842 1.20743
103.000892584277 1.53211
106.986217368797 1.19949
108.986685712449 4.25155
110.007235768519 6.84934
111.00565929588 1.05915
123.578528284317 1.08869
126.026786926463 6.05402
133.000721133483 0.997974
140.034584776501 0.935297
140.957063470409 1.75811
141.957865490465 19.0091
142.017700956074 5.04275
152.009306045934 3.87546
155.055508144697 11.7068
162.113484242271 1.13115
168.989789641924 0.945722
182.041070405509 2.04379
183.050185798462 100.0
183.125527595951 1.89439
183.170109501893 1.35572

>collision 20.0
41.0382534614193 3.17533
42.6038861399555 2.97254
43.0301541911474 24.9037
44.0142627413488 4.11192
54.0210937708615 4.90096
55.0296282932661 5.8146
55.0548639765827 4.09598
55.9441605567629 10.4985
56.9426817688286 48.6369
56.963658372728 10.1042
58.0257559830089 4.63623
66.0186819088864 4.17739
70.0372028941473 26.4271
71.4901832199526 4.45909
73.0481002359656 3.87475
76.9234268584705 3.41968
80.9944503576759 10.786
81.9591997181858 10.2271
83.0173514792884 4.36047
84.0551611738214 7.68903
90.4841834128581 5.91234
96.0167841468072 7.69114
96.9732178568013 11.2389
97.9677020103903 100.0
98.033188282107 19.2123
99.940276049682 7.82858
99.9806104629274 6.90655
100.933079355832 9.17811
100.973367060328 6.49589
102.003351768837 3.03528
102.132699820248 3.67377
110.009162565019 5.21465
114.517668847849 8.0584
119.051490696877 5.06859
122.993277407919 2.83229
124.012558897813 3.47779
126.027867063205 76.5561
128.044583392833 8.4801
128.838965227496 3.5711
136.969756430261 3.9451
137.038957555723 2.79932
152.009680423255 20.6435
155.055069197134 94.6622
157.920300874953 3.24163
164.064498645495 3.81292
183.049230927962 79.484

>collision 40.0
42.0341903733415 4.19848
43.0308557476642 41.4106
44.0137210491324 11.2203
53.0136607522514 11.9472
53.9782511844925 4.50031
53.9953359860503 3.55715
54.0216453907623 5.09042
55.029540177316 15.2876
55.942081351935 18.82
56.9425289185665 100.0
57.0457232388797 2.9627
58.0305452123756 6.49727
62.9857418540153 12.3343
64.0180030149754 3.00145
67.0286360286525 2.71149
69.0067645668497 16.3767
69.0454613556421 3.0895
69.992629877274 3.64757
70.0404417350292 21.1476
72.9374628360368 4.29845
73.7527857250857 2.89198
81.0091617879657 3.73613
82.0412968883152 5.64035
82.4896678628452 3.60383
96.0207451212562 15.0154
98.0324601635034 3.71655
99.0187099750218 3.50681
126.03470589984 4.17063
138.030413700165 3.05798
155.051682560208 5.7927

