>compound Thiabendazole
>formula C10H7N3S
>parentmass 202.043610064578
>charge 1

>ms1peaks
175.032686714232 0.595422
202.043187348713 100.0
202.218166245697 2.83955

>collision 10.0
175.032115221655 2.22558
202.043610064578 100.0
202.218236608279 4.95318

>collision 20.0
65.038903108528 0.600313
92.0498347097902 1.04551
131.060462285454 3.41075
143.060301939346 0.639144
158.070743723958 0.643638
175.032123256441 23.2374
175.193401068421 0.612229
202.043546724874 100.0
202.21821089357 5.05969

>collision 40.0
39.0238729838929 2.9265
65.0392281681076 43.5712
65.140729347358 1.04068
66.0357527398092 0.829929
77.0388383670903 3.54988
90.0339199609229 1.12653
92.0497148026756 24.1489
92.1662984542543 0.612473
93.0576028102153 0.512926
102.033820958143 1.20746
104.049529951807 12.1518
118.052358102335 2.39025
129.043690459154 0.926388
131.060354824254 100.0
131.204824059186 3.02797
134.00558606378 4.05734
142.052128099424 1.23857
143.060398261187 9.12093
157.063611562105 1.32618
158.071268957847 2.24355
168.055413314611 0.562518
169.063671878517 0.540836
170.070214901993 1.54025
174.02456620603 0.869181
175.032126219425 59.7609
175.193273326931 1.4755
202.043068163624 9.92365

