>compound Thioridazine-2-sulfoxide
>formula C21H26N2OS2
>parentmass 387.154274869587
>charge 1

>ms1peaks
98.0894469504426 1.1365
98.100782915031 1.35661
126.112360136783 0.590538
126.125213849545 1.52386
126.138068217315 0.908786
372.124242580464 0.798903
372.146321929609 0.562203
387.10923521846 4.26127
387.131754716532 58.8669
387.154274869587 100.0
387.176795677625 50.5727
387.199317140647 7.77375
387.22183925865 1.37458
387.244362031637 0.541125
387.379512424199 0.824127
387.402039782066 2.16899
388.145810037056 0.656192

>collision 10.0
98.0781116408482 0.630381
98.0894469504426 6.08283
98.100782915031 6.70133
98.1121195346136 1.81612
126.112360136783 3.71739
126.125213849545 9.44967
126.138068217315 5.68746
126.150923240092 0.688839
372.102163886303 1.29856
372.124242580464 3.76182
372.146321929609 2.53068
387.10923521846 4.71314
387.131754716532 60.5292
387.154274869587 100.0
387.176795677625 50.6004
387.199317140647 7.60822
387.22183925865 1.37066
387.244362031637 0.564517
387.379512424199 1.04174
387.402039782066 2.85708
388.145810037056 0.603684

>collision 20.0
58.0565979510852 1.17442
58.0653191790657 2.82726
58.0740410620404 1.64887
70.0621545020579 2.27737
70.0717350823504 1.88312
84.0744189347654 0.603488
84.0849138868777 0.732127
98.0781116408482 5.45006
98.0894469504426 48.6007
98.100782915031 53.6823
98.1121195346136 15.1404
98.1234568091903 1.27924
98.2141785855932 1.29234
98.2255217551172 1.04499
126.112360136783 22.4386
126.125213849545 56.8522
126.138068217315 34.6521
126.150923240092 4.63138
126.163778917878 0.562594
126.26664792045 1.64649
258.034396120811 0.514156
258.99132948423 0.813915
259.009749406283 1.56431
259.028169983331 0.796446
274.012383007871 1.51746
274.031329545388 3.32395
274.050276737899 1.84937
372.102163886303 8.13161
372.124242580464 22.3513
372.146321929609 15.3199
372.168401933738 2.87054
387.10923521846 4.31613
387.131754716532 59.8609
387.154274869587 100.0
387.176795677625 48.8885
387.199317140647 6.6614
387.22183925865 1.27963
387.244362031637 0.707114
387.379512424199 0.843296
387.402039782066 2.05067

>collision 40.0
42.0286022249832 0.680376
42.0360226346011 0.977151
44.0407063829454 0.670074
44.0483023309929 2.48016
44.0558989340346 1.918
55.0444011729695 0.84912
55.052893153001 2.58808
55.0613857880265 1.8714
58.0565979510852 5.42093
58.0653191790657 12.0088
58.0740410620404 6.65218
58.0827636000092 0.744636
70.0525745767595 2.0426
70.0621545020579 9.41145
70.0717350823504 7.87852
70.0813163176371 1.55108
84.0744189347654 1.92144
84.0849138868777 2.08822
84.0954094939842 0.631812
95.0861787856766 0.818217
96.082079965347 0.640642
98.0781116408482 10.7006
98.0894469504426 91.1527
98.100782915031 100.0
98.1121195346136 28.3354
98.1234568091903 2.37714
98.1347947387612 0.7206
98.2141785855932 2.58464
98.2255217551172 2.0323
112.115325960803 0.566571
124.102451297777 0.831461
124.115202174274 1.09635
126.112360136783 15.2827
126.125213849545 38.8099
126.138068217315 23.7003
126.150923240092 3.1311
126.26664792045 1.05515
167.07221446672 0.542044
179.055883632805 0.579815
179.071199512567 1.22389
179.086516047332 0.645057
211.03024525752 1.52704
211.04687245089 2.2138
211.06350029926 0.800557
227.03509901556 0.858931
227.052345183293 0.541063
242.00189682522 0.635737
244.018067187887 1.28128
244.035946738302 0.944775
258.034396120811 0.909947
258.052781983115 0.620039
258.99132948423 3.71729
259.009749406283 7.43753
259.028169983331 3.83208
274.012383007871 0.733354
274.031329545388 1.44954
274.050276737899 0.716675
372.102163886303 0.550383
372.124242580464 1.50399
372.146321929609 0.988924

