>compound Cytosine
>formula C4H5N3O
>parentmass 112.050867760774
>charge 1

>ms1peaks
95.0240858691712 0.844867
112.051012139866 100.0
112.122691386542 2.83814
112.147828457169 4.46567
112.177572095083 1.80445
112.207050280885 0.70552
112.227037627424 0.533473
112.250445465521 0.510749
112.275740582503 0.584891

>collision 10.0
68.01383782904 0.543177
69.0453591549029 4.47788
94.040010039088 4.98008
95.0241912648183 14.3458
112.050867760774 100.0
112.122471956846 2.78117
112.147750426558 4.24737
112.177303056251 1.74107
112.207092363631 0.687388
112.227385816752 0.536033
112.275748374688 0.594578

>collision 20.0
52.0188617892635 8.97169
67.0296134973772 12.7255
68.0136190932149 13.2741
69.0451928357014 23.9282
71.0244463314893 2.15453
94.0400704273167 23.0724
95.024193871627 100.0
95.0903789698271 1.98261
95.1139279528293 2.83
95.1405723088898 1.18958
112.050485777214 53.52
112.122323768371 0.930078
112.147520697504 1.26867

>collision 40.0
51.0104981772083 0.696374
52.0189998326336 100.0
52.0855195386187 2.0872
52.1041722500186 0.861458
53.0146528671601 1.05265
66.0227921900264 0.556049
67.0296604228883 34.8498
67.1046790946728 0.654869
68.0135614129772 23.014
69.0091832527914 3.28031
69.0445796410078 4.9945
71.0241421969716 2.23971
94.0401910639641 2.0768
95.024096126989 24.6833

