>compound Ticlopidine
>formula C14H14ClNS
>parentmass 264.059755572011
>charge 1

>ms1peaks
125.014774726736 1.04395
154.041083721657 3.2789
263.047989035939 1.12947
264.059269818081 100.0
264.257807420624 1.90497

>collision 10.0
125.015693187659 7.91608
127.012678114752 0.524134
154.041828574894 44.155
154.197633990325 0.853867
263.047640742135 1.20759
264.059755572011 100.0
264.258092519817 2.29771

>collision 20.0
111.025860792759 0.559734
125.014734948663 64.1535
125.157071157312 1.37838
126.017840465705 0.622695
127.011686660256 3.03359
154.041203474504 100.0
154.19759525154 3.14892
235.033156396526 0.69669
263.047499870999 0.693836
264.056586527889 11.8825

>collision 40.0
89.0385126012298 2.84414
90.0459472880088 0.866057
98.999441939426 1.30823
125.015186725721 100.0
125.157141216638 4.32331
127.011705994091 2.97135
154.041484347278 0.884007

