>compound Timolol
>formula C13H24N4O3S
>parentmass 317.162707002495
>charge 1

>ms1peaks
95.0796448437097 0.72293
105.040985004203 1.14451
239.102546738468 0.821497
261.101614643795 1.4664
299.261536923788 0.870021
317.163279869213 100.0
317.205233873115 6.38761
317.264913176914 1.12241
317.318972422029 0.567043
317.397122486559 0.559037
317.491785715408 0.605846
317.553188885416 0.822715
317.778105438736 0.778664
317.99034044328 0.547029

>collision 10.0
40.5183102916515 0.548935
56.0511763614079 2.05843
57.0705693610274 0.564938
74.0603552067012 10.5592
74.0769618512663 0.639683
130.122506829624 0.603236
144.022170348057 0.533056
188.05220005222 1.02434
243.09365240318 1.26626
244.074999956492 4.87605
244.104880028904 0.521998
261.102743527838 29.3983
261.155100605831 0.910918
261.172931493918 0.603393
267.226232620966 0.868828
281.214407496626 0.81574
281.25470214114 0.51737
316.321567545734 0.703159
317.162707002495 100.0
317.272129667338 0.639683
317.583079597259 0.535822
317.677228406464 0.501942
318.084266261393 0.562582

>collision 20.0
29.0375823794818 4.34994
56.0495262100729 18.8585
57.0721896002082 2.48193
57.4268340960856 1.86916
74.0608206376591 99.6243
86.059918569185 5.9029
112.110114621402 2.88575
113.068602646451 3.16941
130.116459447869 3.51083
132.040017218147 1.76719
145.046774937505 5.13097
172.05481100778 1.78491
180.075715338611 2.02896
188.048061718989 26.7458
188.092863893433 2.26915
221.188929593994 2.82105
244.074212908586 65.9172
244.10520117219 3.63455
261.100950972597 100.0
316.313336734509 2.67262
317.163388450098 70.9912
317.222206019031 2.16964
317.265585080571 2.02536

>collision 40.0
28.0173773914698 1.64942
41.0397171529105 4.84049
42.0340078793762 1.99652
56.0491409908463 72.6939
56.0708566857435 3.74435
57.0698523078177 20.4695
62.0059012101207 1.60807
71.991503213065 3.5893
72.0411751108921 1.89384
74.0067053069919 5.00921
74.0606459574866 100.0
74.0838754330596 4.24739
75.0636940029945 2.64349
85.0550042128374 2.69902
86.060618267466 5.64048
101.017051328585 4.74254
113.071448995298 15.4694
118.279262517443 1.81542
130.00991832317 2.20232
144.020913685905 27.8122
144.044447944807 1.71679
145.043308573007 5.57437
159.015127749972 2.87627
170.0368132916 2.87855
170.618513438103 1.8749
188.04805327969 19.9231
207.618391634172 2.84076
244.079470360568 6.86567
244.110101244246 1.73616

