>compound Dihydrouracil
>formula C4H6N2O2
>parentmass 115.050105257225
>charge 1

>ms1peaks
30.0333258007472 1.09573
55.0182742208395 0.733703
72.0453205123853 0.876004
72.9912334539974 1.50879
73.0407498934372 3.99186
73.9882876585108 1.14144
93.5061211759051 1.7159
94.5022035947944 1.42439
98.0234647913553 1.30392
114.018810736328 1.26273
114.091728274495 1.51993
115.050010072515 100.0
115.121277164123 3.98725
115.176376047284 1.15266
115.257682415462 0.507293

>collision 10.0
30.0340109220914 10.9052
42.035939457908 0.708492
43.0172131207522 0.528637
43.0515325972714 0.513808
44.014563236969 1.53428
44.0494063537463 0.618677
53.0193351476045 0.856635
55.0184635548914 25.9301
55.0857847558051 0.510537
56.0147344065908 0.966937
56.0598448416955 0.620416
58.0639158936147 0.876942
59.0485886540838 0.712173
61.0396113390904 8.20901
66.5788055269467 0.575298
70.0294834234255 8.86115
72.0449192535035 10.912
72.937459174761 2.22356
72.9928680652933 4.38443
73.0394324851023 41.8582
73.1172102986325 0.788413
73.4948100686549 1.28395
73.9873904449742 3.07454
87.0545647879793 2.04966
98.0235509396613 9.94219
98.0954323477092 3.56402
114.09083974163 2.29863
115.050105257225 100.0
115.179971101124 0.882029
115.23409982727 0.613323
115.291680834156 0.609463

>collision 20.0
30.0342711174561 7.94055
41.037766786368 0.781474
42.0343756408881 4.24915
44.0139157415225 8.7074
44.0508200620696 2.55341
45.0343976172147 1.05439
54.0356430498652 0.699807
55.018448304508 100.0
55.0858591193468 1.93956
55.1535251674931 0.526165
56.0134486318001 10.9082
56.0841835656544 0.50847
58.0673986457625 1.40328
59.0498387865832 0.685272
61.040182727607 11.9701
63.926852729097 1.03629
69.0705805701526 1.16786
70.0291314061682 17.923
72.0449610211938 12.2163
72.9351185376862 0.729378
73.0399488896564 13.2618
78.9881624952554 0.605053
86.0956692650714 0.713196
89.9316139036035 2.71051
91.9244080220755 0.891292
97.0669563138229 0.693485
98.0227368985557 2.26333
98.0956786355046 3.50665
114.087938046487 2.12183
115.048547625251 5.75325

>collision 40.0
27.0241189525116 2.40786
30.0352619810561 8.03243
41.0389473580631 5.65093
42.033743334349 7.35687
43.0267537185203 4.72488
43.0551835178954 1.88471
44.0135748225459 100.0
44.0752117010422 2.00819
44.169811766567 1.54317
49.9877359245019 2.1642
54.0336619409891 1.78482
54.9397574035725 2.2381
55.0187245225343 87.4699
55.9351112760891 2.2374
56.0140009993388 17.0467
61.0400769039168 1.8182
63.9280261211084 7.98215
65.9245167702175 5.42633
72.9369236460537 7.56985
80.0505679629011 4.25841
89.9320250938609 6.65985
91.9275678741302 7.59141

