>compound Indole
>formula C8H7N
>parentmass 118.064845756746
>charge 1

>ms1peaks
62.0572668892477 1.19535
76.0435102774107 2.11968
91.0548437212708 1.96824
101.060338019551 1.00056
117.057069355847 20.5849
118.064605111566 100.0
118.122788743112 12.0863
118.646956677074 0.76814

>collision 10.0
65.0389947089582 0.734833
72.0824776942083 1.05728
86.097021645749 0.988478
89.0338437170766 0.718375
91.0544193509417 17.8827
91.4541494447519 0.834858
100.112297930402 0.822649
117.05713623265 20.2583
117.149683503515 1.05297
118.064845756746 100.0
118.117555544917 3.20989
118.557498521982 0.773882

>collision 20.0
51.4734565588475 2.28312
57.0589927645596 2.23353
63.0224070355001 1.19301
65.0396595541769 6.97488
70.0625323887305 1.53097
72.0848888910197 1.90956
86.0975717957915 6.93917
89.0398932618017 10.5149
90.0467798294581 7.2636
91.0546271164742 100.0
92.0581757849266 1.24275
101.11847066423 1.86071
116.047578175775 1.22858
117.05632255343 23.1877
117.733564445675 1.87355
118.06455350895 56.5258

>collision 40.0
39.0233565393233 21.2023
39.3949624401512 2.73117
41.0384157026146 7.68384
51.0230718895454 17.6617
52.9430023160368 3.27367
63.0246466613728 29.3457
65.038579839587 100.0
74.0103676440625 4.375
75.0229100841229 6.29501
86.098175304292 3.88387
89.0391978741835 49.5461
90.0395219162531 5.86304
91.0557005934457 46.7021
117.052662134379 8.57571

