>compound Betaine
>formula C5H11NO2
>parentmass 118.086406989991
>charge 1

>ms1peaks
59.07404760886 0.577332
118.086490879227 100.0
118.186477202239 1.28793

>collision 10.0
58.0658692191742 6.63302
59.0739591115404 14.3516
118.086406989991 100.0
118.186403275299 1.13229

>collision 20.0
58.0660275267555 100.0
58.1355552660165 0.635193
59.0739221374277 82.1257
118.086182464319 45.4686

>collision 40.0
30.0340060506973 0.999104
42.0341549189874 4.11908
43.0422542955501 3.39541
44.0501005870359 0.711345
56.0504358469244 0.907627
58.0661732432181 100.0
58.1364528639023 0.700661
59.0735180638059 1.66035

