>compound Tranylcypromine
>formula C9H11N
>parentmass 134.096428661041
>charge 1

>ms1peaks
91.0545681602435 1.84295
115.054266543123 5.73007
117.069469091323 100.0
117.169378907779 3.91361
117.200079455689 1.77902
117.251039676891 0.557956
117.299822120564 0.585492
134.096428661041 65.1623
134.202765477593 2.3375
134.234825829513 0.949347

>collision 10.0
91.0546317425206 10.9492
115.054423335793 23.5293
115.15231268027 0.705986
116.061311157064 0.935298
117.0693859763 100.0
117.168359731213 4.6183
117.200263198231 2.16196
117.251259968017 0.656896
117.275513469355 0.630563
134.096447608137 0.8229

>collision 20.0
39.0239983670809 2.33606
65.0391957167261 4.33505
77.0390116145548 1.33516
89.0387413302547 0.969255
91.054840499467 68.7997
91.1416056622586 2.47309
91.1702221814046 0.954598
115.054117962621 100.0
115.152445638226 4.20398
115.182379803503 1.61312
115.212246033097 0.715366
115.2825839598 0.575691
116.061811055804 4.391
117.070156436734 65.09
117.169350845041 2.11666
117.200847050295 0.957384

>collision 40.0
39.0239482142233 18.2018
41.0396620213688 5.16261
50.0158805218258 1.05191
51.0238889991588 13.6417
52.0317771805465 0.928403
62.0156270869502 0.791395
63.0237377004467 11.3905
65.0394434108867 76.5277
65.1127654160756 2.08114
65.1357741447359 0.941712
74.0156290650853 0.762246
75.0235459686047 1.31259
76.0314269869788 1.18104
77.0390556075138 8.70221
78.0469671756805 2.28244
89.0390227902653 17.7714
91.054823449736 100.0
91.1416467391343 3.14351
91.1695046785829 1.26876
102.046378568273 2.00577
114.045845928053 0.742962
115.054364996331 65.5086
115.152108008315 1.84162
115.182995995523 0.723208
116.061576510206 2.37532
117.070147420713 0.812133

