>compound Trazodone
>formula C19H22ClN5O
>parentmass 372.15758934979
>charge 1

>ms1peaks
176.081784055132 0.944882
372.15758934979 100.0
372.327681648997 5.30971
372.40202388309 2.42381
372.517399434289 1.23614
372.566693691006 1.30559
372.626078295136 0.940747
372.663359198966 0.927008
372.705628368929 0.876257
372.750764964417 0.86274
372.794316121158 0.826945
372.845537749095 0.758662
372.890794736203 0.716557
372.935434526339 0.689511
372.991102266843 0.662748

>collision 10.0
148.050708438741 0.858835
176.080313493541 6.38174
372.153696243794 100.0
372.32805114889 5.26396
372.407872903594 2.46568
372.518416351703 1.21351
372.565266391274 1.35605
372.654744373988 0.871702
372.79240256839 0.797828
372.836090586925 0.708275
372.928721887189 0.648347
373.050360715827 0.556811
373.156150401626 0.687242

>collision 20.0
78.0344355384602 0.813608
148.05292691833 11.194
176.080317195045 72.6068
176.201347393933 3.46819
176.243410847255 1.40024
176.331351346223 0.500308
176.36365671489 0.596781
237.115493969498 0.866875
372.157084135977 100.0
372.328203240269 4.83202
372.396709001335 2.17797
372.518353578435 0.967435
372.567372048531 1.05746
372.621823441613 0.750567
372.664771674323 0.753202
372.705873856827 0.710755
372.754617219743 0.713434
372.798482590062 0.683282
372.928176816182 0.588858
372.975319732829 0.559475
373.158546425297 0.549251

>collision 40.0
70.066102048359 1.26738
78.0347802018332 20.3771
78.115556473523 0.556305
79.0429510338642 0.560258
80.0503538397072 1.25975
92.0437347162362 0.56696
93.0455084903288 2.53887
105.045156163351 2.36789
107.060683774219 0.7955
116.050042619688 0.811603
118.063895297312 0.585493
119.062711780744 1.42229
120.058509004818 1.37698
121.074428800399 2.15728
131.060675933435 0.518777
133.076294787936 6.66098
135.043203406404 1.62826
136.050983744131 0.956887
148.052485476773 100.0
148.159974026497 5.9633
148.19722321688 3.2437
148.232314782171 1.49058
148.279261639529 0.909512
148.309607871145 1.01501
148.345570324782 0.698201
148.374018574751 0.627405
148.396608379605 0.583361
148.427747275377 0.573322
148.454548230689 0.562355
148.491191123582 0.516239
154.041851742761 0.652861
166.041751769549 1.09577
176.080565984346 56.0608
176.202346592835 2.26229
176.242108594077 0.852938
194.060628569165 0.699427
209.084345506271 1.49774
237.115908298953 0.714446

