>compound Thymine
>formula C5H6N2O2
>parentmass 127.04979993041
>charge 1

>ms1peaks
84.960346540312 9.12865
100.159262448662 1.39569
110.020234887532 2.56755
125.984438062192 5.83351
126.033553213885 2.31543
126.08995927676 2.28659
126.527614802888 3.212
126.992831016484 2.07366
127.049553929556 100.0
127.107456248779 2.90111
127.128978118971 1.51787
127.156111637474 2.48471
127.181665969663 1.56683
127.26831977261 1.2959
127.349243455856 1.10306

>collision 10.0
54.0334696670551 5.72278
54.0570711536028 0.998828
82.0293549604871 3.75075
82.959222911895 1.61196
84.0433389394067 9.30019
84.9562226427111 4.79821
85.9646816505675 1.32653
108.010301481506 1.39749
109.03887966027 10.2725
110.023914293703 28.509
127.04979993041 100.0
127.105709200264 3.81279
127.134410390637 1.64796
127.152790599638 1.12403
127.291451394398 1.23347
127.357647715878 1.14536
127.660537880638 1.06221

>collision 20.0
54.0340006014383 77.4223
54.0693643490209 3.32229
56.0500526930927 63.7023
79.0517105381868 6.30784
81.0448886830817 13.1122
82.028643941331 31.3173
84.0439026914822 48.0137
84.9595517518485 7.09193
85.0503703521006 2.72533
109.038193251359 38.0665
110.022941001728 100.0
127.050213233124 44.6921

>collision 40.0
54.0339545241664 100.0
56.0141520473057 9.47953
56.049898288071 48.8668
69.9923538072838 14.4148
109.033829528737 12.2365

