>compound Trihexyphenidyl
>formula C20H31NO
>parentmass 302.246852038086
>charge 1

>ms1peaks
98.0973402849611 3.54934
302.248324779379 100.0
302.403270409004 5.32977
302.47022499579 2.44265
302.574464939614 1.20498
302.61714227481 1.30652
302.668532780764 0.90581
302.708462791099 0.878879
302.742870284658 0.848278
302.78363485723 0.835167
302.865471374729 0.733544
302.909405467514 0.701934
303.006506621572 0.619825

>collision 10.0
98.0960727389503 27.8049
98.186682052582 1.20149
98.216175079434 0.5276
284.237908829911 1.27802
302.246852038086 100.0
302.400551885221 5.34561
302.470019807503 2.5297
302.57492974806 1.17084
302.616509461667 1.28701
302.676723672947 0.845097
302.783643855449 0.78005
302.821418854487 0.739854
302.911073942041 0.659508
302.982156392813 0.585012
303.034741412373 0.548861

>collision 20.0
70.0658009895901 0.584688
98.0954727143857 100.0
98.1859073082395 5.46598
98.2175165915756 2.61048
98.2834339779694 0.924721
98.3067030833535 1.19346
98.3412715548204 0.610381
98.3796220352623 0.561711
98.4027408238938 0.553757
98.4285860905541 0.517278
284.237501317788 3.60947
302.246568709192 21.0729
302.404462716876 0.733651

>collision 40.0
41.0398960294577 0.912812
42.0350389602697 0.800872
44.0507146042407 1.13807
55.0553828926273 3.82077
69.0709019823871 1.43326
70.0662599750564 6.08722
91.0550723365316 1.42084
95.0864030117655 0.671706
96.081518822048 0.622795
98.0960578806455 100.0
98.1860641053142 5.23728
98.217914416376 2.53867
98.262192419036 0.926192
98.284917305636 0.869569
98.3072351514014 1.09621
98.3337471585354 0.601793
98.3604410560338 0.569028
98.4032696740625 0.531623
117.070611861992 0.843704

