>compound Fluvastatin
>formula C24H26FNO4
>parentmass 412.192147227557
>charge 1

>ms1peaks
224.087587678679 1.72929
266.133368063159 6.90481
370.147186257548 0.680283
394.180978258283 3.16648
411.204031460102 0.971723
412.192116390694 100.0
412.376938636033 1.73024
412.488090443206 0.8326
412.653262379174 0.696985
412.812665609582 0.676658
412.979473935112 0.601808
413.191594535674 0.90056

>collision 10.0
123.044169813651 0.8628
141.053727471827 1.47097
197.075114247027 1.47835
212.088714951947 0.807302
222.06623316662 0.508442
224.086037244386 18.9807
254.132570587238 1.69485
266.133125031537 58.8529
266.320703705033 0.607545
267.134754552139 1.13494
280.150506311235 3.589
290.132416202774 0.585629
306.165177956396 0.849679
352.128716491282 1.31901
370.145535320792 3.19441
376.168436801325 1.54344
394.180263457252 12.8812
395.180804429139 0.540253
411.201386189456 1.41035
412.192147227557 100.0
412.448026082551 0.882304
412.625991968119 0.751033
412.778617481716 0.537534
413.19026136374 1.16187

>collision 20.0
95.0480185470897 1.00262
123.043580772599 4.96687
123.07804168399 0.995867
141.055076220993 2.5769
196.070390068049 1.31138
197.077065605195 1.04618
204.079075393023 0.647104
211.085207469291 1.11403
212.086698932716 3.08853
222.070035822529 1.05645
223.080619139675 2.57203
224.086309295025 75.0495
224.224324462624 1.25002
224.262494210186 0.905942
225.097672122706 0.514138
238.102237938317 1.9026
248.087296337552 0.887237
254.136176760623 2.53996
264.114744728207 1.73814
266.133077085035 100.0
266.281322819083 1.77403
266.327238209425 0.84699
266.37049303325 0.792553
266.428320205749 0.765307
266.508992126818 0.909435
266.578431640125 0.613335
266.700174585558 0.865737
267.134833333585 1.76781
277.164961771858 0.589196
278.136853642616 0.724173
280.149265464731 8.48964
290.134401883087 1.48829
292.149476321953 0.700896
306.165208371946 1.82835
334.121791624614 0.782603
350.196598582382 1.11712
352.133939767373 1.42127
369.138678859134 0.827177
370.14823465461 1.55386
376.171967274436 3.9303
394.180134592284 7.51954
411.225029667632 0.501349
412.093376712163 0.611372
412.192857337309 9.82142
412.27003821968 1.80269

>collision 40.0
41.0369643683251 0.529534
43.0189502772436 1.42091
43.0573071808366 0.502266
55.0183141080472 3.60522
58.0711865012273 0.723277
65.0348052060444 0.529989
67.0541088345763 0.932733
69.034124111832 0.583209
69.0717102316342 0.54904
71.0126153480691 0.514258
71.0503445529832 1.29114
81.0325949194362 1.01676
89.0245794722685 0.670355
95.0501777598038 4.82858
97.031083543967 0.876793
123.043479801222 3.29894
153.071798837649 0.60157
177.068643540649 1.74865
186.065805752152 0.616662
196.067412232724 8.20567
197.074696154437 17.9698
204.078983859495 4.68704
211.08029028292 1.13402
212.085060234873 1.97905
222.069368739419 5.22226
223.078222273592 12.1204
223.155131299425 0.674053
224.08674889891 100.0
224.293901625565 0.886151
224.459269517281 0.590724
224.560798426833 0.590754
224.644387340971 0.507795
224.705682520274 0.859144
224.907511419902 0.536547
225.08853338835 1.11161
235.078953765603 0.911705
236.083360733137 2.00841
238.101393699244 5.50531
248.08142248855 1.24838
251.112037687267 0.867428
262.105186686911 1.12521
264.112486839614 2.18966
266.133425595057 8.07762
275.102227481316 0.736252
288.116738704822 0.901437
290.131580601439 0.621755

