>compound Trimeprazine
>formula C18H22N2S
>parentmass 299.157694351453
>charge 1

>ms1peaks
58.065839762912 0.749785
100.112551536609 1.91577
299.157326676024 100.0
299.309738855469 5.63958
299.384575535776 2.51852
299.524088945775 1.38094
299.574976818578 0.955528
299.647794302687 0.874315
299.689647804023 0.863074
299.73185285238 0.811769
299.81366254543 0.713309
299.852781527931 0.663781
299.896503181822 0.633215
299.979761091873 0.551592
300.024784747087 0.506676

>collision 10.0
58.0661148256268 6.42856
100.112025018835 18.3595
100.203160132436 0.686484
212.053723404352 1.43834
254.100966110387 0.820611
299.157694351453 100.0
299.310410026794 5.56178
299.384055103075 2.49814
299.52469688869 1.2968
299.576457361018 0.891944
299.650477325957 0.826238
299.691095997118 0.83308
299.729628884361 0.769761
299.813374962294 0.676063
299.853843082845 0.633279
299.931990237103 0.588241

>collision 20.0
58.0645436883503 61.267
58.1348326792745 2.79422
58.1570621719169 1.26732
100.110077439747 100.0
100.202366897889 5.29349
100.232195735156 2.34749
100.259421943996 1.08855
100.300294880535 0.748063
100.323753782331 1.00035
180.07923574061 1.9963
199.043313161726 0.921833
212.051336697254 15.3801
221.11784919208 0.526594
254.098030691612 4.27358
299.155068218621 34.8929
299.311891697278 1.25299

>collision 40.0
42.0347469722981 0.500865
43.0424724021186 0.520516
44.0504210966081 1.3212
58.0649319584788 100.0
58.134912984837 4.81659
58.1580513784747 2.33168
58.2097295112746 0.678442
58.2276779312273 0.857239
71.0736369750667 0.742026
85.0890969398038 1.14644
100.112745055893 25.3559
100.202901773897 0.822587
167.072813719106 0.661781
178.065350671076 0.722465
179.073391374849 3.04071
180.081286381272 17.6092
199.045406749737 2.03879
212.053543599479 7.55371
220.111599734098 0.514543

