>compound S-Adenosylhomocysteine
>formula C14H20N6O5S
>parentmass 385.128743388017
>charge 1

>ms1peaks
88.0196231139862 0.556123
134.025971078338 2.20055
136.062235639567 6.02958
250.07295855215 3.13324
384.250493575117 1.06757
385.128583852659 100.0
385.303150221733 2.52159
385.365777169262 1.45953
385.481608705799 0.87652
385.690769253232 0.846003
385.887010858202 0.542799
386.011670541069 0.544894

>collision 10.0
88.0220516874409 2.86338
97.026173373252 0.512909
99.0420417142253 1.13495
102.128316841812 0.57618
119.035722290364 0.503659
134.026717063001 41.1447
134.133704965537 0.518085
136.061168868393 61.0865
136.199677661643 0.796663
232.066547275577 1.66281
250.073714464835 27.9626
367.296412272818 0.85795
384.195367720537 1.58025
385.128743388017 100.0
385.293302262981 2.65994
385.414490544792 0.796732
385.477286634412 0.763395
385.555921255561 0.772183
385.665981385585 1.10934
385.753330749758 0.585802
385.886983948211 0.98552
386.086707414072 0.611587

>collision 20.0
41.0407149525577 0.512933
69.0720377333283 1.08682
74.0956755381311 0.909243
88.0216300284078 14.9308
90.0367582733785 0.525314
95.086335952158 0.523825
97.027118583365 1.39121
97.0668816956445 0.764001
99.042876172678 2.32658
111.07438320689 0.543616
134.02687042633 95.5555
134.133659020889 1.53126
134.162581871174 0.975594
134.203145374557 0.67336
134.263500924175 0.674047
134.491378689633 0.770008
136.061878509836 100.0
136.194105591012 0.827857
136.253518424267 1.00476
136.293029793695 0.77542
136.391722004592 0.575872
136.515935565792 0.709928
136.647187954098 0.542732
137.280780022199 0.584947
148.039471282828 0.530682
183.060865272021 0.821728
186.054689225198 0.757174
214.049250939306 0.675097
232.065269148493 2.09749
250.07372342589 12.6989
331.216621516152 0.818095
349.306357387547 0.569729
385.140460215275 3.28227
385.290178388458 1.03783
385.376228188558 0.821454

>collision 40.0
41.0381348603126 0.714465
56.0510758188753 1.08259
69.0690678048233 0.502431
74.0957391437899 0.805709
88.0219038944364 75.7252
88.1082331212438 1.2085
88.1515239986228 0.534276
88.1957193919238 0.659041
90.0336870493778 0.522427
92.0225320661134 1.02796
95.085294899314 0.544417
97.0271124897668 1.87247
99.0472261122107 0.785874
102.036914230434 0.874158
107.085248958516 0.762074
115.084497924035 0.67837
119.034945562162 2.47704
134.026575786719 37.6981
136.061501557068 100.0
136.168434275313 1.5584
136.201604185121 0.914276
136.454855074985 0.569687
136.538080964968 0.512192
137.062667491051 0.759097
213.151946600098 0.585844

