>compound 5-Hydroxyindoleacetic acid
>formula C10H9NO3
>parentmass 192.063697454417
>charge 1

>ms1peaks
91.0559839598612 0.558853
110.00632541127 0.941636
146.05997383824 12.0397
149.999304609592 0.612679
151.033093186854 8.31095
191.060251338358 0.655456
192.065409240668 100.0
192.157891970496 1.22221

>collision 10.0
66.0207713536724 0.602142
68.9833059340944 0.63473
110.008579568889 8.00986
146.059863017519 100.0
146.393913175679 0.546461
147.062703331544 0.540277
174.150964560657 0.633035
192.063697454417 21.3747
192.162430098689 0.856879

>collision 20.0
66.018626562345 4.29943
68.9812109188154 1.04163
91.0558567999616 1.97834
110.008756311798 2.90798
116.046650480187 0.587219
117.057114666373 0.940797
118.065632126831 2.92431
119.048521684448 2.87901
128.047730716861 0.558661
132.043535144633 0.565913
146.059504767622 100.0
146.392615378962 0.527799
192.060140235919 0.533278

>collision 40.0
39.0228732681463 6.06337
41.0369907188439 1.82227
42.0378253750148 1.53363
54.0318541986423 1.33711
59.0461075050817 1.49042
65.0383734022222 19.2516
66.047901826386 1.21495
68.9840770496983 7.06975
70.4127486703223 1.38242
75.0235865716388 1.5068
76.0291222029143 1.00976
77.0380053846131 8.2911
78.0439173453182 3.7959
79.0247475249427 1.44242
89.0368203000728 1.12638
90.0459603708311 1.47774
91.054340395797 100.0
91.4266403001846 0.98178
92.0475192274437 2.14582
101.038357505108 14.6051
102.034572315587 7.51337
103.049055505428 1.05836
105.046223204905 0.952921
116.050411639852 4.98347
117.057125455097 54.1157
118.065400693055 43.1126
119.048399409061 30.6863
120.044039497379 1.86591
128.04932405945 13.2016
133.052698184632 2.29298
144.049178274311 3.43456
146.06024838686 55.3686

