>compound Tubocurarine
>formula C37H40N2O6
>parentmass 609.296971466038
>charge 1

>ms1peaks
609.296755024114 100.0
609.514155253061 0.675077

>collision 10.0
609.296971466038 100.0
609.514498201023 0.732832

>collision 20.0
58.0661137443991 1.12781
564.23694856775 2.53145
566.253911952557 0.524977
609.296584711826 100.0
609.514952459672 0.72762
610.295227430424 0.741781

>collision 40.0
44.0495940145351 4.20891
58.0659244140881 100.0
72.0827913488117 0.558504
146.094743211041 0.533487
160.077233408823 0.647352
161.08925681144 0.532999
162.092182797058 0.977222
174.0910331329 11.9337
175.09741320849 3.62607
176.107061475146 3.83239
177.075833821055 0.514523
189.113567037498 0.924803
190.088285855351 1.30919
191.094829056099 1.2674
192.10010495604 5.88335
240.075741948161 0.72174
241.090869580806 0.530211
253.084852083948 1.95904
254.094506337706 1.00787
255.102138641777 0.736515
265.088700950685 0.745696
266.114989265885 3.89561
267.102856631885 2.3528
279.098859880178 0.577943
280.103546326685 1.55727
281.110571468312 2.78524
282.113562921716 1.47165
283.126973730856 0.61846
284.127929758661 9.45423
293.114861673299 1.08533
294.113367007761 0.757146
295.12030191358 9.60324
296.126178905858 4.45259
297.135937403956 29.9129
298.143082734745 2.75303
299.148305014967 0.69509
308.126260952531 2.05508
310.141760833972 5.65317
325.167780590958 1.5136
385.155731851199 1.10919
386.173489635854 33.5664
387.172708807762 1.18542
389.138800924548 0.546149
397.145109453557 0.840339
398.150638200379 3.61812
400.172701418055 0.703111
401.151119573404 0.546376
411.159769286618 0.58064
412.167221173214 1.10494
424.164957821374 0.759487
426.177965916674 0.853277
428.182014084121 1.25362
429.191965040512 1.20184
430.161479588772 0.669289
442.190450886987 0.827528
443.169782933324 0.544043
444.174854186947 0.827461
455.175479557141 0.726851
458.191655135861 3.49434
460.193211349442 1.04857
462.187974064262 0.638471
472.17643336477 1.31504
473.183848727464 1.35883
475.187499040544 0.640845
503.25268835788 3.66855
507.178616218835 0.621182
518.183640455495 1.3134
520.20150069322 0.650021
521.195854753886 13.5936
523.210987670727 0.61565
532.212223959288 3.20901
533.19518036642 10.4183
534.20057786569 1.39501
535.21379910794 3.98672
536.215441963674 1.18171
546.224985985167 0.73711
547.212133869715 0.787738
548.207745324013 3.89892
549.211986315147 3.5816
550.219921204663 2.16241
551.2316360091 0.521955
563.23688067552 0.631654
564.237743725331 72.7818
565.242923925815 0.814939
566.252759230259 23.2585
577.271395112692 1.78599
578.252387442318 2.04137
579.247852122962 0.728593
609.29588656738 80.7795

