>compound Furosemide
>formula C12H11ClN2O5S
>parentmass 352.996109915883
>charge 1

>ms1peaks
122.059331294399 2.5761
165.108843683703 2.93596
216.117335580071 2.61064
309.00624204101 2.12095
310.914802866696 5.31851
311.14383965116 2.38424
311.205723430742 2.04743
311.328071677506 2.59763
311.993520267926 2.50937
352.094417198783 2.29665
352.245364351135 18.3267
352.347711102625 2.39297
352.996109915883 100.0
353.085356819576 13.5336
353.235566755784 12.4192
382.23556675578 1.0e-13

>collision 10.0
38.9628432881264 29.2314
74.0970263431215 25.7962
109.046343132758 12.0278
174.947834107062 13.7262
194.111819323645 9.19067
207.155289506258 13.0065
265.017375779599 11.3539
273.01706511572 8.47148
289.105333982258 10.3328
306.24089358555 13.0879
306.974036957059 9.55328
311.163524122668 13.1847
352.081112696457 12.9896
352.134763611226 13.7171
352.198120211126 16.7413
352.994131525945 100.0
353.0835560708 19.8622
353.143986221678 11.8402
353.208766978027 21.7945
382.20876697803 1.0e-13

>collision 20.0
81.0172907970138 100.0
123.041156714483 27.9872
352.214701999839 86.0413
353.128823036499 48.6723
353.2221447212 31.6423
382.2221447212 1.0e-13

>collision 40.0
59.0511703413108 64.4183
81.0234694971015 60.2497
84.9719437890427 68.722
90.9724739353263 100.0
280.091236354955 67.6068
337.140583047363 66.6532
366.14058304736 1.0e-13

