>compound Ursodeoxycholic acid
>formula C24H40O4
>parentmass 375.28858995109
>charge -1

>ms1peaks
163.108305218344 0.629524
175.14420691127 0.54947
179.109692345319 0.538112
180.04283829075 0.625927
200.014311997796 0.96678
339.267952340248 0.961347
356.265822211168 0.682644
357.278780649011 29.1132
374.137457669629 0.599232
374.280599762289 2.73347
374.552203120573 0.728519
375.287695409611 100.0
375.437981444717 0.504035
375.902799798085 0.760055
375.974987153967 0.542698
376.26744652515 0.514667
377.26744652515 1.0e-13

>collision 10.0
81.0711533661324 0.561312
99.043396895449 0.511839
109.09812750672 0.78378
133.096522788467 0.777034
135.115254655861 0.915033
147.112544640716 0.977065
149.131223396246 1.46828
161.129870023582 1.68234
163.146991181172 0.554732
169.119972055183 0.69666
175.10767210336 0.541258
175.148663922353 2.16139
181.125631171886 1.16571
189.164344494105 1.63721
195.136520688614 1.07494
201.162210708514 1.81185
207.130392293064 0.5152
209.155572882719 0.882654
215.174002900532 1.57786
217.192569376442 0.502468
221.154210576933 0.595707
243.21017414719 1.19773
247.168150888224 1.28762
263.200448499086 0.560366
275.196903375184 0.882006
321.259506239799 2.1264
339.265912732893 6.85249
356.26852126844 2.26675
357.278691248453 100.0
357.4407901414 0.660662
357.532563851505 0.580956
357.844196823019 0.546701
358.069820538565 0.579025
358.257353038142 0.711206
374.276000601947 1.60847
375.28858995109 41.678
376.28858995109 1.0e-13

>collision 20.0
67.0574366210739 0.83745
69.072431502893 0.719583
81.0718348498961 4.25057
83.0856484604332 3.19515
91.0513207208754 0.994953
93.0696041023771 2.04558
95.084773211855 6.44821
97.0986617451868 1.36816
99.0444794275833 0.653871
105.068554284811 3.0195
107.083855689727 3.5102
109.101397768977 3.84388
115.074285652704 1.38986
119.083254539114 2.65617
121.100109799232 5.47631
123.11802024034 0.740137
133.102451005506 3.56968
135.116985294046 8.27182
145.102226060892 1.0645
147.118793237715 8.72385
149.131517479856 9.77068
151.108769703852 1.41863
151.140806904694 0.534985
153.087272161156 1.71431
155.107747338324 0.901903
158.623948779991 0.515359
159.117121818844 2.09125
161.132129992413 6.3404
163.112310209096 1.32602
163.148525254271 3.83869
165.091150273713 0.761805
165.126328796128 1.03256
167.106704613109 1.4082
169.122363759179 0.691334
171.116374413438 0.707117
173.132389119876 1.19259
175.148867290152 8.16726
177.134239665955 2.73132
181.121488925643 4.64484
185.126913232901 0.504774
187.152520964103 0.724115
189.164331155442 4.04581
193.118412626023 3.51714
195.137370292386 6.84307
199.146613746367 1.71153
200.012499992022 0.601815
201.162762540753 7.70201
203.177404418372 3.35853
207.13256775063 3.31318
207.178559261811 0.581502
209.156346254052 2.02121
211.148796029873 0.979426
215.179176473498 5.04534
217.156454400179 0.548732
219.179754396449 1.06345
221.150969975608 5.95782
223.163697286531 0.784691
225.160977789545 0.554067
229.193004343766 3.3915
235.17134026687 1.1182
243.207540801721 5.06688
247.169276800367 4.12726
249.182320593045 2.41653
260.038564627864 0.507952
261.180156705233 1.43989
263.200713549576 1.03757
275.201752174325 5.18752
279.215241775555 0.792193
289.213220797725 1.07342
301.215376358632 1.79387
311.231142799145 0.50632
311.278201816677 0.522225
313.242104455168 0.530942
315.222694322433 0.500526
321.256026907732 4.67224
339.266654857516 8.261
356.269521844137 1.79557
357.278185291127 100.0
357.449984453804 0.524095
357.507284508181 0.636009
357.601158419222 0.684528
358.166234775855 0.618175
358.287954479353 0.513929
374.271697965327 0.643976
375.28240323898 4.87201
375.332222779701 0.605487
376.3322227797 1.0e-13

>collision 40.0
41.040204762656 2.74726
43.0181939801637 1.686
43.0535346512925 2.65224
51.0195558170528 2.18738
55.0165627574438 2.45362
55.0552507204073 28.7095
59.0498744649242 2.93438
65.0408726534476 3.05411
67.0544567281552 26.9347
69.0702012902554 15.1337
77.0392117774543 4.98224
79.0535554413458 25.1169
81.069950176747 100.0
81.5659869555743 2.15245
82.0743582045125 3.33008
83.0486701855557 8.55126
83.085999668166 16.953
85.0638544949258 9.45444
86.0582351975907 2.77285
91.053548034386 29.4531
93.0700502890424 58.364
95.0847162095214 78.8395
97.064585364312 2.2515
97.1005006919021 2.86436
99.0440171025014 6.62563
101.060861612587 6.94324
105.069656844124 59.6944
107.084997728435 78.502
109.065756410904 1.87066
109.100658872957 36.8212
111.083602882666 2.14046
117.068717656291 4.25501
119.085203908727 38.6719
119.597479449457 1.78265
120.0838809565 1.82576
121.100921055995 56.265
123.080074118781 4.92827
123.116267506892 4.93149
125.082972610925 1.8795
127.074784854782 6.87189
131.084455012894 8.66564
133.10062386515 48.4199
135.115191866795 75.0152
137.094041905322 3.05121
143.091224192161 2.62061
145.100562393254 22.2465
147.11618810068 46.3294
149.096256208376 2.24377
149.132908901719 32.4516
151.063915439724 1.90631
151.111499608616 3.77978
155.075580879814 1.60982
157.097643814929 3.56164
159.116334431361 18.0994
160.123155865329 4.02361
161.132291688699 30.4721
163.106936925842 6.88142
163.147579753413 5.1078
165.088911468947 1.96897
167.107219895409 6.91408
169.101350533182 2.08293
171.118963906078 2.90798
173.131322846381 15.1505
175.112704972374 9.84394
175.144729061252 12.4165
175.177731192684 2.40293
177.130636512455 4.19205
181.118628841643 6.00911
183.117202947681 3.32484
185.128779215047 4.81607
187.146044962463 9.29061
189.126296556554 8.24247
189.162081581857 6.40587
191.103950186505 1.83597
193.118827788137 3.90606
195.135491306462 5.09422
199.140839861916 3.30066
201.161957024666 14.2685
203.177073287078 9.33516
207.135127288738 2.80299
209.151111555935 2.08536
211.15025716197 4.62515
215.180140544189 13.6925
217.196603491767 3.38009
219.144252038274 1.65631
229.15590928423 3.08439
229.194236466278 2.03469
235.159244254474 1.76837
239.176974249947 3.21435
241.195043020612 1.83932
243.211620009251 4.70455
247.164956546283 2.8617
249.184510383765 1.8762
275.202877026808 2.81306
287.192676454692 1.9487
297.253530013732 1.75673
321.25717806229 4.05099
339.262177027371 1.73843
357.272856331155 3.25522
358.27285633116 1.0e-13

