>compound Urocanic acid
>formula C6H6N2O2
>parentmass 139.049410581025
>charge 1

>ms1peaks
93.0458769101235 2.61599
95.061310894885 1.7082
98.99353204358 1.89789
99.9910204477003 0.656109
121.040519877211 11.3241
137.999676032527 5.18544
138.501279311698 0.819973
138.99883109443 1.54094
139.050412668599 100.0

>collision 10.0
39.0244154255092 0.907501
58.9888463912288 1.0873
66.0342584338629 3.08969
68.0502004512498 1.66288
79.0216134110634 0.71643
90.006154361238 0.695102
90.4856093255069 0.824075
91.4815993991076 1.35001
93.0450723529649 19.9254
95.0605371167675 9.4258
97.039758246319 1.57012
97.995181332756 1.25561
98.9944683261648 2.26723
99.9910578837408 1.04736
121.039311825458 53.5919
138.101070859209 0.535576
139.049410581025 100.0
139.192762121109 1.14854

>collision 20.0
39.0240841274399 9.69089
41.0396821688564 1.95472
42.0344806733034 0.908733
51.4776621222787 1.30059
52.4761030085733 1.1078
58.9887729286752 4.92902
59.9869451289737 2.62787
60.9849189310019 1.9829
66.0347849482406 24.6919
67.0426949272903 0.724187
68.0493677449568 10.1003
69.0462815796181 1.47452
74.9825145787901 0.54453
79.0224017254893 0.607328
82.4938761477416 0.546194
91.4833989072995 1.42001
93.0451766290262 100.0
93.1649313482507 1.39687
94.0412108718445 1.09485
95.0610880478887 21.0182
97.0393963875922 3.65803
121.039460602967 80.2304
121.17222825347 0.682151
139.050031790178 17.9557

>collision 40.0
38.0160044328995 0.645608
39.0244105757925 100.0
39.1039937877962 2.06005
40.0288837601845 1.16237
41.0381992079309 13.2647
42.0353960440075 7.47262
44.9989148222552 3.08325
50.9741734829838 4.15118
51.4783301100015 6.51284
51.9714769963739 4.42443
52.0212789374704 3.17404
52.4750995759723 3.48031
53.4753050929332 0.634532
54.0356267828265 1.44695
57.9908757026048 0.709357
58.988845259263 0.89813
59.9855883732047 1.21356
62.9917592482632 0.974093
66.0353650304909 66.9973
66.1404508842958 0.750308
67.0432668430506 6.67195
68.0417370466767 20.421
69.0453753899276 3.25776
74.4826631624647 0.638731
80.0515337135002 0.87027
93.0452710035915 82.3084
94.052620862305 2.41001
95.0607825826064 0.97726
97.043728124747 0.588888
121.039093409435 2.11312

