>compound Gallopamil
>formula C28H40N2O5
>parentmass 485.297831434615
>charge 1

>ms1peaks
165.081690573864 1.22985
165.096396703201 1.32135
485.247405041458 5.56469
485.272617910547 57.1453
485.297831434615 100.0
485.323045613661 64.502
485.348260447686 16.0365
485.373475936689 3.25433
485.39869208067 1.21039
485.42390887963 0.669132
485.449126333569 0.58658
485.550002699108 1.51716
485.575223427939 6.24363
485.600444811748 1.13425
486.281669756466 0.809412

>collision 10.0
150.071769946209 0.502935
165.066985099533 0.957194
165.081690573864 7.1315
165.096396703201 7.7051
165.111103487546 2.19536
290.159490503153 0.679383
290.17898731004 0.870414
333.193702063864 1.22141
333.214594658995 2.54363
333.235487909117 1.38834
485.247405041458 7.29813
485.272617910547 61.1555
485.297831434615 100.0
485.323045613661 70.6939
485.348260447686 24.3103
485.373475936689 6.8233
485.39869208067 2.41199
485.42390887963 1.31063
485.449126333569 1.12351
485.474344442486 0.746414
485.550002699108 2.19114
485.575223427939 8.40277
485.600444811748 1.78043
485.85269467366 0.526729
486.281669756466 0.87881

>collision 20.0
105.067858937172 0.617863
133.056847201718 0.526406
133.070050086574 0.55227
150.057748954963 3.15793
150.071769946209 3.70289
150.085791592462 1.15168
165.066985099533 7.68459
165.081690573864 46.1975
165.096396703201 50.5249
165.111103487546 16.9677
165.125810926897 2.18059
165.140519021256 0.608334
165.243494021963 2.23832
165.258207356378 1.88424
181.084026471817 0.625425
275.151485989252 0.53775
290.159490503153 4.40818
290.17898731004 5.66992
290.19848477192 2.0304
291.174192983591 0.626938
333.193702063864 6.87539
333.214594658995 14.0784
333.235487909117 8.0123
333.256381814228 1.18516
485.247405041458 5.52507
485.272617910547 57.0737
485.297831434615 100.0
485.323045613661 65.1721
485.348260447686 16.5555
485.373475936689 3.42131
485.39869208067 1.22605
485.42390887963 0.685523
485.449126333569 0.626333
485.550002699108 1.57604
485.575223427939 6.54188
485.600444811748 1.16953
486.281669756466 0.517381

>collision 40.0
58.0568827253665 1.42088
58.0656039903141 3.30485
58.0743259102583 1.88362
77.0295895628243 0.74635
77.039635230655 1.36894
77.0496815534821 0.612826
79.041581546785 0.825797
79.0517575589152 2.96503
79.0619342260419 2.23345
84.0853073880923 0.542312
91.045635288863 1.0508
91.0565566869878 1.56095
91.067478740109 0.580547
96.0713039805476 0.522421
96.0825227470743 0.858552
103.048032197463 2.05586
103.059651166839 2.15615
103.071270791212 0.558273
104.061332875022 0.586741
105.056127308401 3.36119
105.067858937172 9.4268
105.079591220939 6.16459
105.091324159703 0.870821
107.036229232514 0.729317
107.048070900694 1.69936
107.059913223869 1.0078
118.033306235101 1.11059
118.045741330091 1.28699
119.042680203251 1.0321
119.055168471844 1.00268
120.043811524762 0.836993
120.056352194217 1.74891
120.068893518682 0.928708
121.061727985369 1.85766
121.074321710692 1.27973
122.071295844861 0.682744
122.083941971035 1.16776
122.09658875222 1.62825
122.109236188415 0.781011
131.044522489928 0.570423
133.043644971873 0.75171
133.056847201718 5.89623
133.070050086574 6.28489
133.083253626438 1.63635
134.062133228561 3.71329
134.075385894158 5.06377
134.088639214764 1.79024
135.03129918261 2.16877
135.044599663914 3.83668
135.057900800227 2.04323
135.07120259155 3.06711
135.084505037883 3.3924
135.097808139225 0.957295
149.049958947473 0.674049
149.06393277811 0.763621
150.043728618727 3.06175
150.057748954963 29.8879
150.071769946209 35.7882
150.085791592462 11.719
150.099813893724 1.07748
150.21201588412 0.767194
150.226044080458 0.843663
151.068934526 0.657969
151.083002677846 0.502172
152.083515660126 0.509795
154.051826272859 0.854502
154.066032631432 1.08641
165.066985099533 14.6761
165.081690573864 91.2957
165.096396703201 100.0
165.111103487546 32.8294
165.125810926897 3.98998
165.140519021256 1.11857
165.155227770622 0.521111
165.243494021963 4.02893
165.258207356378 3.43052
166.053700100188 1.34024
166.068449459988 1.36763
166.083199474794 0.588647
167.058148672337 2.11398
167.072942572606 2.96348
167.087737127883 1.1088
168.065625996222 2.86522
168.080464436955 4.08956
168.095303532695 1.57393
169.076132071406 1.26317
169.091015052596 1.43445
176.082567980021 0.914177
181.068624725793 2.34291
181.084026471817 5.47315
181.099428872846 3.15811
195.083258030928 0.590076
195.099244696264 1.36406
195.115232016605 0.792207
207.09248804711 1.95533
207.108959415048 1.8523
216.099174330264 1.10237
216.11600005452 0.669285
217.093012769682 0.68596
217.109877139052 1.32166
217.126742163423 0.699182
232.099792108008 0.606632
248.112600991351 1.0028
248.130629951184 1.49365
248.148659566016 0.563633
275.132500733483 1.65981
275.151485989252 2.92775
275.170471900017 1.34024
290.139994351261 0.725386
290.159490503153 7.4897
290.17898731004 9.87013
290.19848477192 3.62014
291.154662772 1.32523
291.174192983591 1.8137
291.193723850176 0.661423
333.193702063864 2.92108
333.214594658995 6.13386
333.235487909117 3.32784
333.256381814228 0.507175
485.297831434615 0.512535

