>compound Azlocillin
>formula C20H23N5O6S
>parentmass 484.12750146786
>charge 1

>ms1peaks
483.26874528333 0.517316
484.12750146786 100.0
484.322939700934 1.96152
484.387575794833 1.05146
484.465150297379 0.889283
484.695618771657 0.804224
485.051376063008 0.630275
514.05137606301 1.0e-13

>collision 10.0
281.094221050532 0.509801
325.087947731067 7.21043
398.079220325862 0.522527
484.123488293131 100.0
484.312963020667 1.53662
484.386953437575 1.02418
484.462012708131 0.707177
484.552496694042 0.827037
484.628990301452 0.551971
484.690648064917 0.972246
484.853648467549 0.629608
485.111001900293 1.02794
514.11100190029 1.0e-13

>collision 20.0
109.041309357847 1.88526
134.033486530279 0.796295
152.043097897888 4.39491
182.022740671238 6.40145
196.042233227285 0.535264
199.048930299865 0.594265
211.022703365834 0.708574
211.116329016242 0.573006
218.092297148792 1.839
239.04410702069 1.85019
240.075472781452 6.68594
241.085284460158 1.06116
268.059298541957 0.607697
277.088471716463 0.61467
280.070551138313 0.505076
281.097958581665 6.69248
294.123377039372 0.65642
297.094663600077 3.72876
308.122684207798 1.85773
325.091388700895 65.0896
325.253284754718 0.764276
325.317532591864 0.618655
326.095100006654 0.714675
370.075831473359 1.33896
380.169258666191 1.35017
389.138273156799 0.543981
398.078031012883 4.48546
412.141295826399 5.20791
423.110614982668 0.573973
456.128094679202 1.3047
484.127433518149 100.0
484.278073511878 2.61523
484.378334702655 1.12632
484.470631823837 0.900682
484.623249168626 0.930305
484.745837505471 0.890079
484.902426497083 0.537532
485.013582233093 1.18614
485.10943828686 0.613712
514.10943828686 1.0e-13

>collision 40.0
66.9783318055026 1.80964
106.065982360098 4.86605
108.030423493664 5.98269
109.036612804638 22.8841
111.035272893985 2.14214
128.041409121625 2.09898
134.03053395187 4.0717
136.021413181514 4.58475
152.041040056595 21.4445
157.074807796707 2.00351
161.065423522731 2.66873
165.044215522822 2.02657
175.085912798484 2.71147
177.031162451483 3.11206
182.024513155229 33.8936
183.054875300666 9.12588
196.037098659984 5.41926
199.045434591515 3.80657
207.040689284108 1.89366
211.121688653727 12.6094
218.090843052307 17.581
226.09495150765 1.82517
227.117971858143 1.85118
239.040242374577 22.9941
240.073274109848 100.0
240.192539692618 2.19274
240.372349522693 3.31606
240.502954519811 2.03523
241.0834804423 5.74277
241.362716735252 1.74518
252.527713420448 1.60493
254.100769708251 3.84977
268.079197781639 5.81854
277.0877127274 2.55985
280.271966663196 1.64943
281.098587759369 3.49209
285.11140939526 6.12203
294.123385720535 3.02428
297.102067988055 5.26965
298.099222073606 3.04619
298.661853855221 1.84768
325.097535656925 23.8454
326.09182622079 6.15963
326.142656107259 2.51677
355.063670916625 1.76713
378.149986132748 2.50283
398.076542000599 2.75995
412.131414978401 2.04209
441.1314149784 1.0e-13

