>compound L-Proline
>formula C5H9NO2
>parentmass 116.070753004158
>charge 1

>ms1peaks
70.0660127197583 17.6466
116.070663110205 100.0
116.169736106928 0.801157

>collision 10.0
42.0342504210696 0.666102
70.0658754229017 100.0
70.1436425476365 0.695791
116.070753004158 34.695

>collision 20.0
43.0546532144749 2.1683
68.0506341985942 1.14433
70.0659124815448 100.0
70.1440127353224 0.657183
116.070754503467 1.58465

>collision 40.0
28.0178348785032 1.38865
30.0344969836254 0.840344
41.0390612266736 6.51671
42.0343245175553 1.85723
43.0546726767041 14.5005
44.0501810030089 2.92143
53.0383583708322 1.50985
68.0496978511667 6.81322
70.0658161724626 100.0

