>compound Verapamil
>formula C27H38N2O4
>parentmass 455.291008904136
>charge 1

>ms1peaks
165.090340515057 0.590202
455.291510434263 100.0
455.484794187312 1.30609
455.557340961019 0.52162

>collision 10.0
165.090626353794 4.15205
303.205682125257 1.26735
455.291008904136 100.0
455.484412785564 1.11318

>collision 20.0
150.066874154248 1.92528
165.09062162685 40.6104
260.165224734868 1.48359
303.206958862411 11.245
455.291246419366 100.0
455.484778242197 0.773461

>collision 40.0
58.0661128790418 5.32511
77.039137709134 1.2916
79.0544977972868 1.2871
86.09719258741 0.523007
91.0542943944183 1.27877
96.0809542248306 1.47161
103.054377428871 1.84405
104.060455068651 0.52128
105.069810724021 7.39242
107.049090069286 1.49282
118.040824549475 0.849957
119.050328177061 0.954452
120.056436877493 1.16654
121.065078813966 1.62225
122.094126655909 1.84025
133.06437308296 6.01085
134.072355699846 3.91277
135.043361480097 2.38999
135.080457309423 3.3881
136.051893406704 0.665215
137.059826683557 0.697342
138.067812114766 0.663365
139.074516588404 0.749208
149.061553082844 0.516721
150.067386019313 34.628
151.075276425649 3.96423
152.080722511268 0.738591
165.090978189911 100.0
165.209009096828 0.604091
177.090249504257 3.42496
218.117801520882 1.40036
243.13706929636 0.957961
245.138676894243 0.684777
260.164318836613 6.98652
261.158598921073 2.38792
303.206797492224 9.1228

