>compound Vidarabine
>formula C10H13N5O4
>parentmass 268.104050387194
>charge 1

>ms1peaks
136.062275994572 7.21951
136.086583892482 0.571373
267.122759084347 0.694622
267.172046773627 0.525086
268.103933310535 100.0
268.256537295975 0.747342

>collision 10.0
55.0194032984273 1.13801
59.0515219799111 0.551979
85.0252832095805 0.991277
119.035771797068 0.910863
136.061193175327 100.0
136.090246072708 5.14161
136.125582553012 0.883968
136.178047971311 0.585289
268.104050387194 67.2893
268.223222230541 0.685961

>collision 20.0
45.0313185031427 0.529505
55.0190331029494 1.52931
57.0351231961076 3.12054
61.0275880862349 0.570878
69.0320238855352 1.48093
73.0276451434809 0.833861
85.0296919506764 1.49352
115.044883991797 0.50625
119.000988658424 0.647892
119.033130997707 1.08242
133.048849020162 0.546903
136.061264819259 100.0
136.117843866584 0.986984
136.143898727292 0.751359
268.10332752749 1.49501

>collision 40.0
29.0368827867648 0.611013
41.038494679012 2.28164
43.0180927982563 2.02146
45.0336013920238 1.35371
55.017335046338 3.00866
55.0565457564313 0.61244
57.0339660120696 4.41711
59.0504849197759 0.808365
61.0283287555087 0.660329
65.0154354427818 1.36008
67.0314704714733 0.501367
68.0379929716661 0.53328
69.0352111979705 2.2262
71.014032577411 1.09922
71.0226698975987 0.538119
73.0302989819574 1.75787
75.0434734590191 0.602801
85.0288295140066 2.65496
87.0454375568262 0.566654
92.024704880887 1.6324
94.0388631898202 1.21362
119.03565124092 20.2792
119.061902319925 0.564411
119.078794709596 0.530754
136.061497243751 100.0
136.114108943254 1.0174

