>compound Vigabatrin
>formula C6H11NO2
>parentmass 130.086059209379
>charge 1

>ms1peaks
41.0400423689317 1.29419
43.0189947677457 1.97442
43.0552413731841 3.20672
53.041013641842 1.03188
67.0546185438029 9.09269
69.0693987382929 0.878512
70.0665528688846 0.667869
71.0497664516736 63.1602
71.1525752261399 1.52615
82.4947275993513 3.69763
82.9935222265765 2.89801
83.4927559078213 6.6574
90.0072752949173 4.06679
90.5068398781253 4.9284
91.0055081673627 7.64013
95.0488148565956 1.87837
113.05982869052 34.5282
113.188911959594 0.800395
121.499573903007 0.87803
122.000927951389 1.01819
122.501758624013 2.00657
129.01399602947 1.4134
129.513361235745 9.82478
130.011493188536 14.226
130.086059209379 100.0
130.156941301853 2.07614
130.22564755396 2.1664
130.509265063043 0.501992

>collision 10.0
39.0241445299382 0.843907
41.0399151406102 7.25554
43.0182194330466 3.75651
43.0553885727162 11.2041
46.9965000211359 0.509878
53.0391571618232 2.35484
62.9908214731322 1.9225
65.038990504543 2.64138
67.0546388359502 18.7071
67.154213991578 0.510232
67.9652624092093 0.756388
70.0662515449016 0.729617
71.0497476368728 100.0
71.1520038885275 2.99284
74.4807978557482 1.29569
74.9786185060071 1.20048
75.4794504163942 3.67553
75.982435373445 2.15987
81.9904241291583 2.98904
82.4943192351967 5.6402
82.991851509394 6.44249
83.4924918166767 5.07259
90.0059253772781 3.48493
90.5067756354728 5.95377
91.0051834577483 11.8936
91.1244071470747 0.643277
95.0496389030689 1.56124
102.977371070665 0.528368
113.059605072091 39.7878
113.189333826994 0.926437
121.999838507983 1.63129
122.500056169142 1.76437
129.515875453281 0.739778
130.012182975428 1.77791
130.085830230633 9.27671
130.157303582334 0.624036

>collision 20.0
31.0180741893858 1.23604
39.0248730011911 1.73808
41.0394344739431 29.1021
41.1195508288311 0.676716
43.0182207412407 4.38128
43.0552308658615 20.2513
43.1356254437486 0.681345
44.9866810000058 1.04684
46.9961074150787 1.83374
51.0111979356382 0.562717
53.0393845959346 5.50328
61.0107101618908 0.820662
62.990696126054 6.38232
65.0390799500327 5.85106
67.0547682782032 25.6592
67.1542382858584 0.589054
67.4695649664004 0.990593
71.0497699056083 100.0
71.1523305798245 2.54579
73.9765200713855 1.57018
74.4778965527934 3.92901
74.9781306381347 4.73139
75.4789833240765 5.06771
75.9822255845803 2.02548
78.0139474282796 1.00488
81.9909256304858 4.91568
82.4928525046008 11.7622
82.6038836575974 0.643024
82.9928847050617 11.7099
83.4935004311371 9.56467
85.9615075843443 0.643516
86.9576602932977 0.866964
90.5061846732564 1.12393
91.0064149768237 2.45336
95.0487951944221 2.45847
101.996836414746 0.672885
103.994822164427 0.506694
104.96966351938 0.939385
113.058896343905 2.85975

>collision 40.0
29.0142250228491 2.77779
29.0381466982835 0.625597
31.017830310633 2.17739
37.0109868258954 2.0433
39.0236992836829 35.3115
39.9621697634185 0.705043
40.9897048198946 1.93687
41.0395487163642 100.0
41.12038411801 2.34971
41.2265045965489 0.512595
42.9850293016059 1.61521
43.018255102759 10.7085
43.055387771787 20.951
43.1354935096386 0.66388
43.4873199872494 3.49504
43.9852799459065 2.85666
44.0499203775527 0.555088
44.4878585813516 0.767019
44.9842338081899 7.29838
46.9953226310675 4.73267
47.966099859115 0.913688
51.0227716640246 4.68138
51.4993946204393 3.8066
51.9905759343764 0.538606
52.9992462228776 1.37485
53.0393699630373 20.6341
53.1267608354003 0.571328
55.0199658076324 0.918771
57.0343218678132 0.62207
57.4857636418893 0.711101
57.9659493309849 0.827131
58.9931922534082 1.76122
61.0127444001037 2.03988
61.9834688700022 1.99483
62.990556605761 39.8523
63.0905031028648 1.30061
63.9935106048777 1.92144
65.038947743483 19.1291
66.0049137201283 0.621904
67.0547451408097 22.2474
67.4688875448216 0.642028
67.9633289382522 0.513792
71.050279054202 11.7384
73.9751454016786 6.05042
74.4769502780656 7.60387
74.9761541097213 13.8692
75.0851483125685 0.758974
75.478065918583 9.95667
77.0407875440747 0.532125
78.0137292260725 4.14412
80.0061046965596 0.791859
82.4901321752626 0.586031
84.406791498092 0.713806
84.9599471369477 5.44488
85.9614903054148 4.87577
86.9647094890767 4.28734
87.9684026341859 1.61802
88.9667155464066 1.23149
102.998186287683 3.04667

