>compound (&#38;plusmn;)-Warfarin
>formula C19H16O4
>parentmass 309.111799025658
>charge 1

>ms1peaks
43.0190152284479 0.835142
70.9801141895471 0.768933
111.703025627226 0.570161
152.947502632707 0.595462
155.082612150557 0.567066
163.039374155117 8.00311
230.953537753824 1.34995
251.070769740815 2.18208
269.658459789141 1.24711
291.10109655686 0.538738
308.190982285545 0.536208
308.974392946027 5.20287
309.111647041098 100.0
309.268108024748 1.48762
309.321214781091 1.12624
309.38007010811 0.945478
309.470096866445 0.851458
309.526709079805 0.510106
309.646626175025 0.971894
309.801786350802 0.755952
309.924463707684 0.592864
310.043369417441 1.36824
310.108824794329 0.911181

>collision 10.0
43.0179064294227 3.86481
65.0331682891148 0.685195
93.0304330703727 0.604469
121.027926547023 0.853845
136.973964676495 3.59628
146.990104263751 0.972673
147.079445507988 18.1749
147.136854759701 1.13759
152.933801117375 0.855113
163.038327066699 100.0
163.185971173808 1.33458
163.250071715728 0.733875
163.29839630301 0.54796
163.403886522242 0.68246
163.475829500302 1.028
163.535006335502 0.947339
163.658467727012 0.794633
163.805232078116 0.577901
163.879144093775 0.890526
167.39893942097 0.853554
173.025481728956 0.575358
183.079569032178 0.694478
205.078743512907 1.15952
206.068499151224 0.657928
209.633994256211 0.67406
214.986817105032 3.4222
230.962839151214 3.75995
251.069161814283 34.0932
251.217447763149 1.01972
269.653148043708 0.669809
291.100622647471 3.96
308.968843569865 1.51846
309.111799025658 83.1354
309.261107057034 1.72
309.333981225244 0.949512
309.459830141203 0.630154
309.612109664362 1.12503
309.675686872524 0.985915
309.828072594959 0.733865
309.893696460408 0.923146
309.955065086087 0.731527
310.051181397382 0.7856

>collision 20.0
43.0187416528203 12.6521
66.6328536045523 0.736188
77.0376906208629 0.504096
93.030771275462 0.507751
95.0850389011667 0.679985
103.693917488634 0.545612
121.028587310688 2.23349
129.06620640933 1.73156
131.054323185972 0.878393
136.974715578594 10.1657
147.079570913549 14.3046
152.949440665237 1.18693
155.085965463131 1.70013
163.038734183449 95.3077
163.132475049943 2.20378
163.232833705104 0.805643
163.49575993502 0.742678
163.657643932109 0.571136
164.437174514528 0.780395
167.083885363831 0.629613
173.025048884651 6.32118
173.105663643009 0.537093
175.034730148255 0.507007
183.079954751386 1.67719
189.057997213659 2.2279
194.043268496101 0.834099
195.080428794303 0.751704
214.991669337169 1.42296
233.053931767596 1.02009
251.069103413951 100.0
251.276890554039 0.969489
251.48506554857 0.844522
251.726696074247 0.737662
252.084503299861 0.515688
273.084678929855 0.537046
291.100426390992 1.76856
309.114017155512 1.57146

>collision 40.0
43.0189846491722 31.4282
43.0567372355121 0.998925
55.0180013563467 1.92359
58.9594678817138 5.25664
62.1900271067029 0.776444
65.03868081937 5.92182
67.0524870864666 0.955922
68.9964466472586 3.50072
77.0386868219315 41.9759
77.1080454723482 0.756585
81.0224907035648 0.719704
91.0543716348125 12.6479
93.0333799929094 8.60921
95.0509871135093 3.16999
96.1882740109617 0.854353
102.050477771415 0.75833
103.051956411861 9.49651
107.042522365582 2.87047
107.064464609297 1.04671
115.051833190611 1.9989
117.067612954772 1.681
119.054433283084 1.00578
121.027959560937 100.0
121.115069451662 1.75094
121.161402296618 1.02832
121.353159085325 0.925013
121.408724192279 0.754793
121.713067873588 1.11643
121.799648606362 0.844179
127.054263574156 0.899322
128.059386201848 2.07346
129.068052593681 8.02908
130.036958184542 0.912153
131.049263747553 11.1196
136.971819420757 3.75725
145.028752279325 3.51318
147.080573242222 3.1655
149.016118262575 2.67955
152.060846770857 1.83316
152.946213474666 0.943943
153.067457566069 5.82228
155.084756163651 44.3491
155.146794605076 1.79185
157.025494496281 6.02881
163.038691908295 83.9121
163.150187218132 1.44997
165.068691953435 7.9061
166.079612649092 2.17465
167.08435042591 11.3695
168.062423201352 0.926249
173.022799719577 48.1764
173.111650514499 1.47553
173.144881084281 0.976264
175.034569258948 3.28114
177.070036091175 3.2801
178.078741960713 6.46083
179.08697495653 2.4966
181.062415618423 2.56342
183.081129729435 28.0144
189.047822619325 1.7246
195.079824173493 2.60562
204.475875158736 0.753932
205.068983089482 2.50552
223.075193533763 14.5295
233.061472602347 4.07598
234.061144568775 1.40199
238.288645662467 0.810787
249.05410634134 3.38104
251.069627488218 34.9827
251.156413022023 1.16691

