>compound Xylometazoline
>formula C16H24N2
>parentmass 245.20309271726
>charge 1

>ms1peaks
245.201771263306 100.0
245.258065368112 2.04625
245.310848744204 1.23848
245.347301170133 2.8242
245.390495907722 0.812556

>collision 10.0
189.138492488543 0.747604
245.20309271726 100.0
245.295937512763 2.39339
245.347316343932 5.59145
245.390907605565 1.69352
245.434860213357 0.538368
245.53619265992 0.515856

>collision 20.0
44.0497984074037 3.23568
57.0705991865716 1.87674
161.132295390676 1.41335
175.147853061117 1.68316
189.138639693155 8.58369
229.170219199806 0.860016
230.177885281655 1.41074
245.203123367063 100.0
245.296340721912 2.30282
245.347350186492 5.43236
245.390820297106 1.68635
245.435553422569 0.511182

