>compound Yohimbine
>formula C21H26N2O3
>parentmass 355.201498515515
>charge 1

>ms1peaks
144.080742392493 0.625828
355.200820320971 100.0
355.438266380057 2.54698

>collision 10.0
144.080616285766 3.7401
212.127839004198 2.45735
355.201498515515 100.0
355.43902455702 4.34427

>collision 20.0
117.069915961398 0.54809
144.081422799638 41.293
144.232172309283 1.23516
180.101499777336 0.51682
194.117611948778 0.915911
212.128489604606 20.9246
224.128532138169 3.41681
294.150488631341 0.693292
326.174212964619 0.815476
338.176535040208 0.755837
355.202595222004 100.0
355.441321771892 4.01349

>collision 40.0
44.0502068161569 1.05528
56.0501298684642 0.761622
91.0549424853465 1.13143
94.0649301407448 0.93125
105.06961913911 0.531439
106.065069817613 1.21192
115.05392512537 1.40863
117.068838395125 6.47293
127.053439229023 2.20064
128.052038916469 0.572601
130.064876743528 1.33951
134.096158707016 4.09571
143.072257321602 3.44488
144.080684134314 100.0
144.232040458535 5.92577
158.095311445501 1.01407
162.090453112788 2.02045
180.099168170612 1.3273
194.115795785845 2.32035
212.127451495 5.20271
224.127245620999 1.28408

