>compound Zidovudine
>formula C10H13N5O4
>parentmass 268.104562833985
>charge 1

>ms1peaks
58.0654513252865 0.755124
81.0351909367523 1.50851
84.0456400965836 0.656758
86.060773930585 1.20618
96.042327550793 1.27529
110.019518245983 0.744028
114.056782374926 2.37541
127.050675123775 100.0
127.1537442023 1.67168
127.189942392649 0.728547
127.24892346131 0.504287
127.378452867968 0.588511
142.061053420401 0.825144
153.065707637983 1.11965
267.963478133859 1.34349
268.104562833985 40.457
268.246481374407 0.520053

>collision 10.0
58.0655234040498 1.21967
68.050818981216 0.674076
81.0350317989455 0.713497
96.043717968848 0.524278
99.042331243734 0.749018
110.023201026517 1.13818
114.052122529267 0.977004
127.049103203622 100.0
127.15167263523 1.567
127.183907977334 0.760037
142.060407557856 2.72938
189.953210329025 0.608837

>collision 20.0
41.0415447419366 0.675981
42.0347216715317 0.920215
56.050782191192 0.791665
58.0662024339411 1.80407
68.0508510664292 1.30207
69.0337274945343 1.10031
70.0289494668755 1.19658
81.0376096406547 1.01857
84.0452413444008 1.41608
99.04399386264 0.666799
109.039317695048 1.56541
110.024628989222 3.60736
127.050372615725 100.0
127.15102421938 1.58116
127.188996021723 0.649317
142.061554924465 0.807455

>collision 40.0
39.0237002497984 2.1372
41.039944024082 6.72187
42.0344813917989 5.78211
43.017693498193 1.0655
43.0426284341023 1.42625
44.0532914858192 0.594445
45.0345878937366 0.927504
54.035323265248 24.1166
56.0500471503222 17.04
57.0561966158556 1.18631
58.0255117058285 0.617663
58.065742007356 1.82952
62.0196990039552 1.16956
66.03147957953 0.587364
66.9348879967335 0.798023
68.0495216097794 8.20933
69.0343255134777 3.79181
70.0306632621092 3.33525
71.0208310571471 0.556286
81.0448801452809 5.16609
82.0302718520624 16.8613
83.057503671907 0.850048
84.0448040235024 25.9433
85.0204967479063 0.546866
109.03956107663 25.3883
110.023445969634 68.8016
110.098685361669 1.32503
110.151583629612 0.8498
110.185464760197 0.854521
110.246452838534 0.607488
110.306555937713 0.529023
127.050240263771 100.0
127.150639725834 1.35254
127.183014084387 1.01337
127.212575634269 0.645104
127.254775102688 0.757565
127.29162096775 0.642997
127.356492280352 0.977131
127.44810749225 0.576375

