>compound Glyburide
>formula C23H28ClN3O5S
>parentmass 494.150151208886
>charge 1

>ms1peaks
100.113652154192 1.50929
169.005209092094 2.96253
369.066196258387 51.2176
370.076363080257 0.641301
395.047096798068 1.82452
455.144749401153 0.97597
493.310925304302 1.03583
494.149597790111 100.0
494.323423061457 0.904566
494.568785044568 1.50846
495.148781116159 0.833863

>collision 10.0
100.110682307774 2.62656
169.00479831488 9.47383
259.05087768643 0.501885
288.079091355888 0.875256
304.072567786956 2.41561
352.041813739074 0.832844
369.066495149664 100.0
369.305066858129 0.825243
369.765078531962 0.512454
370.068902082991 1.10096
395.044627260141 5.26372
493.319247050573 0.957518
494.150151208886 13.1873
494.563170403479 2.20396

>collision 20.0
83.0867474843366 0.62642
100.112479541819 4.40647
110.99663207542 0.646673
134.094859463641 0.819505
167.01451776187 0.78832
168.016195000888 0.711795
169.003867180232 69.762
202.050452800893 0.656416
210.100438642073 0.843113
245.995768664074 0.736629
259.047419797847 2.62833
262.061045025895 0.638301
288.079743630017 2.96278
304.070230323541 16.9275
305.070478385833 0.571179
352.042091325626 4.22013
369.064995154099 100.0
369.304771990727 0.571877
370.055062387257 0.790727
395.045029107369 5.59138
493.31466674016 0.883626
494.568900529058 2.1944

>collision 40.0
55.0550954614665 0.667814
77.0386523171981 1.5657
83.0856705864357 1.31674
91.0522586610928 0.601522
100.112204387792 0.627952
103.054454632778 4.46307
105.068989540201 1.94027
107.047515569195 0.715674
110.999401725951 3.3274
113.016293082435 0.66888
119.048177858158 1.50095
121.028577659085 0.522827
125.982551779745 1.20346
134.036365351441 0.71252
134.096148755826 0.79847
163.060183732226 0.804009
167.015163506057 2.19871
168.016788975278 0.580518
169.00464962893 100.0
198.0308194859 2.1957
210.098329974869 0.814447
245.074509672593 0.750128
252.098432640432 0.555599
259.050757574068 6.49062
262.065170597569 1.25061
288.076392856298 1.44654
304.072560090751 4.2881
494.562986003953 1.46856

