>compound Methyldopa
>formula C10H13NO4
>parentmass 212.091624744252
>charge 1

>ms1peaks
139.038983548892 2.91814
166.086414393945 6.12621
195.065656158232 5.06308
212.092012765822 100.0
212.269702643169 3.76106

>collision 10.0
57.0352405384575 0.730114
65.0400688730107 0.695925
93.0338139171482 2.5168
103.054313528343 1.85704
105.070943891376 0.944315
111.04439844004 2.73009
121.064573422714 0.819695
123.044088501031 3.68333
125.058839201416 0.551171
131.049299422336 1.3337
133.064047376133 0.977225
139.038930710212 71.8038
139.188514042203 1.9428
149.058903581424 3.54592
151.075341747659 6.16324
166.08617964934 100.0
166.248965665808 2.80261
177.054688328293 2.15207
194.081780225586 0.799802
195.065196014738 49.9672
195.235808455202 0.92637
212.091624744252 60.6424
212.269245006982 1.34467

>collision 20.0
42.0343040368747 0.579748
56.0504059325994 2.93444
57.040991964113 0.827364
65.039235498565 3.66586
77.0395705052723 1.15959
88.0399041339746 1.52385
93.0339585165175 19.316
103.054197432012 9.46736
105.070394914472 4.05469
107.049456213331 0.870484
111.044031627725 24.4921
111.175168757405 0.64161
121.064838189033 5.9339
123.043836858741 13.618
131.049331322977 14.1676
133.063865256264 3.08504
139.039075363654 96.094
139.188659371004 2.62194
148.076012352364 0.913319
149.059597519773 9.29325
151.072763745268 3.1986
159.04486012558 0.787697
166.086312505271 100.0
166.248995153645 2.69534
177.053787030694 1.93685
195.065961048842 2.35706
212.090840209011 0.550187

>collision 40.0
39.0235797792024 3.52134
42.0346405002067 3.66548
43.0193295925147 1.34303
43.0389833442924 0.54026
51.0238954683134 3.44403
53.0399182456557 0.501914
55.0190230813059 1.51147
56.050483993445 9.09832
57.0583886282023 2.9699
58.0656982557317 1.08815
65.0395065134081 100.0
65.14178013306 2.52679
67.0541022727572 2.56805
77.0391309004302 39.1524
77.1506915490668 0.851514
78.0479531715809 0.623121
79.0549600381396 7.60811
80.0504783883999 1.42034
81.0346275157104 1.46375
91.0544816050788 4.27178
93.0337858252114 67.8487
93.1563673652017 1.54376
94.0625797237873 0.669507
95.048707382577 2.41493
102.046755340458 1.95497
103.054223700425 87.6045
103.178450089416 2.27489
104.057794827358 1.38742
105.062936551753 4.73177
107.049314093755 1.73781
109.029313250456 1.02232
110.035425815909 2.08417
111.044071097139 10.411
120.080752939737 2.07952
121.064878516459 6.85331
123.04417211273 19.0319
131.049021206415 12.4402
133.053452024439 1.4444
134.050042992852 0.525457
136.042817794527 0.554645
139.039275292615 1.79893
148.076968145345 0.888273
149.060629493167 1.46835
150.057308833581 0.894461
151.063741737098 4.09121
166.086954924199 2.67282

