>compound D-Ribose
>formula C5H10O5
>parentmass 173.041380761276
>charge 1

>ms1peaks
173.041502530611 100.0
173.077695515727 5.76751
173.133286240013 1.41641
173.164651846197 1.86817
173.19930261384 0.87847
202.19930261384 1.0e-13

>collision 10.0
74.0969684915775 0.568989
173.041380761276 100.0
173.076033084062 7.19953
173.131554376886 1.42503
173.164726829577 1.66769
173.199492435161 0.729214
202.19949243516 1.0e-13

>collision 20.0
74.0967539160813 19.4988
74.6110294263122 2.44684
119.086717812707 3.06971
137.006165533787 2.21714
173.040701765923 100.0
173.103946912055 3.41101
173.160580471458 2.07845
202.16058047146 1.0e-13

