>compound Griseofulvin
>formula C17H17ClO6
>parentmass 353.077509322999
>charge 1

>ms1peaks
69.034707031739 0.631357
80.9470007382021 1.23937
165.056186957831 1.66602
215.012263415452 1.74637
285.050412307013 1.30976
352.166148740952 0.876881
352.897537400065 2.62869
353.079289813346 100.0
353.186312709557 16.6262
353.314012611022 0.838757
353.653890786708 0.528379

>collision 10.0
64.977714084385 0.505146
69.0345081228995 6.0318
80.948091184406 3.6421
82.9416262165995 0.565663
158.96414234631 1.08504
165.054815541585 19.2321
215.009403543193 20.1457
264.01870390773 0.518008
274.985020968204 0.741065
279.092155638121 0.663848
285.051003411818 13.2455
311.062729221286 1.35782
321.054027566491 3.0421
352.180066335035 0.847338
353.077509322999 100.0
353.182888496278 18.6711
353.346971712228 0.86025

>collision 20.0
41.0386535973467 3.9798
59.0499908085355 1.14396
68.9964061906566 0.94948
69.0344030613113 92.4328
69.1386642357233 1.3587
74.0950604509352 2.33224
80.9482981638155 6.57657
94.0430905966657 1.90318
107.049730863317 2.60954
123.042248479258 0.75796
125.530209017757 1.21688
137.058522106012 0.925849
138.070723873189 1.54284
144.081044847264 0.895118
158.968493723913 1.33607
165.05461654857 100.0
165.217041598002 0.768769
171.021326221607 1.21087
171.99278683837 1.10822
191.072943050795 0.787138
196.517198255367 2.24121
196.973067978267 1.78726
197.036923372075 1.50195
198.115096986238 0.965155
199.990609873238 2.95992
212.883984995887 0.823966
215.009329357825 97.5342
215.451876515238 0.857941
222.083997811487 1.07532
223.123450585075 0.780657
224.023015277508 0.895619
235.018630842296 1.30434
253.027927758992 2.27355
257.053380463051 4.1906
264.028917781797 0.981302
265.058365848307 0.727563
277.021477426546 0.737632
278.031858271161 0.840376
279.038757054594 1.76554
285.052158491313 61.9137
286.480640338592 0.906032
293.054935613855 5.37338
306.032284397122 4.42664
311.074031609168 3.86121
318.145948093509 1.94871
321.049920351864 10.5835
335.074248126563 1.10299
352.163841796609 1.65741
353.078864373059 31.1862
353.184509599745 26.4025

>collision 40.0
41.0401308051156 16.5551
45.034831339986 2.11537
52.0341054359498 1.00205
59.0143423363091 0.950576
64.9781727525056 0.92844
65.0392481982936 1.07967
66.050083592008 1.16631
68.0468177133242 0.930405
69.0343179846751 100.0
72.987470461321 0.892953
77.0376988692343 2.52959
79.0537654196096 2.81418
80.0352224482519 0.841133
80.9469105909388 1.27584
81.0714958251634 5.69343
82.0257795884293 0.90621
91.0555571858755 1.29031
94.0426968136564 2.48205
95.0440005188865 0.839192
98.9991453365288 1.71723
99.0420814511356 1.32768
107.011347322574 1.21072
107.049193494063 4.80885
109.064649371418 1.8341
114.990586284313 1.17894
115.999473850143 1.84159
122.037535499481 12.4903
123.042783110445 3.04026
129.01150701388 1.31124
130.070173581944 0.833799
135.04101605284 1.026
139.030023443122 0.759996
141.069609771288 2.01808
142.067048798486 0.805099
143.052735529641 0.821197
143.999755798634 2.22041
144.079565999671 2.78197
145.066961293338 1.02004
150.031349037421 7.27259
151.035257198451 0.726463
155.077863079998 1.08016
156.079947810629 0.91082
156.970373102323 1.12239
165.055511354818 67.2524
165.865327608075 1.06743
166.056841057547 1.23279
169.004255326084 0.805447
169.976900348622 1.99501
170.090043649883 2.73627
170.988072474457 1.30512
171.993941713098 12.9533
179.993237599301 0.946413
181.950095259488 2.77733
182.08974267027 1.20991
182.980497895606 1.51338
184.997315273337 1.7691
185.064643472898 0.73289
188.020892279689 1.44024
195.025231688658 1.39131
197.037232130342 1.42812
197.107442482524 5.12337
198.114202682721 1.9706
199.986632152833 19.1917
207.070572341041 0.830755
208.112292192635 0.910986
211.011452963396 0.732585
211.177624233848 0.981859
215.010182504676 25.0555
220.094435736107 0.884723
221.103710207344 0.742477
224.024848437091 7.35012
229.031536665033 1.3847
235.114631722337 1.00882
237.019545266226 0.929154
238.004601423161 0.860606
241.03213304428 1.19615
242.923548013363 0.964733
252.016417546238 3.66155
264.023663202725 1.63589
268.030911421105 0.858683
270.035575871188 2.90151
277.025879404713 2.30258
278.034453327318 1.27888
279.086292215829 1.22517
285.053313263182 4.11898
291.006161326292 0.820063
292.045693798887 1.28588
303.741356493885 1.0869
305.020185572163 2.06535
306.029531047641 1.39409
335.167889204542 1.97734
353.185030184286 3.08864

