>compound Haloperidol
>formula C21H23ClFNO2
>parentmass 376.147729538217
>charge 1

>ms1peaks
165.071559150025 1.69225
358.135776524344 0.659157
376.148982028196 100.0
376.391942656255 4.94642

>collision 10.0
123.023856697374 2.11532
165.070865325414 13.8245
358.136613646766 4.87742
376.147729538217 100.0
376.391754850785 5.19631

>collision 20.0
95.0298659871948 1.10374
123.024244202945 17.1157
165.071403229131 100.0
165.231699833021 4.79985
194.085246727995 1.68661
206.097211021278 0.746374
358.136896832425 16.1673
376.1479432553 58.0831
376.391877584853 1.50043

>collision 40.0
75.0243114051936 0.737151
95.0302373559085 6.97977
109.045439729409 0.607971
123.025061052586 100.0
123.163581708662 4.31008
165.071776123854 36.5074
165.231706405685 1.07281
206.096318035309 0.745869

