>compound Guanine
>formula C5H5N5O
>parentmass 152.056555781707
>charge 1

>ms1peaks
135.029880946677 0.759813
152.056619650446 100.0
152.170924372771 0.652252

>collision 10.0
109.050944843546 0.621823
110.035513983107 4.48728
135.029945557087 12.6036
152.056555781707 100.0
152.170858471586 0.552172

>collision 20.0
43.0294673180065 4.70163
53.0147205439258 0.604684
55.0295964796252 4.38494
74.0969456228376 0.979576
80.0243121330133 1.4633
82.0409175202661 3.34166
83.0234214236323 0.701261
93.0092442308212 1.18331
107.035720525639 3.32888
109.05136132703 4.2924
110.034944872952 43.5869
134.046715267933 3.52548
135.029966157574 100.0
152.05642428467 46.0575

>collision 40.0
28.0180031172998 2.6024
40.0183720055351 5.78696
42.0343976024481 2.37102
43.0292175778668 39.3036
53.0137352986537 46.0552
55.0295340027957 100.0
56.01577955561 1.03174
65.0139906867482 21.307
65.999055632445 0.881788
67.0278751307227 1.63317
68.022803803592 6.67921
69.0103279363464 0.937788
74.0990711136392 0.505611
80.0248702599715 41.8039
82.0406078365407 14.0013
83.0234529532538 0.881438
92.0260241232124 1.37201
93.0082015138881 11.3462
107.033956598607 6.45919
109.049735197186 1.57289
110.034660828232 24.2953
134.045657086038 1.38941
135.029683648291 21.004

