>compound Homatropine
>formula C16H21NO3
>parentmass 276.159332075474
>charge 1

>ms1peaks
124.11279021142 0.504011
276.160454933941 100.0
276.370595060741 4.69538

>collision 10.0
93.069995162624 0.575804
124.111745283358 3.23642
142.122483913366 0.818976
276.159332075474 100.0
276.36969815739 5.05898

>collision 20.0
32.050108561359 0.558163
91.0548173358808 0.688883
93.0706111553605 7.51591
124.112471292668 40.8714
124.249865311702 1.24765
142.123143595391 10.4684
276.160180672105 100.0
276.37051143257 4.12787

>collision 40.0
30.0344814448103 0.612389
32.0501022776111 3.86971
41.0401146799696 1.37701
42.0352304693978 1.81877
43.0194015676967 0.746839
44.0507511178246 3.88287
51.024159255057 0.950074
55.0558924972746 2.26965
56.0509099220992 1.53369
57.059246277737 2.09918
58.0664343010811 6.56337
65.0396081377042 1.39027
67.0555435057532 28.1072
67.1586561638193 0.520322
68.0510789662987 3.96279
69.0703556775804 0.810061
70.0667141415216 4.07474
77.039514398952 27.5164
77.1468904814752 0.542293
79.055289835164 7.79383
81.0703032294434 0.772194
82.0665342275757 5.99878
83.0751905437447 4.64511
91.054992911234 36.5014
91.1724881730117 0.646832
93.070959886772 100.0
93.1937652122832 2.12309
94.0661416403125 1.31229
95.0845455679604 7.95697
96.0812235721 4.08096
98.097159837915 14.8353
107.050202834402 3.10709
108.08060274382 1.01186
109.089711353887 1.29891
111.080174346171 0.911094
122.096645240313 0.756316
124.112659257837 75.5725
124.249894566851 1.64931
142.123485609131 88.468
142.274078512152 1.72143
276.160270556557 1.64713

