>compound Anthranilic acid
>formula C7H7NO2
>parentmass 138.054904789291
>charge 1

>ms1peaks
65.0381196055442 0.729447
92.0509685073688 1.65753
120.044581329234 82.6376
120.121251044686 1.30905
120.145123943816 1.25537
120.172926015265 0.588617
137.047718479154 0.557969
138.054904789291 100.0
138.161356606569 1.62751
138.198555464857 0.747717

>collision 10.0
65.0392270320835 1.53502
92.0497909212553 7.90433
120.04442760425 100.0
120.145106321473 2.08593
120.176814498357 0.797783
138.055061967281 1.61667

>collision 20.0
65.0395791971495 35.2461
65.0968151841993 0.516638
65.1135874995505 0.640597
92.0499356444629 100.0
92.1159885767863 1.53021
92.137958040034 1.91943
92.1676961373001 0.808685
120.044278555363 92.2157
120.144957151373 1.73518
120.177193827423 0.735418

>collision 40.0
51.0238397944465 0.519795
65.0393077024554 100.0
65.1134218867956 2.07832
65.1374333118339 0.801436
66.0345344525267 4.09337
92.0495960566048 11.6357

