>compound Hydroxychloroquine
>formula C18H26ClN3O
>parentmass 336.182969196889
>charge 1

>ms1peaks
83.088411334354 0.872845
179.967218591989 1.93467
202.055046292306 0.587622
218.897017846018 1.35006
242.024400250019 0.662488
247.10338529602 3.37505
257.973212339174 10.318
258.958466465419 4.718
294.933677766317 3.17662
297.147823937607 2.44632
315.628457613575 0.892156
318.0158600144 0.558973
319.282821623547 0.636961
335.173506747462 8.50819
335.770552117078 0.615923
335.988285052996 6.87352
336.182988459429 100.0
336.39772380999 0.608441
336.661010233141 0.90173

>collision 10.0
103.007534516498 1.05537
122.052396079884 0.603659
137.981284942689 0.524656
151.101618657344 2.64903
158.155539465164 3.99946
158.962914066152 3.79777
164.020116894281 0.539401
164.882352049989 0.618688
179.963506983252 6.08833
191.040854266162 0.733359
243.245246579893 0.797229
247.099786584659 16.8233
247.575700607931 0.501177
257.97946509524 8.32221
294.938215633609 0.776856
335.174499910621 5.40953
336.182969196889 100.0
336.889911321925 1.02692
337.112545052138 0.632556

>collision 20.0
44.0513151237047 1.43953
45.0329410557784 1.8108
57.0681507987655 1.51822
64.9813366801427 0.779319
69.0692075146102 4.78034
71.0864821647923 0.752364
79.0180361275642 2.15121
84.0843260471922 1.44776
101.947137672321 2.10862
102.090124788705 4.56425
158.151786782961 22.5323
158.962916751079 2.84504
164.030025469016 0.75013
177.332400242139 1.26746
177.948143434391 1.42041
179.034456378749 7.17004
179.964013858058 6.77498
180.94565633166 1.06594
182.941657753909 1.40971
191.034680338106 7.62834
230.128105063076 0.775467
238.943185635463 1.32456
247.097470141872 100.0
247.291062620249 1.72181
247.467170930876 0.861634
247.789425882241 0.818872
257.980294184998 1.58014
335.178468601165 2.52804
335.714636661913 0.868816
336.182793466065 48.1005
336.672095330444 0.917655

>collision 40.0
41.0391194438825 28.3889
45.0324232475645 6.2218
57.0728017769932 4.85203
58.0639116082689 17.2653
69.06842350779 35.1644
72.0812062776248 16.1704
84.080170698854 4.31846
90.0931657663255 9.86999
98.0965610085591 5.28148
101.032165812334 3.86127
101.950358867118 48.5458
102.090733564211 87.9842
107.05981850731 4.20313
110.998242574135 3.66021
116.107366402223 4.62297
128.988516765439 4.01424
134.941979831929 4.31616
144.06490621515 7.16184
156.068145940982 11.094
156.138376266908 4.93415
158.152978802069 32.4302
163.021431223368 4.65437
164.027562046073 11.052
170.091595983649 6.38438
178.019488496917 8.45517
179.036312616664 100.0
179.963199014093 8.71804
191.037489706473 73.5635
201.052564903705 6.36458
203.034044594459 5.42649
205.052418753687 18.3159
232.077281669538 6.53399
247.099423886382 81.8533

