>compound Taurine
>formula C2H7NO3S
>parentmass 126.021403446628
>charge 1

>ms1peaks
108.011929316243 3.65304
126.02152764911 100.0
126.099347744069 1.71652
126.125047730487 1.52666
126.158681826331 0.661051
126.196393015346 0.577193
126.477589567125 0.613268
126.519886463939 0.530107
126.583572262587 0.622951
126.787620057334 0.52498

>collision 10.0
77.0384756670982 2.55608
84.959633618379 2.60113
108.010747676382 30.7917
108.056412998013 1.81039
126.021403446628 100.0
126.080179069761 2.87047
126.121269663392 1.7646
126.154808563 0.942818
126.251982541914 0.947855
126.880284425248 1.00401

>collision 20.0
63.9645721933844 35.1902
64.9698088077682 100.0
78.9846620924585 69.0385
108.010913759827 27.3719
126.021384753354 36.798

>collision 40.0
55.1804826749906 30.6029
64.969458996145 100.0
67.038905916925 36.392

