>compound Cadaverine
>formula C5H14N2
>parentmass 103.123069554472
>charge 1

>ms1peaks
58.0663581436239 0.647313
61.0091109596437 2.48591
69.0702089202376 1.09743
81.52120863974 0.852882
85.0888019382024 1.34603
86.096961199645 100.0
93.601476054449 1.13491
102.032589463251 0.560749
102.1210971051 3.03339
103.123069554472 95.4515

>collision 10.0
30.0344546579529 1.01993
40.4947569218862 1.77691
41.038981696547 3.26113
58.0652847830297 0.74928
61.0067842089931 0.690352
69.0704960287788 7.6039
71.0735672449961 0.729615
72.0800966559496 0.83371
84.0814067338193 0.514006
85.0886880915166 1.06134
86.0968981246552 100.0
102.128599628837 0.822759
103.12310414668 2.2931

>collision 20.0
30.0338565858941 8.70353
39.0243141087079 0.723306
40.4944459809542 3.9549
41.0391312474514 53.6474
43.0542845375484 2.19398
44.0504451306313 2.45531
56.0523772331498 0.67551
57.0605152002003 0.730868
58.0671717087216 1.46487
67.0561585213146 1.56882
69.0707956043637 35.093
71.0734590432765 0.628471
72.0802974541202 1.73454
84.0810744988803 1.49259
86.096519374618 100.0
102.126369625838 0.954403

>collision 40.0
28.0202876881336 0.870912
30.0345578648547 6.93688
35.789680843454 1.02068
39.0233696327183 39.159
41.0390933197119 100.0
41.0970396458115 1.00214
42.0340775021309 6.42643
43.0414364644313 8.44324
44.0513863722556 4.01678
45.0528787045017 2.86634
55.0552179185113 2.08283
56.0551566458125 2.04191
58.0678290381723 1.98939
60.4887352735681 1.34672
67.0529182492213 3.00062
69.0724984301347 3.73609
84.0790947843742 1.11709
86.0979001697398 4.10581

