>compound Canavanine
>formula C5H12N4O3
>parentmass 177.098747669653
>charge 1

>ms1peaks
76.0509573770008 1.69171
118.050218783671 0.616688
159.087613510569 0.600118
160.071753321584 3.15416
177.097806353652 100.0
177.217173900691 4.2666
177.258767811862 1.83489
177.317874664129 0.670644
177.380076458593 0.701274

>collision 10.0
56.050344165682 3.43513
58.0409004116444 2.20886
60.0563564429698 1.01402
72.0451934279927 14.5163
74.0243151663829 2.82097
74.0605526185307 3.79239
76.0514411718269 100.0
76.1315209585102 2.95736
76.1553466680509 1.14039
76.180755458482 0.520188
84.0480363348088 0.552589
90.4837531844573 0.641721
97.9952991173783 5.21324
98.9936084193452 0.682973
102.055651549574 8.85461
114.066764902107 3.20363
116.082425030694 0.913954
117.065955787893 0.59254
118.05047290345 39.4822
118.14930695419 0.851717
120.066063738796 5.51445
131.093129106589 5.18914
132.077074243329 1.24744
135.076765444278 1.96438
137.002395855658 1.4642
159.087818383384 7.34992
160.072232068351 91.3602
160.186805080352 2.37991
160.223196064755 1.02634
177.098747669653 89.1933
177.21754701402 2.25213
177.260497937077 0.936549

>collision 20.0
34.0286067397094 1.11044
43.0293665492467 1.84925
44.0494034937886 2.00971
46.0290089378515 0.789732
56.0495178935061 19.8533
58.0400555132502 11.4001
58.9876828667347 2.83505
59.033836324034 1.25296
60.0556053592271 0.985956
72.0442195567915 37.8521
72.1226229474346 0.970695
74.0231985382835 7.92605
74.0595225789123 14.1339
76.0502569802309 100.0
76.1087545028359 2.40527
76.1309050130862 3.46226
76.154541974595 1.47614
84.044347806018 2.8723
85.0280206857498 0.617048
89.0490241841015 0.849805
90.4821893528313 4.85741
91.4802011337805 0.813568
97.9938889618867 2.38319
102.054041383841 10.957
118.048640531364 15.5202
120.064262941644 2.89277
160.069461079864 4.35234
177.095838386306 0.576789

>collision 40.0
28.0179470696139 3.29765
30.0340733692546 0.640194
31.0289492671149 4.13128
34.0290588613379 5.84661
41.039204440211 0.789903
42.0338401691778 5.16001
43.0300042107845 30.4905
43.0896629388588 0.58652
44.0138127572974 4.39135
44.0501202783699 16.4839
45.0341641266438 1.77279
46.0294812106303 3.95803
50.9729039756328 3.29881
51.4767181521872 19.3294
51.9770881920855 0.958643
52.4747026075462 1.12693
54.0341488036054 2.15762
55.0194211246998 1.34801
56.0502307491915 100.0
56.119036867206 2.17284
56.1414268032335 0.93634
56.9652928574921 0.613058
58.0406270084544 61.7472
58.109601816876 1.29997
58.1314491542526 0.565739
58.9882239361151 21.0418
59.0369358717013 24.9747
59.1182690307337 0.643828
59.4897309171324 1.0224
59.9861726552598 1.76133
60.0561014526703 1.57212
62.9903823070101 0.90664
72.0449795206909 53.3482
72.1225864613919 1.10807
73.0287294310236 2.68676
74.0241111926455 10.5539
74.0599739810875 7.45478
75.0430211750382 1.00899
76.0510484603861 61.2595
76.1313754249965 1.20736
76.1544074559262 0.529898
84.0455116569174 1.97708
85.029715250896 0.568432
102.054513432415 0.611101

