>compound Methylphenidate
>formula C14H19NO2
>parentmass 234.149874550114
>charge 1

>ms1peaks
84.0810684012743 3.03597
234.149874550114 100.0
234.337440397432 9.26824

>collision 10.0
84.0818875665192 43.9232
84.1961473167423 1.88564
234.150914148507 100.0
234.338994159179 7.57458

>collision 20.0
56.0507843777938 1.37785
84.0821768321458 100.0
84.1964438780922 6.76624
174.128627796942 1.02238
234.149949018363 6.70188

>collision 40.0
42.0353497839265 1.12927
55.0554040427964 2.33821
56.0508780711149 18.7033
56.1454669886732 0.702855
67.0550852987797 1.30961
70.06616988368 0.558975
82.0658119062013 0.571791
84.0819586496303 100.0
84.1962585340516 5.14721
91.0553626355303 2.85815
115.055202293655 0.756862
128.063218227444 0.547522
129.070469358701 1.49082

