>compound Diethanolamine
>formula C4H11NO2
>parentmass 106.086209862584
>charge 1

>ms1peaks
64.015250915413 6.08918
70.0646262454655 12.6761
88.0750248422779 33.0158
106.090322910127 100.0
106.178101822681 14.9762
106.209743363266 6.4523

>collision 10.0
41.0384127918592 1.70963
42.0338050317018 12.8434
43.0540153482304 2.3474
44.0494532459626 20.5891
45.0334981218093 17.6311
62.0596919066354 1.63316
68.0487883135397 1.32011
70.0649149261317 61.578
70.1413327168572 2.8465
70.1643909073223 1.12827
88.0752823357859 72.767
88.16102928858 3.0941
88.1875861003414 1.41136
106.086209862584 100.0
106.178520750661 6.19755
106.208769963555 2.52159
106.236923332033 1.13512
106.303745330345 0.959728

>collision 20.0
41.0384853699576 8.87751
42.0338380507365 51.1262
42.0932415815309 1.48029
43.0179823537845 1.44234
43.0541428470462 6.02578
44.0494702301902 67.8169
44.1102494435378 2.26172
45.0335217419257 90.4219
45.0945414084245 3.15723
45.1132352051789 1.16192
55.0414355657305 3.31164
60.0438538784819 1.33746
62.0594563153087 1.80807
68.0489892140277 5.52491
70.064731489945 100.0
70.1412378458846 3.78529
70.1641295354368 1.44085
88.074793395063 38.1188
106.084983158268 10.4589

>collision 40.0
27.0224296619831 0.89899
28.0273301395973 1.01368
29.0018635360296 2.76506
30.0331453424319 0.526997
39.0226897637426 3.01784
41.0385117917318 5.6227
42.0100178556914 0.923872
42.0337126570838 36.2982
42.0928972327413 0.819511
43.0177198904945 26.7541
43.0756449123606 0.624694
44.0492950144762 58.1378
44.1099038924633 1.30106
44.1282251847722 0.598542
45.0333543844043 100.0
45.0941124323191 2.33266
45.1123073943893 1.00709
45.1311029907761 0.524825
54.0337523821322 3.61672
55.041308144616 11.0108
56.0491095238108 2.54049
68.0488430574415 1.59535
70.064588166271 3.0797

