>compound 3-Cyano-L-alanine
>formula C4H6N2O2
>parentmass 115.050171329079
>charge 1

>ms1peaks
42.0348721385822 17.2477
46.0292283059419 1.99333
69.0454439981409 68.2835
69.1196209610992 1.20142
69.1447203454986 0.547786
74.024245602787 31.0466
74.0584516037973 7.93689
83.0600831857356 1.44958
114.089690931639 1.22922
115.050171329079 100.0
115.147751408966 1.81596
115.186598266317 0.77455

>collision 10.0
28.0184829720876 0.953807
33.033206108192 0.607625
42.0348363472588 40.0693
42.0781018237127 0.7325
42.0951799499707 0.714674
46.0299848915452 3.49412
69.0455077375757 100.0
69.1213201101783 1.72183
69.1415057030145 0.841152
69.1624252266911 0.535089
74.0244385467975 26.2282
114.089920852127 0.811343
115.050018934372 5.78617

>collision 20.0
28.0178487849689 1.52551
33.034228319427 1.82536
42.0348710461121 100.0
42.0943185729249 1.79377
42.1180682511836 0.736729
46.0295860415009 3.17203
69.0454964962632 72.8059
74.0241087788013 7.91274

>collision 40.0
29.0147819911678 0.592053
41.0317174650918 1.20195
42.0349622909483 100.0
42.0949380041311 1.69529
42.1162364922319 0.702316
43.0408880015619 0.537566
44.9980632321111 2.44134
46.0292448234336 0.582254
52.0207344135034 2.25729
69.0450278843697 3.01409

