>compound Coniine
>formula C8H17N
>parentmass 128.143464574554
>charge 1

>ms1peaks
69.0696280665665 0.85571
128.142370379982 100.0
128.246001612264 2.60547
128.280937108395 1.07441

>collision 10.0
30.0335588148819 0.641329
41.0393135448722 1.09441
55.0551882038558 4.13041
69.070526304629 19.497
83.0857934951246 0.67062
111.117441798594 0.987242
128.143464574554 100.0
128.245788190572 2.39545
128.277744655952 0.991742
128.316370660509 0.543967

>collision 20.0
30.0339596963943 3.30275
39.0244221337256 1.12436
41.0395667309249 34.7102
41.0974364045016 0.603348
43.0551464287994 2.1489
55.0551323147012 48.4945
55.123049775202 0.79779
57.0706585184058 3.07319
67.0550807192347 1.49862
69.0704919465946 100.0
69.1461225037782 1.89496
69.1688599615367 0.820111
69.1934744581497 0.536466
83.0858434694315 2.71819
111.117247768777 0.954101
128.143539443666 38.9238
128.246640491658 0.607179

>collision 40.0
29.0388282408407 4.19146
30.0334744922635 2.95503
39.0233145856078 25.4452
41.0390915758279 100.0
41.0977767661032 1.88597
41.1178096304926 0.802867
41.1793498004912 0.510325
43.0542687758942 3.95308
44.0496459708741 1.38247
53.0385997315359 5.28957
55.0545636698576 38.8303
55.1215793030314 0.684489
56.0499747410883 0.746634
57.0719024279619 0.654079
67.053448381624 1.3511
69.0697773189593 5.50937

