>compound Pyroglutamic acid
>formula C5H7NO3
>parentmass 152.03240436502
>charge 1

>ms1peaks
90.5073414304854 9.06609
110.015861212966 6.96603
111.021360348637 8.87512
135.098860117079 4.65609
151.032388696156 3.80407
152.032460451292 100.0
152.125490327922 3.91151
181.12549032792 1.0e-13

>collision 10.0
45.0352172699484 15.4374
59.0537294825412 13.9562
68.9828068762621 23.2838
69.9941271824944 100.0
77.0364149139555 15.4353
90.5069522114103 39.7533
110.010449550896 41.6338
120.039597737145 18.5512
151.059603854731 21.0047
152.03240436502 16.2739
152.123971278603 13.4621
181.1239712786 1.0e-13

>collision 20.0
45.0337216475948 55.0948
58.0303502517932 52.6828
68.9850109291573 90.2173
70.4948777219241 92.5405
84.0401520009133 38.9151
117.069493938271 39.0156
120.044387789478 58.0522
151.122460544687 100.0
180.12246054469 1.0e-13

>collision 40.0
98.9595730108836 100.0
127.95957301088 1.0e-13

