>compound N-Acetylputrescine
>formula C6H14N2O
>parentmass 131.117616537998
>charge 1

>ms1peaks
72.0448451670335 1.22765
72.0813021844545 2.86546
114.091394140754 22.6198
114.18951664021 0.619934
131.119122060361 100.0
131.196583248656 4.44104
131.22236266146 6.64274
131.255502795213 2.82872
131.28720892728 1.18344
131.309329816782 0.92082
131.334357310885 0.828497
131.361143972524 1.08113
131.404951463557 0.569131
131.471200672513 0.507016

>collision 10.0
55.0549915178196 1.60084
60.0451000726086 2.9261
72.0448949485931 21.517
72.0812594026368 52.8391
72.1428430449786 1.3947
72.1592343248598 1.83374
72.1844431787082 0.752935
114.091672329996 100.0
114.164437867631 2.72443
114.189388690001 4.24452
114.21933243033 1.67489
114.249865926991 0.653547
114.269440917377 0.544528
114.318596165396 0.584547
131.117616537998 30.6278
131.19533607379 0.600621
131.222401099489 0.769817

>collision 20.0
55.055065161213 9.59196
60.044960566477 8.05927
72.0448207465579 10.6568
72.0813920577792 100.0
72.140600703671 2.41854
72.1594094524967 3.68911
72.1827263754183 1.47426
72.2068376640391 0.586519
72.2236589535913 0.542365
72.2618831594075 0.503943
114.091150336588 14.3587

>collision 40.0
53.0395694325537 4.13849
55.0548624857711 30.0204
55.1234275723721 0.581135
57.057262294563 0.678702
60.0446074066377 5.55959
70.0662441080396 1.28353
72.0813609751556 100.0
72.1590525958557 1.90464
72.1835691146569 0.868142

