>compound Tryptamine
>formula C10H12N2
>parentmass 161.107414744527
>charge 1

>ms1peaks
81.0176206002735 0.517238
144.080811480838 83.6271
144.189525613638 1.74562
144.223057442987 0.792409
161.107414744527 100.0
161.222499776272 2.19868
161.259109923962 0.93316
161.292603278539 0.51275

>collision 10.0
117.067778938029 0.952427
143.071837166301 0.701059
144.078113165102 100.0
144.189468214539 3.78402
144.223796608727 1.65606
144.278788381244 0.545687
144.306554269826 0.504651
144.334958732244 0.582583

>collision 20.0
91.0544800182153 1.38195
103.054629479659 0.533966
115.053963812933 3.26485
116.053896837252 0.509203
117.069225377585 12.9517
118.065083121353 0.520925
127.054049931599 5.73919
128.052156038052 1.28343
132.080015296677 0.519686
143.072769891736 8.52216
144.08076037032 100.0
144.189575809033 3.50511
144.225963548659 1.46825
144.277688515897 0.568207
144.306976686937 0.516121
144.336069617722 0.540333

>collision 40.0
39.0239183808 3.56307
41.0389537922137 0.843198
51.0238501207269 4.55671
63.0232585484959 1.7192
65.0391876151001 11.429
66.0347971220045 2.14862
67.0423568289926 2.41463
75.0235088634228 1.51485
77.0391365788359 33.3253
77.1173704926039 0.594054
78.046281519746 2.03612
89.0388430298697 16.6182
90.0467178294499 19.9655
91.0546794739038 72.3936
91.1416111419281 1.39033
91.1684088867748 0.691161
93.0571766186196 0.543165
101.038883201911 5.4651
102.045860031686 3.3207
103.054290007064 4.87799
104.050146871836 1.58457
115.05442331374 100.0
115.152295383874 2.04567
115.182488212362 0.912575
116.059514962031 17.3085
117.060065351867 62.2226
117.154473562003 1.278
117.188259441065 0.574587
118.06495871417 2.25993
126.046433413961 3.35756
127.054205003426 22.7435
128.052513751436 9.51001
129.057052517387 2.92315
130.065933865857 0.762167
140.049761930525 0.681998
141.057193600793 0.818099
142.064847850063 14.7116
143.073103814166 53.5272
143.181968618291 1.00246
144.080498110957 9.75794

