>compound p-Aminobenzoic acid
>formula C7H7NO2
>parentmass 138.054182187667
>charge 1

>ms1peaks
77.0395507058601 0.821181
94.0661441023829 2.69284
120.044966347974 2.03535
138.056725211761 100.0
138.159271829223 6.36416

>collision 10.0
65.0386276575046 2.65382
77.0384113741627 11.4925
92.0488948129318 1.97921
93.0564290118239 2.65491
94.0647346655464 31.7237
120.043301137752 21.0359
121.027382173985 1.01458
138.054182187667 100.0
138.158279926182 5.7216

>collision 20.0
39.0238359685452 1.99432
44.9978527982258 0.703442
51.0237064346443 3.27736
65.039351209074 50.5384
66.0464767118557 0.783141
67.0546309025894 3.05068
75.0232520134762 2.61064
77.0393780312428 100.0
78.0359763864594 0.672123
92.0497034355803 23.7152
93.0571607307531 24.051
94.0654724193838 50.8681
103.01781927521 1.54781
120.044253458098 35.1636
121.028013373348 6.96654
138.054798223989 33.3374

>collision 40.0
39.0237978593162 40.9976
41.0392209860776 1.59512
44.9979222084997 1.40923
50.0161959675673 1.09686
51.023722027943 40.4068
54.0343492829697 0.868712
65.0393130632704 100.0
66.0465340258063 11.8138
67.050999259669 1.12404
74.0153383184698 2.81376
75.0233735258822 25.6079
77.0390234742954 44.522
78.035148663554 0.864619
92.0494596955912 9.76701
93.0574026464435 17.1042
94.0653394709552 0.851839
120.043244718562 0.960669

