>compound 6-Hydroxynicotinic acid
>formula C6H5NO3
>parentmass 140.033968659254
>charge 1

>ms1peaks
58.9880584347001 0.635019
90.4823362400323 3.29577
94.0304068530024 0.917624
97.9953257872442 6.30501
98.987874061884 0.518964
118.507803454993 5.34037
119.511194982659 0.935602
121.039169197651 0.63472
122.02365015615 2.4355
139.059402396429 5.27472
140.034051870513 100.0
140.143352223675 0.543884

>collision 10.0
51.0230057408923 0.557543
51.4767515724622 0.895195
58.9879746720254 6.03871
59.9833716284292 0.663715
78.033140444082 1.95632
84.9930340094148 0.514523
90.4828567470824 10.6212
91.4798970619215 1.91508
94.0280708965988 3.82543
95.0117284838211 0.841908
97.9942238718768 11.4615
98.06680626379 0.587551
98.9923784111676 1.70754
122.023083693928 28.3201
123.004416296717 0.59311
132.501513612527 1.83937
139.05056654075 5.36332
140.033968659254 100.0

>collision 20.0
39.0239301352036 4.35182
44.9991025408703 1.01043
50.9719170225922 1.12514
51.0239773419112 11.393
51.4767189700236 5.64801
52.0174844281698 1.00397
52.4734177891793 0.578142
58.988727429047 17.7591
59.4909986020797 0.954463
59.9872859702013 1.62773
60.983635747395 1.06205
61.0100391779307 0.634612
66.0340555193641 14.2846
67.0173382613933 4.7728
78.0346104333478 36.68
80.0125075738357 1.11779
82.9747874510026 0.621236
90.4841611756451 4.2689
90.9762403638536 0.734089
93.047840916137 0.747496
93.4914203796193 0.845574
94.028669046544 30.5054
95.0126851926376 7.60596
96.0443249879603 0.714998
104.01279555342 0.921186
121.040201107746 0.560481
122.023497915198 100.0
122.103624013693 0.677531
122.260930730018 0.614107
122.52243271937 0.572552
139.054358841587 1.02616
140.033396139242 44.3762

>collision 40.0
29.0135067489213 2.25048
39.0239812862777 20.4056
40.0199070475829 1.16474
42.034774169869 1.02056
44.9982988490196 20.328
45.9869399404439 0.969258
46.9950612123893 0.664786
50.0158702933696 7.51906
50.9726907521015 5.02326
51.0237652649761 100.0
51.0913204140909 0.702775
51.4769472218711 12.6486
51.9764288433363 0.708497
52.0195683458884 14.2456
53.0012339104546 2.67672
53.9980570604135 3.94762
56.9688418575123 0.799522
58.9888658850847 2.86507
60.9858475257597 1.02011
62.9889292958888 4.06777
63.0140277680965 0.778479
66.0343559515256 11.235
67.0197453868936 3.47622
68.0160978815834 0.774282
68.9947267873416 1.19997
76.018476063478 4.4792
77.0251777298299 3.03401
78.0343982988971 27.6505
79.0359999510796 0.779795
80.013506312672 1.37314
94.0285054923458 12.7044
95.0253547168082 2.38075
122.021773492141 2.3617

