>compound 6&#38;alpha;-methylprednisolone
>formula C22H30O5
>parentmass 375.215185360183
>charge 1

>ms1peaks
79.0171111475669 13.4445
127.111725392469 14.0037
165.094580932802 23.2147
339.190936838905 41.563
357.208383166868 34.8803
374.341950675099 14.591
375.158176987737 16.4058
375.215185360183 100.0

>collision 10.0
62.0590501897437 29.3358
118.085989798393 30.0799
121.046912036742 31.4508
199.102878456826 38.5503
321.189997000567 32.3333
357.203624000716 100.0
375.18627828259 65.8482

>collision 20.0
133.099658511666 67.9433
185.097117977618 96.7925
187.110682257954 100.0
279.174136207926 46.1386

>collision 40.0
43.0205054194314 100.0
69.0696512100077 45.8817
159.078618950857 73.6418
183.11379206123 45.8578
213.120880409414 72.1443
219.110763325587 57.1634

