>compound 4-Amino-5-hydroxymethyl-2-methylpyrimidine
>formula C6H9N3O
>parentmass 140.082005766303
>charge 1

>ms1peaks
81.0453631115627 5.51006
122.070845995316 3.00887
140.081867570059 100.0
140.231888252694 4.57883

>collision 10.0
54.0350040067992 2.94766
81.045517828042 61.8425
81.1581821251874 2.2998
122.071170724661 23.0767
140.082005766303 100.0
140.232292832337 3.70379

>collision 20.0
42.0344745575268 1.09722
52.0186113583362 1.13408
54.0344136652641 13.7826
81.0448767080647 100.0
81.1581343644914 4.83216
122.07002953658 5.7596
140.080767464933 6.3254

>collision 40.0
28.0183041214271 1.39974
42.0348675037032 10.7806
52.0191704666343 9.12287
54.034769600882 100.0
54.1282313513482 2.14436
55.0423868281588 0.748868
69.0455067405654 1.96634
81.0452699967046 28.5715
82.0532928269515 0.615579
108.05509470984 0.574227

