>compound Pimelic acid
>formula C7H12O4
>parentmass 161.080090354128
>charge 1

>ms1peaks
69.06957807832 5.02019
73.0667136397131 0.752925
97.0650130463902 1.92696
115.073538955076 0.97147
120.531349715127 3.62152
125.059205447413 38.5036
141.043342144262 2.7772
143.069577810496 100.0
161.080090354128 23.929

>collision 10.0
41.040076292991 3.06791
43.0181442957354 1.0239
53.0402987630226 0.563685
55.018840661155 1.18301
55.0550105933367 0.79625
58.9885254221977 0.585156
69.0705584614048 91.2596
69.1360843660707 0.69118
73.064406707712 14.1611
77.0362719084052 0.62948
79.0544134318776 8.55393
81.0358285303434 2.50585
88.5207805251187 0.635774
91.0127290739844 0.576677
97.065371972719 29.3997
97.1241436215065 0.508032
97.5266225039753 1.38537
97.9923842950301 0.561709
115.075122670867 12.2671
125.059560793953 100.0
125.137751476362 0.609462
143.070039048226 20.5861

>collision 20.0
41.0389948723854 27.2075
43.0551385503185 1.0637
55.0175448680215 1.21884
55.0546618287238 5.02486
56.9710734769265 0.58425
67.0561264050299 1.78965
69.0703550181623 100.0
69.1433396571925 0.70038
73.0658077042554 13.7431
77.0363121544801 0.503841
79.054405414243 8.85162
81.0343066949307 3.39536
97.0651794965935 4.68299
125.060378576435 1.65586

>collision 40.0
29.037275411824 3.91398
39.0234354708239 16.1732
40.4914052657221 2.38139
41.0396767270756 100.0
43.0209320788747 5.2881
43.0549908321713 1.18757
45.0350822645648 5.92625
46.9768165240983 1.24188
51.0203685023857 1.43004
53.0398134822836 5.39288
55.0182767302138 6.68072
55.0552014584101 46.7436
55.1211204016371 1.69727
56.9639394056731 1.42329
67.0584737451586 1.1211
69.0696778489245 12.0225
73.0642651959496 4.84465
77.0385351021715 4.65979
121.058622823807 1.23777

