>compound Anabasine
>formula C10H14N2
>parentmass 163.122766161743
>charge 1

>ms1peaks
163.120108745237 100.0
163.238718712714 4.11842
163.274576835326 1.82956
163.332850812041 0.57095
163.362727160435 0.552625
163.393449285294 0.616873

>collision 10.0
80.0501871664724 0.56263
92.0496882245305 2.69332
94.0653456525714 3.6397
117.057643601509 0.852479
118.065388024316 2.59236
120.080726670009 2.4696
131.073335998065 0.737125
134.096815968344 2.01601
146.096498641081 6.52589
163.122766161743 100.0
163.239087496047 3.77741
163.277596946916 1.57237
163.331740936596 0.596302
163.364070639357 0.518423
163.394855849948 0.580071

>collision 20.0
30.0338415163255 1.97542
41.0394320745455 0.719859
56.0498026178602 0.720327
65.039137211541 3.6904
67.05463555731 1.92612
70.0657278422704 2.30144
79.050665202665 0.922095
80.0499628494491 7.5154
82.0655537339264 3.9269
84.0809447003816 1.17346
91.0545184945331 13.3801
92.0497204466375 88.8191
92.1378687742829 1.72628
92.1629351219083 0.78146
93.057890492276 8.11201
94.0654494190062 66.1844
94.1546446288982 1.32205
94.1793694574188 0.66671
103.053279150084 0.571601
105.068431177897 0.618083
106.065317333017 4.13794
107.073022852864 1.22886
108.081925541741 0.615472
117.057452798221 36.1044
117.15591219622 0.639641
118.065007179066 94.5204
118.163171477428 1.97381
118.194541406762 0.863829
119.07833959047 1.61571
120.080729911158 28.8579
120.179544031832 0.523354
128.061905287285 0.948846
129.069450188489 3.54782
130.065048511876 26.4265
131.072938324234 29.6209
131.176857721309 0.579976
132.080806196957 2.90348
133.087935308043 0.591742
134.096240024667 27.5008
144.080619914893 12.4189
146.096363268949 60.9767
146.206006233049 1.11521
146.241055335586 0.538909
163.122982441448 100.0
163.238653825721 2.06528
163.275740132216 0.926863
163.310295526069 0.551069

>collision 40.0
30.0333667872255 0.577929
39.0232650063222 7.21452
41.039008110932 3.49371
42.034572106066 0.538862
51.0230305448924 2.70035
52.030922304103 0.924103
53.0391068130159 1.42456
54.0339259977353 0.679506
56.0494466505471 0.993219
63.0226708899243 0.866167
65.0385266736203 63.22
65.1122060470691 1.25173
65.1354200472431 0.52629
66.045543456356 2.61787
67.0495884640808 4.30615
70.0653710040162 0.815446
77.0385544540848 7.49211
78.0338619718924 10.8491
79.042466503405 9.05484
80.0490067517021 5.00649
89.037944503703 8.27496
90.0458134398192 19.1074
91.0537485569593 80.2075
91.1415607614 1.50851
91.1703618874625 0.779076
92.0488586619746 39.1778
92.136874649497 0.73258
93.0569194993124 32.5568
93.1456457497573 0.609758
94.0644929784245 7.04236
103.053457284656 4.51523
104.050199968088 1.90597
105.064881376993 0.957251
106.064030883585 10.5579
115.053233587616 2.90099
116.049621323292 2.1534
117.056397185739 100.0
117.155746530462 2.06568
117.184488663415 1.00808
118.064020141245 48.687
118.163138229565 0.993476
119.072792367732 0.703341
120.079654293162 2.38425
127.053528549724 1.00886
128.058916622968 2.71466
129.062515144783 0.583344
130.063981619938 70.6154
130.16775715978 1.32334
130.199095961592 0.668498
131.071761503097 4.14064
132.079938669251 3.79335
134.095784306119 0.70787
142.063924781735 0.749774
143.071099903369 2.07181
144.079033678875 5.89572

