>compound L-Threonine
>formula C4H9NO3
>parentmass 120.065015219569
>charge 1

>ms1peaks
56.0503688508283 6.84848
74.0607006830607 21.5125
78.0312587343217 1.51396
79.0225675267003 8.20263
102.054484266861 16.6931
120.065255796747 100.0
120.405902753174 0.501948

>collision 10.0
46.0285738406197 0.823658
56.0499879838009 70.1504
57.0332433768231 5.94233
60.0466960776902 0.652048
74.0605344109382 100.0
74.1173091348011 0.659709
84.0443960704045 9.12396
92.0463685996926 0.523242
102.054908352418 22.9507
120.065015219569 14.5577

>collision 20.0
28.0174757988617 4.69627
29.0386891068193 0.77115
38.9620560604925 0.719971
41.0376766520022 0.53758
42.032643135175 0.579977
46.0291528024275 4.12001
56.0500005619415 100.0
56.1659355587255 0.587294
57.0345009822448 21.109
57.2901858291546 0.56215
58.0279488617853 1.38462
58.0639229004323 0.977063
63.9985312199149 5.85862
67.0320647650337 1.41322
74.0599096874605 34.311
84.0432945835323 2.43502
94.037878258121 0.58125
102.053829025147 1.99152

>collision 40.0
28.9993096140763 8.45389
29.0382411523495 28.8879
39.0217830415935 4.49334
41.0386888838057 12.1125
43.0176766430235 8.47225
44.9975704673953 10.3349
45.0327695416336 10.2083
46.0305506626924 7.8515
46.9953959134583 13.653
48.9753797521501 12.4199
56.05020318352 100.0
57.0330239702346 23.6188
62.9899660251215 5.16145
63.9977617981398 21.8954
67.028775679201 5.96299

