>compound Indole-3-acetamide
>formula C10H10N2O
>parentmass 175.086159530713
>charge 1

>ms1peaks
130.064831667479 18.2764
158.059388363116 3.68487
175.086159530713 100.0
175.204789529151 1.77973
175.243181494328 0.888961
175.283309367425 0.580654
175.373453962121 0.526863

>collision 10.0
130.064673165388 100.0
130.16859459971 1.8917
130.199550723506 0.880522
158.059104321784 8.28537
175.086478678316 8.00939

>collision 20.0
77.0383581099766 1.05738
103.054572020149 1.5623
130.064825887129 100.0
130.169424971981 1.94835
130.198675117001 0.825965
158.058812665485 1.45247

>collision 40.0
51.0238136015052 4.21971
77.0388686676705 72.8424
77.1183093277667 1.46505
77.1405620609351 0.540763
89.0382671792854 0.910395
90.0453436628714 1.35779
101.036475490594 1.61683
102.046398162947 3.25619
103.054216173962 57.6379
103.146744562438 0.813098
103.174938489207 0.539922
104.049371510889 1.96776
117.055279826919 2.67034
128.049477811981 10.9767
129.059454195166 0.520799
130.064735720551 100.0
130.168193940642 1.52818
130.199925223681 0.746636
130.235461387406 0.551255

