>compound N2-Acetyl-L-ornithine
>formula C7H14N2O3
>parentmass 175.107290520325
>charge 1

>ms1peaks
70.0662757447656 1.05219
115.086601474196 6.35751
116.070130793242 0.577899
139.085558466709 0.833945
157.096942325369 7.88738
158.080648751873 1.73932
175.107486901312 100.0
175.229569166488 1.73076
175.266083553103 0.671393

>collision 10.0
43.0175616573703 0.795699
60.0454811412261 1.23134
70.0656142428453 22.4493
71.0494747143222 3.55994
74.023574506342 1.90521
88.0749798805125 1.50354
97.077073287538 1.39516
98.0598885446175 0.627684
111.09185547068 1.36563
112.075459000391 7.19926
115.08639353832 100.0
115.185321403491 1.4967
115.214594404399 0.551673
116.070519637603 20.8655
133.096407554954 3.62764
139.086496774047 7.93243
157.096467675179 22.9549
158.080383954133 33.2314
175.107290520325 21.8807

>collision 20.0
43.0180675209298 4.60512
43.0544655419511 0.708695
46.0289312454584 0.518438
60.0446888216771 2.16545
70.0658364400201 100.0
70.1432422787394 1.26865
70.1699440223423 0.569639
71.0496773754194 13.1862
74.0239963224993 9.21952
87.0913400528133 0.926933
88.075779419352 5.46271
97.0761856416185 2.4997
98.059774507409 2.33913
99.0448133737428 1.17511
112.075816343986 7.26491
115.086363999126 29.7831
116.070325730706 21.5529
133.096059345113 0.71535
158.080267837326 6.19011

>collision 40.0
28.0174694578296 0.567787
41.0389340526696 1.9342
42.0343462496696 0.601382
43.0182030642475 12.666
43.0542779804144 8.46134
53.0382694841148 0.950151
60.04542225761 0.883489
68.0496301185066 1.71072
70.0657321866682 100.0
70.1430666063975 1.46609
71.0492772272238 3.73609
74.0246808133075 1.6343
97.075798901766 0.978012
98.060407298531 0.612473

