>compound L-Cys-Gly
>formula C5H10N2O3S
>parentmass 179.048231841473
>charge 1

>ms1peaks
58.9958866803231 4.59222
76.0223540642651 31.8889
76.1013140447477 0.638427
86.9899949099608 1.14665
88.0219099100842 0.559236
101.095517105263 0.683817
116.016443463952 9.21895
144.011345916754 6.65484
162.021673953656 28.2981
179.047544909742 100.0
179.169667820035 2.22949
179.209585154461 1.16402
179.296548391775 0.503141
179.332553994114 0.551317
179.516146183554 0.523128

>collision 10.0
43.0426463488293 0.770897
58.9958385359828 21.4586
59.0658205331185 0.505622
76.0222697387055 100.0
76.101819972817 2.39947
76.1253484188951 1.2238
76.1645758226869 0.50828
86.9902896625113 4.60283
88.0217352780013 2.27603
101.095186917072 0.765161
116.016197727698 25.3315
116.115273220779 0.52918
144.011034852329 14.4117
162.0215575961 41.1155
162.134728642517 0.709764
179.048231841473 17.5657

>collision 20.0
43.0425873003547 2.28
57.9879891600947 0.694559
58.995768647905 58.4314
59.0653987894134 1.23356
59.0855252491776 0.606097
61.0119543438929 0.502006
73.0108601388258 0.8726
76.0222525507954 100.0
76.1016440527889 2.16445
76.1270271950526 1.06921
86.990213284827 6.61581
88.0219193858506 3.37394
116.016265349379 13.7182
144.011219961647 1.57261
162.021082537584 1.33854

>collision 40.0
42.0346730330574 2.6805
43.0427139943119 11.91
57.9878838325952 3.62434
58.9958549055516 100.0
59.0656941697622 2.17899
59.0893517501791 0.941277
76.0218902877943 19.0307
86.990086528096 0.800814
88.0219368789868 0.550765

