>compound Staurosporine
>formula C28H26N4O3
>parentmass 467.207802024563
>charge 1

>ms1peaks
88.075667911344 1.10482
130.086296036289 5.51641
338.128830518 7.7928
467.208325096505 100.0
467.397904920424 1.85814
467.464722492631 0.987281
467.537494274908 0.799345
467.614715405326 0.661798
467.718808392027 0.717997
467.912760625953 0.636257
468.077065392715 0.528105

>collision 10.0
73.0531958157768 0.793941
88.0757924222583 11.2174
130.085871221742 53.7451
130.184663049267 0.924002
130.220682194961 0.545769
295.124971001563 1.21469
338.128300647113 87.4717
338.294620449262 1.35331
338.346014214484 0.70487
338.481856477149 0.594331
338.659313890376 0.548111
338.76722230373 0.547185
339.135361705138 1.00272
467.207802024563 100.0
467.400509240702 1.81893
467.51343774812 0.834185
467.575193468333 0.814011
467.692221311169 0.594497
467.810638614242 0.62677
467.956118053135 0.702228
468.205430428459 1.01699

>collision 20.0
73.0520771335125 2.17518
88.0758432779701 39.2642
88.1615548952638 0.64101
130.085753872075 61.9658
130.188853245143 1.03948
130.220882722604 0.558457
295.122060444621 7.82649
338.12834916324 100.0
338.293932073742 1.68023
338.364604285724 0.813209
338.461403882424 0.725246
338.508624227263 0.585949
338.58468300011 0.609983
338.658311471837 0.551663
339.130699877148 0.941025
467.208153022683 3.99506

>collision 40.0
43.0183858660507 1.13634
56.049468753272 0.507399
58.0287902295703 2.60884
72.0436260552039 0.743408
73.0525464764368 13.4688
87.0690192924338 0.744124
88.0756831374156 100.0
88.1623910916223 1.91146
88.1864806620357 0.92956
115.063249260334 0.762949
130.085489054845 12.7016
268.102168176765 0.633544
295.122282359739 76.1644
295.2772578873 1.15559
295.329483490562 0.70532
295.433622567668 0.594259
296.124095953628 1.01534
309.101297994713 2.61361
338.128606473643 20.2908
339.146622361863 0.675921

