>compound Sulfanilamide
>formula C6H8N2O2S
>parentmass 173.037859822788
>charge 1

>ms1peaks
90.9776116137621 0.659389
93.0585191551599 0.998108
156.011193989495 15.7379
173.037132943448 100.0

>collision 10.0
92.0498831772722 7.6883
93.0569360608551 7.99468
94.0643720397764 0.547162
96.9591874724516 0.686248
108.044306963438 9.28558
156.011067076546 15.0447
173.037859822788 100.0
173.373536044906 0.65213

>collision 20.0
50.0169107654382 1.35017
65.03944574118 9.71719
66.0456432278745 1.12466
75.0234307776449 6.46791
76.0357214005082 0.534112
80.0511892360744 2.74161
82.9929140949581 0.622212
92.0497524021095 24.7321
92.9831964099446 0.676556
93.0574212817671 100.0
93.1511644723227 0.877159
93.6004365770226 0.61495
94.0644612762173 0.548618
100.067672071807 0.724332
108.044424247389 11.496
109.06271177335 0.721217
110.056709458919 1.02162
138.989907066245 0.564517
156.011035819152 2.69862
173.037609502836 61.0078

>collision 40.0
39.0227744783761 12.9936
40.0287397621669 0.970553
50.014975034541 8.59207
53.0396491363779 4.85933
54.0327566709402 4.01695
65.0391138595868 37.2703
66.0473859309472 40.9135
67.0451646320404 2.48563
75.0234482637278 41.3697
75.3848957997224 0.797144
76.031337223874 56.5655
77.037012058486 1.75978
80.0499915538756 8.22512
81.0590220690323 1.03007
90.0315463466257 1.12603
92.0497707761311 13.4152
93.0574268374751 100.0
93.2619075535125 0.807725
94.0652147991477 0.780008
107.015903237173 0.994623
108.044671943338 3.49893

