>compound Phosphocholine
>formula C5H14NO4P
>parentmass 184.073403231993
>charge 1

>ms1peaks
86.0972421858498 0.709714
184.073592161755 100.0
184.190213087753 2.88515
184.225629440068 1.65649
184.267905993077 1.06564
184.358473971258 0.687578
184.409844750253 0.673119
184.563711793462 0.609035
184.62542712112 0.543345
184.685502124893 0.501539

>collision 10.0
60.0811445548262 3.79706
86.0964652409491 16.7762
98.9837313694573 0.89059
124.999882538635 8.75779
166.063383403014 0.719845
184.073403231993 100.0
184.189844865759 2.75262
184.22637619849 1.7146
184.263477022689 1.12014
184.355088322715 0.662122
184.379063368723 0.588817
184.426980771005 0.650268
184.456286881832 0.662178
184.522774753671 0.575072

>collision 20.0
45.0349860943543 8.39155
56.0493959643896 0.932059
58.0663323163592 0.669501
60.0812053044816 20.3048
60.1496207795472 0.562009
71.0729072277028 10.434
80.9749815034156 0.974637
86.0966164092731 98.552
86.1771964610363 2.83264
86.2019740046676 1.54407
86.2209902296899 0.885248
86.2630865235527 0.713314
86.3087274133345 0.6978
86.3397237999742 0.587545
86.3887262823523 0.573454
98.984201197806 20.6667
99.0669236582145 0.549755
104.106551080767 5.97649
124.999586829206 100.0
125.097204405944 2.4861
125.128026991584 1.62532
125.21097884681 0.617182
125.253012760896 0.52999
125.290572995903 0.533745
125.320920773622 0.588549
125.37322802831 0.547592
125.492594690691 0.516167
166.06174442183 6.11537
184.073031639975 21.298

>collision 40.0
42.0339419370061 1.86692
43.0419239987919 5.00413
44.0511295390126 2.78235
45.0350474588673 49.9189
45.1123903495932 0.762642
45.1315509847065 0.593876
56.0501986923231 25.9621
58.0653685266323 20.65
59.0738805164035 4.80281
60.081684479619 15.5473
62.9633547451288 1.40642
70.0654852378052 2.57631
71.0734013142499 66.9822
71.146809153726 1.51246
71.168424904666 0.968549
71.1898742029174 0.705252
71.2141924522073 0.626641
71.2481292076339 0.583259
80.9736161083351 46.455
81.053397776554 1.00986
81.0976475218055 0.513626
86.0965396678207 26.9097
98.9842565851064 100.0
99.0720401940257 2.26255
99.0960107525158 1.35586
99.1433818103804 0.859628
99.2777808606424 0.613387
104.107754339111 2.63779
124.999850125592 6.53927

