>compound KAPA
>formula C9H17NO3
>parentmass 188.128700370081
>charge 1

>ms1peaks
109.101256112026 1.93877
152.106621725774 1.39305
170.117477271898 2.5405
188.130329991072 100.0
188.251956331474 6.65228
188.297989760265 2.89919
188.386724820785 0.971223
188.420383207396 1.10957
188.460949489113 0.658342
188.520323447647 0.596307
188.552592147172 0.58736
188.607508831181 0.511748

>collision 10.0
43.0188952700446 2.30926
55.0549910357568 0.741812
57.0346180424474 1.28167
60.0452638708664 1.25449
67.0549476842089 4.35335
70.0659939831303 0.884078
72.0452131010708 0.806733
79.0549707034406 1.01885
81.0700899950734 1.28221
83.0856227512605 0.989506
84.04488469878 2.33778
93.0702392426149 2.29291
97.0651264722543 8.43999
107.085645818041 6.05137
109.101565017731 61.6074
109.196763644651 1.77344
109.227563808242 0.760555
110.096406683096 1.79991
111.080285631655 1.44059
124.11200016548 3.13251
125.095962424837 3.02903
128.106743206689 3.25168
134.096282136162 3.35021
135.080386337279 2.29342
152.107240996839 34.3615
152.219369756407 0.804212
153.091161282046 3.87178
170.117840846294 57.6089
170.234783771307 1.64525
170.274427200314 0.653948
188.128700370081 100.0
188.252348048694 3.52663
188.294271467475 1.48495

>collision 20.0
43.0189525456924 19.1168
43.0549026040563 5.00049
44.0503376142202 4.50966
55.0187774641736 4.5153
55.0550343327856 14.3385
57.03445949447 11.3955
67.0550556225242 52.1877
69.0705391142359 6.69905
70.06587972811 13.4184
71.0498451602246 9.54806
72.0452445465742 8.56451
79.0545924518284 15.7682
81.0703004099104 15.0392
82.065583403291 4.04898
83.0844336541219 7.04037
84.044999260338 11.3637
91.0546107187191 6.16388
93.0701678699916 24.7768
95.0494335177154 3.75751
97.0649802983566 13.615
97.0973907170843 4.16207
107.085651074203 28.3391
108.080800942078 9.82034
109.101382682604 100.0
110.096354283088 11.4677
111.079580250916 3.69658
124.111849848849 23.9531
125.0959703103 5.30412
128.107123925605 5.91247
134.096304901772 21.0657
135.08017976149 9.59973
152.106932110407 26.4502
170.1173410593 11.9085

>collision 40.0
39.0241171265739 5.6626
41.03967327278 72.7955
42.0348948302399 21.8233
43.0189886801363 72.7198
43.054707579973 33.32
44.0503456631503 20.4576
45.034683447769 4.34767
51.0237490627554 4.44016
53.0394400006749 18.4699
55.0186507816757 22.7383
55.0551575847529 100.0
56.0504963236193 11.7439
57.0345460442422 11.7177
58.0658519587098 5.07977
65.0393543962449 25.1636
67.0549298055374 96.7429
68.0498853477002 10.6812
69.0705941241192 19.265
70.06586997975 30.3992
71.0497343100706 27.0383
72.0453151811676 5.5083
73.0565096021517 8.96907
77.0390537463528 71.0305
79.054810687477 58.3537
80.0507711195919 8.03177
81.0689843641381 26.5791
82.0657550001547 21.6466
83.0734762770003 10.9958
84.0448564722903 4.33781
91.0544878789546 63.6862
93.0683976593738 16.0727
94.0655344304055 12.4791
96.080786928678 5.84367
105.070227688381 6.8485
108.080852219152 8.08187

