>compound N-Acetyl-L-glutamic acid
>formula C7H11NO5
>parentmass 190.070128336742
>charge 1

>ms1peaks
84.0441893110904 4.93329
126.060061372764 1.1373
130.049946052524 16.7735
130.544249287267 0.554465
144.063585238978 0.543412
148.063846426069 6.34284
148.493732888029 1.6398
148.988352160295 0.690319
172.060531656834 21.0399
172.142806809536 0.815875
173.195846038563 0.520339
190.070128336742 100.0
190.197921375743 1.09113
190.229216021444 0.800097
190.279469335609 0.66048
190.485680621724 0.847904
190.520128648514 0.663201
190.743432399522 0.55128
190.861624623934 0.662851
191.016709477265 1.11921

>collision 10.0
35.964345325803 0.787511
56.0591623543841 0.556423
84.0447520892466 15.3179
102.055898431454 14.9931
107.968342677373 0.722165
130.049513147649 100.0
130.125511656196 1.57527
130.154825543107 0.910257
130.19542421823 1.03872
130.253279202068 0.785408
130.309192503689 0.612504
130.40883652159 0.659023
130.573772189384 0.545834
130.690829200779 0.531752
131.047707829319 0.751211
132.399448655051 0.584442
144.065107970431 4.54718
148.06009815988 23.6366
148.129423588374 0.665111
149.399566574705 0.573757
149.610577101294 0.625336
152.000669235159 0.534561
172.061075606521 3.01242
190.076002806511 2.29939

>collision 20.0
43.0192330896299 4.16919
56.0499824307791 2.82661
83.7290784194644 1.17632
84.0449709052145 100.0
84.1088999613247 1.84036
84.132112514346 1.78521
84.4195716835706 1.52638
84.5617183270162 0.923896
84.5912491399643 0.953356
100.005293553438 3.02837
102.05462520653 16.726
103.953442946222 2.22497
105.416207043604 1.09293
130.050146379064 41.4341
130.127899931781 1.45505
130.253261272316 0.908347
137.469098284302 1.00522
148.060747341298 7.66793

>collision 40.0
41.0384324879013 16.5751
43.0189784329225 24.736
52.5531931118795 2.28929
56.0500473169976 31.7825
57.157922114806 2.13253
84.0446476937224 100.0
84.1019666337382 3.99749
84.1292628964704 1.97266
84.3132453629408 2.65429
84.4388452591974 2.90399
84.4663042202806 2.07321
102.053391684218 3.90113

