>compound Glucosaminic acid
>formula C6H13NO6
>parentmass 196.081243034743
>charge 1

>ms1peaks
116.977092357924 0.902483
132.065224698042 1.42033
150.076206024494 0.856323
196.081763681652 100.0
196.208177441768 1.99132
196.247207683036 0.874506
196.287014732808 0.5658

>collision 10.0
38.9650436636991 0.663182
44.0493942423122 0.553244
57.0336621827174 1.19994
60.0453998658659 1.93834
68.049794242859 0.982614
70.0293829112453 0.650037
72.0454174247061 7.78592
73.0281914049998 0.870645
74.0242764652337 5.66595
84.0454601206253 0.616007
85.0292395483401 2.9097
86.0596351850471 0.96935
96.0451150141834 1.24619
97.028977518632 0.570625
98.0605543620984 1.34584
104.034142857146 0.836201
112.039969199761 0.62255
114.055149931662 7.37544
115.039285567076 2.72529
116.070580699616 0.721665
132.065621326441 57.6667
132.169941372337 0.958864
133.04927784232 6.32896
142.048690078991 1.05412
150.075918315345 21.549
160.060040930087 2.83245
178.070484808034 7.81491
196.081243034743 100.0
196.207939230959 1.61205
196.245008590241 0.893688

>collision 20.0
28.0167190117363 0.581836
30.0336887094781 4.72548
38.9649222743963 1.04584
41.0386401998954 3.31455
42.034521308703 3.56203
43.0182431518836 5.2558
44.0500238364568 10.3843
45.0327762038458 2.13867
46.0291476126734 3.42531
49.0302572328401 0.564076
53.039982574893 1.59435
55.0179911969571 4.85176
56.0501075283456 4.85915
57.0334293957084 8.78211
58.0291837587521 7.16866
58.0637090724059 1.58957
59.0496639188033 1.612
60.0446549787672 43.6774
60.1147677864254 0.745795
61.0289640377609 8.78521
68.0493822280742 18.651
69.0336054999393 11.1828
70.0285652540309 9.12171
70.0633939795943 2.28688
71.0115352601509 1.0411
71.0470094059753 0.699218
72.0443991228273 100.0
72.1229930128497 1.85927
72.1450687702857 0.905823
72.1825599549591 0.567563
73.0285330081305 9.88783
74.0233933774991 46.5943
74.100302338519 0.790245
76.0400077826247 0.697153
78.033696469576 2.20087
79.0222914789675 0.638822
80.0502895816773 2.87462
81.0320856932818 0.940696
84.043607569355 8.58141
85.0284730030292 37.8274
85.1120476682575 0.664231
86.0595761428174 16.1614
87.0436126002935 3.2253
88.0391038846767 1.88329
91.0392449112449 0.75168
96.0436966971344 12.1088
97.0279879685131 5.69226
98.0593031384372 5.87846
102.052890753841 2.31179
103.037213425645 1.04367
104.032201998132 3.7355
104.066216710181 0.713341
106.029786610901 0.648591
112.036082547438 2.96306
113.021483794512 0.617681
113.980690577106 0.531035
114.05364124173 47.3597
114.147514179474 0.611321
115.037960539275 10.4991
116.06951837205 2.84775
124.03806244298 1.46903
132.064241035512 90.827
132.168655676743 1.30313
132.201334680568 0.835019
133.047324488493 9.91333
142.047303709625 1.06456
150.074479986559 4.00303
160.057995493496 1.41606
178.068910026058 3.649
196.077989522037 6.56918

>collision 40.0
28.0184712750662 6.80253
29.0008318782696 0.855177
29.039277516437 2.07124
30.0345878435243 4.80674
38.9653145316221 1.90445
39.0256717986134 2.0676
41.0396808330159 22.2192
42.0350586855657 44.3559
42.0804578542172 0.663657
42.0963463809358 0.579183
42.1151361748814 0.691143
43.0188221258294 34.2459
43.0799260500081 0.556973
44.0140619198554 0.800526
44.0505947016832 68.5846
44.0958513405864 1.33987
44.1122911345629 1.07277
44.3375661047383 0.52784
45.0340884097355 19.7664
45.2534915724143 0.53941
45.2902414626841 0.516351
46.0292716367987 9.13742
47.0126605396177 0.672566
50.0122004989906 0.78438
51.0227259344418 0.750548
53.0391899274984 5.98577
54.0364108322659 3.2418
55.0190075184328 13.4281
55.9305249277364 0.633337
56.0504464576627 16.6539
57.0348730027742 25.6229
58.0290415870048 17.6198
58.0629770322222 7.06343
59.0388739723681 2.98869
60.0452686698897 100.0
60.0976240164654 1.74403
60.1173221128895 1.57638
60.1372728204117 0.927316
60.2223625642804 0.554136
60.2523059926329 0.587222
60.4239750120908 0.527609
61.029272685265 33.1395
61.1019531119738 0.511645
62.0173070345242 0.665682
63.9968590878607 0.879562
67.01728665801 1.49244
67.9809432215694 0.742105
68.0498937307506 34.9225
68.7466547291843 0.680803
69.0341929952142 17.3319
69.9970457780988 0.919202
70.0288794336862 18.9111
70.1012954495793 0.508063
71.0129442611719 3.59456
71.0485684839922 1.20371
72.0450988203639 47.2989
72.1229482930278 0.810216
73.029260250965 7.5658
74.0241656887353 27.1961
74.0813146740583 0.56255
78.033222241249 7.90324
80.048517449655 3.10524
81.0355195650882 1.1196
83.010452023323 2.16839
83.0340368356496 1.49446
84.0449985315405 6.07344
85.0348390786994 13.4767
86.0600558920787 5.11944
86.0990661706834 0.8374
87.1852026669802 0.664912
88.0412806129025 0.763287
89.0405230682438 0.786426
94.0275891524733 1.7454
96.0467447938903 8.02769
96.6926689904466 0.529326
97.0290162609389 1.87588
98.0587552410167 0.735572
103.036672999895 0.594575
104.067295490768 0.595343
114.053540843991 4.33923

