>compound Harmalol
>formula C12H12N2O
>parentmass 201.102743355321
>charge 1

>ms1peaks
200.089374720003 1.22543
201.101738343427 100.0
201.275956018361 5.19938

>collision 10.0
160.075418700643 1.88297
200.090280567315 1.14706
201.102743355321 100.0
201.276279412533 5.96256

>collision 20.0
42.0350199037187 0.830751
68.0506063210705 5.99962
115.054062416219 0.566464
132.080501596472 0.830731
158.060600802019 1.54843
159.0681414355 0.512665
160.075884233175 30.0391
160.230505158385 0.52598
183.068127048274 0.569011
184.076146794279 6.71867
185.071355036597 0.781483
186.079388453553 3.22649
200.090520415948 1.61401
201.102700090987 100.0
201.276210467145 4.17857

>collision 40.0
41.0394217712374 2.09103
42.0346597689507 51.4711
42.1164484630756 1.07532
51.0232229478232 0.725655
54.0349869469174 1.19184
55.0185343195531 1.47514
56.0505256328524 8.48956
65.0389483824637 4.3372
67.0419654103593 4.81327
68.0500753898088 36.187
68.1542436810315 0.51612
77.0387079433011 8.32325
78.0413104029784 1.63365
79.053951892934 4.55852
80.0496304025624 0.964486
89.0384452329202 3.61456
90.0456073391246 1.68356
91.0540826914178 12.1414
94.0401962399555 2.5387
101.038682522624 0.760224
102.044296353547 0.964366
103.0537928276 12.3055
104.054982205289 2.85483
105.068933509261 17.3343
106.044550804527 1.26965
107.04848718608 1.97058
113.037597557596 0.731015
114.04428378305 0.950383
115.053532042469 48.762
115.185235415878 0.773295
116.050393828389 6.77451
117.057113290441 42.7512
118.06005044245 3.01606
119.049232311455 1.1992
120.047816061935 0.625182
127.053535066719 5.92475
128.058512358316 7.7495
129.068081833592 6.27347
130.063980610922 14.2308
131.054596975584 20.1401
132.079514156879 29.0893
133.056011375295 13.7798
134.059439487966 1.1615
139.053840577225 4.90876
140.048779642384 5.55414
141.055255798382 3.37172
142.063600726809 10.3764
143.0705950921 11.2268
144.046173182007 6.54929
145.052089211362 9.7829
146.059093376573 7.52443
154.064069248007 9.18111
155.070799263493 4.12854
156.075200036032 5.21332
157.069863656157 8.19351
158.059410647238 13.5443
159.067149066341 49.8224
160.074779615282 100.0
160.229142177059 1.45339
166.064150601551 5.12003
167.070881950978 11.8915
168.064453514476 0.569013
169.055479049489 4.14461
170.061612621961 2.15302
171.060984089927 2.5323
172.077625153637 3.36752
173.091042544605 0.72902
174.091053002551 1.1106
182.060988981013 1.71697
183.067583733348 20.6306
184.074833293563 7.16671
185.070048486304 54.6907
185.241038736605 0.738904
186.077553825985 12.5075
199.085651788761 6.16331
200.09002680192 1.25788
201.101315803707 3.53571

