>compound Chalcone
>formula C15H12O
>parentmass 209.096267656686
>charge 1

>ms1peaks
103.054321677139 0.556435
131.049117825149 1.57
209.096373590534 100.0
209.228016071857 0.803585

>collision 10.0
77.0393872754668 0.866157
103.054744031992 3.84693
105.033626359566 6.07217
107.048312103098 0.514712
131.049183791949 34.2677
181.100509043192 1.69146
191.084883191404 2.18964
209.096267656686 100.0
209.227908452868 0.711106

>collision 20.0
77.0391434404648 7.28388
79.0550073680469 1.07684
103.054398041445 43.4788
105.033696810779 25.1572
107.049416776308 1.93329
131.049200286668 100.0
131.153265084387 0.761201
166.077418801216 0.836541
181.101084709946 1.65965
191.085154302952 4.87294
194.071704988638 0.857872
209.096440883107 7.55174

>collision 40.0
51.0239643131385 4.21189
77.039188525525 95.7973
77.1202597760289 0.68251
79.0550676204205 3.74595
102.04665009893 3.7471
103.054365358702 100.0
103.147818624479 0.669922
105.033547138665 5.04171
131.04923953387 5.13357
165.0697277892 2.66193
189.069989662514 1.29507

