>compound Mescaline
>formula C11H17NO3
>parentmass 212.128683705731
>charge 1

>ms1peaks
180.078246742877 0.922117
195.102012828222 35.0772
195.278101799462 0.547931
212.128683705731 100.0
212.307298974377 3.42192

>collision 10.0
150.067071654686 0.680309
164.082477808067 0.956554
165.054772110017 1.69923
180.077754904405 7.14259
195.101417800602 100.0
195.276565299613 4.52768
212.12726359943 2.2143

>collision 20.0
77.0396160058535 2.16943
79.0547405648846 4.1374
91.0551127140059 3.62058
93.0706404385851 1.06902
95.0497549384296 0.698298
103.054324141836 2.77613
104.062186470488 1.2833
105.069890014431 7.264
107.049919002607 1.11317
109.066350766626 1.38085
116.062637020939 0.775823
118.042655201367 0.51927
119.049931701367 1.7778
120.056856236487 2.53532
121.064997777054 5.28043
122.071936842744 1.21081
123.047300809969 1.02859
131.049552641815 1.59348
132.056776285401 2.50953
133.039482522543 9.32118
134.072437668834 3.02554
135.052520932899 6.05084
137.060172126214 4.57003
138.065985068649 0.623416
147.043872738427 1.62428
148.052598787052 3.5716
149.060170535808 10.6983
150.067845457676 14.7171
151.075842994788 6.07217
152.083129016941 1.40835
153.05659694178 0.705537
161.059409567897 1.38897
162.067351607562 4.36336
163.075176184737 4.57946
164.083092382047 22.905
165.054803612005 53.8718
165.212180650071 0.792062
179.069768521712 1.39682
180.078292991839 86.7866
180.245669033756 2.04753
195.101736048332 100.0
195.278059369921 1.82633

>collision 40.0
39.0244255140337 1.29281
41.040022101237 1.81347
43.019298864838 2.61252
45.0353941735067 1.58004
51.0242392938735 5.03368
52.031799939183 1.02985
53.0032290616257 0.555065
53.0396312918089 2.32165
55.019534886918 4.10096
57.0353855231363 1.28461
59.0142821828563 1.7627
63.0247466301886 1.07201
64.0322933505736 0.914518
65.0399447126996 12.7627
66.0476397382401 7.47472
67.0198400836118 0.755762
67.0553198692638 3.70217
68.9980032434743 1.61857
69.0347364229907 1.42888
77.039934433886 100.0
77.1509132099518 1.98668
78.0478015129526 19.5546
79.0553474668925 48.2226
79.164434628411 0.838617
80.0261877199783 0.810175
80.0637960901264 0.628097
81.034240529845 0.995289
81.0709762804241 8.38445
89.0391953752643 2.92128
90.0470597481144 5.40689
91.0554447417148 99.6385
91.1764031625211 1.76933
92.0269206541866 2.58092
92.0624338395915 3.89482
93.0705007774496 9.75265
94.0424311109073 14.0947
95.0503103451593 6.13942
96.0575798943486 0.533563
102.047208959214 4.57156
103.055147240554 39.4975
104.062879243651 13.0153
105.034350806246 45.2797
105.069089133572 14.4638
105.160617641435 0.696963
106.042781224203 2.60362
107.049801957384 22.8014
108.058699832001 2.08472
109.065608253513 14.1752
111.045166478218 0.665114
115.055006876711 3.58731
116.062751487667 0.607491
117.071187808777 0.801518
118.042548616538 4.09846
119.049950423611 19.3782
120.041848364846 5.577
121.065185367919 41.382
121.198550149664 0.516121
122.036467275431 8.91947
123.069016374574 1.8476
125.059432411947 0.680006
131.049851848572 11.6909
132.057118093463 1.99603
133.029228422932 42.8901
133.172341509845 0.589441
134.069792000364 2.93691
135.044562235445 32.8652
135.187369284616 0.526041
136.05277613529 3.17965
137.05988948653 32.8276
147.044360206139 6.06801
148.052565833758 1.71751
149.060201025994 12.6534
150.042896353478 4.80556
151.07640065126 6.23955
161.060338813854 6.44367
162.066385480167 0.73182
163.039902967529 6.91922
164.082793170568 2.07307
165.055066212595 38.2325
179.070673790201 1.06078
180.07843281247 1.18193

