>compound Methysergide
>formula C21H27N3O2
>parentmass 354.217128214394
>charge 1

>ms1peaks
237.136459045913 0.73719
311.175436959994 0.521888
354.216668379904 100.0
354.451797224414 1.10087

>collision 10.0
211.122243369884 0.923141
222.091866080933 2.73802
237.1383272786 4.29647
293.163622538968 1.07811
311.174846635285 3.83899
336.206298186645 1.01712
354.217128214394 100.0
354.451883577617 1.2781

>collision 20.0
44.0505823429802 0.586728
56.0520867810238 0.620422
72.0821722515772 1.24069
90.0923026061928 0.887531
103.075707757614 0.700697
126.091684991208 0.743121
144.09826752655 0.705166
182.096180352426 1.15599
194.097464053214 5.64278
196.109010156348 1.61886
206.096176759039 2.46618
207.08780690702 0.631448
208.112306462024 2.5826
211.122968761094 11.5414
221.104716378223 1.64166
222.092739344152 29.9473
235.12307360527 0.974957
237.138162676822 50.4388
238.111971613661 1.183
239.122978337141 1.55117
265.132741123762 4.36044
283.143789601659 2.27493
293.165196574011 4.22287
311.175575102339 18.3035
323.176197861917 2.06208
326.151290659485 0.730156
336.209883889029 3.06937
339.194481855971 2.31776
354.217753836176 100.0
354.4522915586 0.702647

>collision 40.0
42.0344877100603 4.06669
43.0555651918178 1.10254
44.0507692365069 10.3348
45.0344591487829 0.503611
55.0188622133116 2.59855
55.0550070771905 3.78787
56.0496500033368 5.89524
57.070519409135 0.962359
59.049967804457 0.538771
72.0465127920284 0.551721
72.0807716904915 4.01917
84.0444016274898 0.608232
87.0461842804497 1.00036
90.0912764399871 3.41622
115.055510535193 0.538693
126.089876698759 3.07861
126.951091029171 0.607532
144.088584660208 1.52844
144.962339785037 1.36893
152.061522986472 1.97707
153.06952068622 4.19009
155.07789884648 0.547431
158.097774017159 1.29679
165.069916091068 1.22505
166.067644201392 0.93295
167.075235533933 4.78242
168.079195065329 8.1275
170.096791564014 1.38091
178.06356077512 0.730118
179.076840702218 2.11396
180.077937013231 2.33784
181.08547725516 19.0989
182.096557210807 9.61128
190.064597056557 0.825535
191.07139422537 3.31357
192.082416254435 1.77462
193.086460355239 4.73333
194.096263812564 72.8512
195.094230378387 3.47396
196.105450288574 25.7649
197.978082482306 0.745513
204.079367978919 4.90674
205.086305240479 13.9619
206.095818117932 23.6821
207.076446788328 29.7792
208.110029564548 12.5683
209.108535057228 0.582181
210.114240909877 1.38054
211.121410170422 20.7004
219.091573232355 0.539247
220.098751023282 4.31268
221.103329522408 64.8586
222.099592445316 100.0
222.278432401326 0.6673
223.121500486168 3.79385
234.102063570423 2.37468
235.121175117606 9.4027
236.130665023151 3.9628
237.137569416876 83.1383
237.328934598047 0.617433
238.110252296168 2.09303
239.117965896394 2.39055
248.120874369928 0.693114
250.125585196527 0.597737
254.087222523474 0.731972
264.151120870426 0.876422
265.138543258647 1.11191
268.121196016144 0.833437
283.141222288211 1.00167
293.161003666909 1.10715
311.174256012625 1.9309
339.199043876236 0.747165
354.214706751242 0.930416

