>compound Harmaline
>formula C13H14N2O
>parentmass 215.118107108515
>charge 1

>ms1peaks
176.009400638612 0.621078
215.118783385786 100.0
215.30462954108 4.48923

>collision 10.0
137.00175272783 0.557926
174.09044870886 1.42591
200.093641581332 1.24317
215.118107108515 100.0
215.303693447921 6.18157

>collision 20.0
68.0502468214752 3.00237
97.9951866899896 0.758129
131.072212868324 0.571288
159.067923865103 1.2909
171.09121207518 0.660866
172.098079385817 3.97174
174.09113686804 19.9066
183.068310678504 0.620517
185.07031111846 0.560646
198.091053489735 3.0412
199.085589411051 0.55747
200.094286700858 19.5296
215.118236450809 100.0
215.304036920873 5.43126

>collision 40.0
42.035188771188 8.74302
56.0508783307944 0.80226
58.9893385809084 1.03497
68.050595044666 9.60403
77.0395868900382 1.00316
89.0388418450153 0.514111
91.05531827305 1.03065
102.046807443452 0.715477
103.054913401876 1.38887
104.05598733243 0.532107
115.054105750871 2.75083
116.055613177599 1.299
117.060781970049 1.86998
118.065201162695 0.689875
127.053746466977 0.573603
128.055869030498 1.20955
129.057971094083 2.74579
130.065474048847 13.7799
131.073460081948 40.5404
131.218148649708 0.576944
132.065104758274 0.755284
140.051060200584 0.86106
141.059338537075 0.658436
142.063612737201 2.5577
143.073150697719 12.0606
144.080546285711 8.14906
145.085780492005 3.14853
146.091136973227 0.703863
154.065477489761 5.91065
155.072488629744 7.63758
156.069870981019 3.59651
157.076085415406 17.4638
158.06067497012 4.49388
159.068308916424 19.719
160.076266539939 0.53179
167.073347262363 2.91911
169.076287950805 0.899145
170.08292533284 2.13119
171.092163601001 61.5873
171.25791788768 1.30905
172.099589095181 100.0
172.262988896515 3.28466
173.083909299359 1.95188
174.091431948669 21.3311
182.060676192427 0.98134
183.070104886583 2.43976
184.064010041898 1.29385
185.070929453666 10.6369
198.086304554577 1.34295
199.086850659643 11.6452
200.094726905993 20.5857
215.11839187199 1.59067

