>compound d-Dethiobiotin
>formula C10H18N2O3
>parentmass 215.138671899663
>charge 1

>ms1peaks
179.116935931684 1.49564
197.128412292879 27.1532
215.139014870859 100.0
215.268670714239 1.79104
215.309073855906 1.02795
215.356443359811 0.617069
215.562444905466 0.543752

>collision 10.0
67.0550732613797 0.953628
69.0703582123637 1.45362
81.069103854121 0.516858
95.0867609786982 1.35832
99.0548541167095 0.970017
109.100595348407 1.53156
111.055710883378 0.66585
136.111502266131 1.4308
137.094365870843 0.609895
154.123467700228 2.33111
179.117194886294 10.1128
197.128169975705 100.0
197.254816645117 1.72181
197.298535974954 0.910327
215.138671899663 33.7103
215.247052707758 0.789355

>collision 20.0
41.0398571974331 2.21647
43.0182572071696 1.82406
43.055367548934 1.41588
44.0504000238665 4.6703
53.0401267218206 0.83066
55.0191319694272 0.99562
55.0546200897531 5.77102
56.0491842467464 1.86495
57.0343718285509 0.774623
57.0705401469143 0.587052
58.0654163249569 1.40878
67.0546307764312 11.722
69.0345450352151 1.64669
69.0701857431123 13.2549
70.0281586703288 0.995668
70.0658730647997 4.0038
71.0492856965146 2.06183
77.0382291246646 0.87027
79.0540025303347 2.05692
81.0704036816276 4.26164
82.0659228089465 1.19173
83.0495533285065 0.817689
83.0842192159839 0.538641
84.0810478051015 2.03557
91.0546043697579 3.00275
93.0696147260198 4.1377
94.0651733969697 1.30851
95.0851416089832 12.0132
96.044701271151 3.08537
96.0809101864187 0.554147
97.0370809900233 0.884705
97.0737080245193 0.585479
97.9941631082343 0.931733
98.0608242762738 0.941882
99.0552252335706 8.65413
100.075510366871 0.80245
108.081382746253 1.78205
109.100996474756 15.1901
110.095624894807 3.50363
111.05461022758 5.77299
111.11568673312 1.82068
112.073970470718 0.860402
112.112232070707 0.983814
119.083373729785 2.54393
124.107706468297 0.618148
125.075424039761 0.578523
126.128903701327 1.91196
134.094933106375 1.3494
136.111517047236 13.2692
137.093972531758 4.4306
151.121962270937 3.16591
152.107526908903 2.35004
153.101496815591 2.13152
154.122111282466 9.64062
169.135039611101 1.74368
179.11729955867 54.0845
179.240657345494 0.967134
180.10656532353 0.65564
197.128091499299 100.0
197.256091963817 1.79858
197.29156374404 0.857689
197.345446316777 0.671035
197.437795722879 0.642027
215.136420353448 1.17285

>collision 40.0
28.0182595047887 0.96343
29.0382371841925 0.925283
30.0358987442018 1.1342
39.0227769574373 1.50243
41.0395413964407 41.5881
41.1000574059882 1.40459
42.035578250693 12.0795
43.018668114094 5.97955
43.0550084255771 16.7013
44.0133174835193 4.74449
44.0509104255796 31.0012
44.1110756608434 0.695583
45.0346262850083 3.00505
51.0224417294111 0.607294
53.0395754330721 13.1335
54.0348543581448 3.75497
55.0182471696194 14.5932
55.0553435723456 78.3038
55.1236284508859 1.62653
55.1508682094607 0.774912
55.1776435652463 0.65838
55.245711332437 0.555234
55.3606453921217 0.63251
55.9444260209793 0.713606
56.0137070088007 1.49773
56.0503648954703 27.7371
56.1141285981712 0.641962
57.0395883416807 6.08647
57.070354355963 3.76826
58.0256094012186 0.522854
58.065791390592 10.6902
58.9881656352318 2.26931
59.0481859520387 2.35871
61.0375903278324 0.73398
65.0391638690907 4.89785
66.0477792484665 1.27619
67.0548943839057 100.0
67.1109640236892 2.02957
67.1312169582513 2.1218
67.1511743449198 1.36016
67.1691866106549 0.536893
67.1856013518496 0.555811
67.2238910022697 0.532692
67.877534837748 0.526602
68.0502449728709 8.58535
69.0708868517408 27.117
69.1311578476267 0.650256
69.9922351931756 1.04265
70.0282337244996 11.2926
70.0656890217526 34.1675
70.143067810476 0.934315
70.3067573765892 0.517122
70.3695719830066 0.535857
71.0503853346017 13.3253
71.1042617296654 0.711767
72.0440027651877 2.32132
72.0781202200371 0.677263
73.0670961686895 1.45108
77.0391818189022 16.2899
78.0334008737037 2.63204
79.0539980754291 18.7425
79.0994123942084 0.640564
80.0549998455678 2.88353
81.0700618673985 20.0668
81.1533989197361 0.508381
82.0290640853408 3.42436
82.06520887656 7.72655
83.0728851115967 3.62112
84.0447716555541 3.1243
84.0799732810716 8.92143
85.0409392911588 1.1477
86.06089827245 1.3462
91.0542090979008 24.2561
93.0690830545724 16.877
94.0644141196085 8.19439
94.133957722543 0.62586
95.0849285011924 27.08
95.1744891670486 0.621818
96.0437749246596 10.5624
96.0788540977638 3.47506
96.1176359274874 0.54448
96.9367113705106 0.818688
97.051483580235 2.8194
98.0498699194614 1.58504
98.0935798281987 1.2629
99.055714819123 15.2352
100.068656129394 0.646303
106.065570907893 1.15837
107.080554380987 2.9367
108.080042210761 7.21779
109.102569160069 3.30461
110.056721406788 0.956894
110.096161097311 6.13426
111.055332797092 10.9523
112.064456162983 3.21182
112.110093234939 2.31814
117.070450453132 1.60267
119.079652864202 1.63273
120.081799743283 0.824235
121.083415730797 0.651685
122.063422513878 0.70287
125.065884432412 1.52332
126.127077611229 0.803353
128.050917660456 0.511117
134.095665035747 1.43967
136.112351771205 2.65924
137.073375165908 1.75159
149.068581769288 0.774312
151.123005889227 0.633362
154.125144122002 0.502409
179.117786611948 1.44195

