>compound N-Acetyl-D-glucosamine
>formula C8H15NO6
>parentmass 222.095018771017
>charge 1

>ms1peaks
138.052105936697 7.1807
168.062137459011 15.638
186.073406776641 27.3612
204.08604376766 100.0
204.171894188468 4.11372
221.112434596335 4.07715
222.095018771017 59.8112

>collision 10.0
109.03023916521 4.4496
126.050057812809 22.9102
138.053265932784 100.0
144.064073308745 19.9554
149.020834239117 4.97701
168.065418576075 15.9032
186.072958813288 17.5277
204.082819649199 20.5448

>collision 20.0
69.029738236857 6.77784
81.0368332549002 10.1567
84.0429410268723 10.9199
96.0460548918259 19.7634
97.027551332233 20.067
98.0628961687753 5.01112
99.0454127292633 5.69944
108.083873286266 4.99925
109.030122792975 8.56251
116.071414654033 12.4055
126.052140291059 29.3792
135.060479898758 5.34747
138.054670885411 100.0
144.066534573663 15.1955

>collision 40.0
41.0401279548676 12.9784
43.0163315911399 16.0603
53.039495317539 17.2584
54.0333448809559 12.2322
56.0483637636282 19.302
68.0484956869757 28.917
69.0333330611183 73.5956
81.0336365744494 14.3889
84.0456840253741 24.0838
96.0433254122985 100.0
97.0279209064823 18.0827
109.028195132789 13.9003
138.051030914663 14.2953
206.092684877404 19.6855

