>compound Flavone
>formula C15H10O2
>parentmass 223.074994976916
>charge 1

>ms1peaks
223.075630282544 100.0
223.21093677791 1.80557

>collision 10.0
223.074994976916 100.0
223.210601834725 2.11745
223.255705507338 0.582437

>collision 20.0
77.0389852386577 1.25148
103.054308898044 0.716801
121.028092263871 2.6653
129.032973227459 0.757989
167.085008389248 0.738745
178.077003850588 1.03523
223.075053304772 100.0
223.210619312012 2.09624
223.255126085903 0.602286

>collision 40.0
39.0233387426142 0.882703
51.0236688348088 8.48569
65.0392542870921 37.5868
68.9977243791456 4.68021
75.0232070177839 0.955952
77.0392106825907 100.0
77.1195613345909 1.02891
90.045687329616 0.537228
93.033577077338 24.1379
101.038193286634 1.6706
102.04687598112 0.909746
103.0541583736 27.272
105.033171204464 3.84126
121.028152218862 28.2639
129.033076421816 26.5347
151.054275078476 1.73062
152.061771603234 9.26341
153.068738063002 0.762323
165.069352458821 7.16412
166.076879745159 1.83979
167.084920268135 3.03379
176.060523559496 2.2816
177.069370099799 1.52025
178.077071074685 8.89128
223.074438463579 10.1046

