>compound Deoxycytidine
>formula C9H13N3O4
>parentmass 228.097113720996
>charge 1

>ms1peaks
112.050442167585 100.0
112.123497545919 1.80852
112.147722261453 2.23489
112.178071404329 0.913306
228.097113720996 47.0855
228.235148157702 0.912351

>collision 10.0
95.024049997381 0.612176
99.0439598124806 0.569724
112.050303476658 100.0
112.122904377712 1.85567
112.147543444689 2.52007
112.177255437396 1.01027
117.054136865882 1.9027

>collision 20.0
69.041591386602 0.853244
71.0495082219321 0.609504
73.0287245839163 0.928721
94.0398447745175 0.923364
95.0238299800224 2.24316
99.0440888584964 1.08198
112.050498271463 100.0
112.123670142423 1.92171
112.147671714422 2.52949
112.17626444729 1.07665
117.054333350955 1.26104

>collision 40.0
52.0191114640052 2.77436
53.0390156233532 1.54678
67.0298020487258 5.8459
68.013534586694 4.68456
69.0445920338679 21.3352
71.0313054765396 1.22057
73.0287554394833 2.68547
94.039834377541 19.7659
95.0240526903071 63.2338
95.0915195096524 1.04178
95.1134307252711 1.16787
95.1376404346939 0.514241
112.050262932959 100.0
112.146762476825 1.9942
112.1762484987 0.894353

