>compound N1-Acetylspermine
>formula C12H28N4O
>parentmass 245.23320985758
>charge 1

>ms1peaks
72.083115833814 0.595739
100.078398567633 0.587033
129.136646643296 1.26234
171.148742362148 1.63925
245.232821745215 100.0

>collision 10.0
68.9439024822988 0.726308
72.0798928384956 0.63428
84.0810550818269 3.21313
99.0930120641617 1.1572
100.075663546307 14.9472
112.112494239907 14.06
129.138070088156 53.6073
171.148970082991 51.0808
227.223638536951 3.01407
244.11765666273 1.16986
245.23320985758 100.0

>collision 20.0
30.0334452890638 1.53215
56.0497736465826 0.857985
57.0700068821525 0.655516
58.0646869245494 8.82101
70.0654026908791 2.10949
72.0446963919257 3.78394
72.0812446195639 6.05139
84.0814365773915 12.8528
91.0551875206611 0.627512
99.0942572012585 2.01765
100.075753916041 100.0
100.327353340468 0.524234
112.112293915838 89.0072
112.329960183045 0.636671
129.137499951787 45.9394
130.980833184749 0.696603
133.940915533426 0.5207
143.020377841456 0.637975
153.138900051582 0.754018
162.967094877301 0.522967
165.066198003234 0.721388
166.075164657352 1.12659
171.148805882283 32.4399
245.23465872341 1.70749

>collision 40.0
30.0339637874877 6.57163
41.039640481154 1.32647
42.033950895765 1.15543
43.0419708861203 0.515803
55.054643940529 5.55065
56.0511061039311 1.37508
58.06614210684 29.8839
58.2245190939645 0.577526
70.06522746141 3.81465
71.0851365143874 0.773589
72.044383672352 24.73
72.0807512981191 7.95503
81.0498878522846 0.522919
84.0811600724426 100.0
84.1420483814387 0.728313
84.1784254219974 0.587988
86.0864830900875 0.680378
98.0972129271322 1.12649
100.075495552307 42.9412
112.111929865596 36.1784

