>compound lipoamide
>formula C8H15NOS2
>parentmass 206.065886945722
>charge 1

>ms1peaks
161.04689500379 11.9023
167.05346355596 10.7393
168.016270724272 11.2648
189.037004956906 49.8781
205.05915824446 13.4171
205.559517958278 8.94835
206.065886945722 100.0

>collision 10.0
44.0115312682967 20.9985
78.0102251917701 17.1226
101.039111787191 23.3367
134.945499627098 24.3066
161.043639876599 27.3841
189.03689950948 100.0

>collision 20.0
90.4833237150666 69.5521
93.065610131906 100.0
101.038946690729 49.3656
104.984770877917 29.5283
109.001348197738 49.6231
127.056769549837 55.0606
134.951652136827 31.0058
161.040762255139 63.7319
171.034187934243 54.7825
206.151997300513 66.2572

>collision 40.0
45.9844204778141 100.0
91.0497339410685 48.192
113.075053346731 53.71

