>compound Thymidine
>formula C10H14N2O5
>parentmass 243.0991345729
>charge 1

>ms1peaks
81.0341056159322 9.86101
99.0434492412496 3.47679
110.025502815832 0.886104
117.053566201939 9.88434
127.049879162022 100.0
157.057151582857 0.598206
207.074715016107 1.36202
225.085860095094 2.15595
242.106866825809 0.719534
242.62910427526 0.842578
243.0991345729 46.9995
243.182295267823 0.884063

>collision 10.0
45.0355886145243 0.54741
69.0340591927182 0.7849
71.0509250398481 0.812116
73.0305146939922 1.60191
81.033774408481 3.06897
99.0439204951658 4.58026
110.020591938476 1.10589
117.054702289176 12.0105
127.049615459891 100.0
243.112132245437 7.28324

>collision 20.0
43.0170171298669 1.6703
43.0562690006406 1.99345
45.0336980102697 4.87174
55.0553402321158 0.75455
56.0536658783865 0.660877
57.0326664672349 0.667774
69.0353044833723 1.36401
71.0510491442143 2.85629
73.0287903265409 2.68372
81.0337567504684 5.65763
82.0285096021925 1.47847
84.0445893522082 1.74903
99.0438390180393 7.17115
109.039627063318 0.990535
110.022238717456 5.31316
113.06010970777 0.861227
117.054547791164 2.78799
127.049690562977 100.0
226.084169679198 0.646421
228.089331284439 0.707768
243.114325399864 3.0912

>collision 40.0
28.0150685103333 2.49727
41.0396905411613 15.4058
42.0323222449123 4.43054
43.0186196883103 5.98454
43.0539855064086 42.0184
45.0337400164715 26.5421
53.038817527051 11.7111
54.0335157283235 51.419
55.0159506251599 10.9599
56.0499575067846 17.9398
57.0340835341088 4.13135
69.0354759321561 14.9142
73.0274560791535 21.9482
77.0350760586547 5.36664
81.0413946163369 12.076
82.028476553496 21.5912
84.0453630860219 34.7087
91.0518924407194 4.34376
105.05360698858 2.35439
107.060042731871 3.35968
109.039971731455 24.6413
110.022342548199 100.0
127.049833712039 87.4686
157.072566405686 3.39892
185.067067985116 4.17121
186.051243596348 2.93711
199.080852247046 3.46168
211.070204911652 6.03199
225.102738067456 7.19271
226.107730195145 2.68691
227.081189162617 7.71569
228.088330413282 7.70183

