>compound Cytidine
>formula C9H13N3O5
>parentmass 244.092430302032
>charge 1

>ms1peaks
112.051179835214 59.1692
112.147432990416 1.99736
112.179230627316 0.813213
244.092430302032 100.0
244.234009667588 4.05003
244.282042667718 1.58485
244.385718330503 0.611801
244.425591317712 0.661427

>collision 10.0
95.0246769019314 0.501245
112.050222542936 100.0
112.14720113063 4.62155
112.178772254495 1.92885
112.250652255177 0.600917
112.275708332439 0.707723
244.093416454101 0.868913

>collision 20.0
57.0340230898785 0.562056
69.0438089106834 0.631154
94.0396512657854 0.611246
95.0238563108667 1.56683
112.049223900109 100.0
112.14689718844 4.46408
112.176964952695 1.71484
112.206622111543 0.770878
112.25089182065 0.51463
112.274766124501 0.67517

>collision 40.0
41.0394846677709 0.680603
42.0348672419852 1.89776
43.0193909810382 1.29115
45.0346884379323 1.20929
52.0193353887567 1.25882
55.0189270652016 1.34015
57.0345420424676 2.29665
61.0294377478032 0.504282
67.0299480321603 2.22366
68.0140457494737 2.18852
69.0453316336248 12.065
71.0172104637508 1.23389
94.0407386203527 11.5902
95.0248926824384 35.0356
95.1134988675313 0.753181
112.051434033907 100.0
112.14723863976 2.91624
112.17922694659 1.12314

