>compound Octopine
>formula C9H18N4O4
>parentmass 247.142496893918
>charge 1

>ms1peaks
60.0587723879482 0.781333
142.088916477257 1.05229
247.145433937364 100.0

>collision 10.0
60.0569228993736 7.80194
70.0659972619687 2.35824
90.9779204066415 1.30973
98.0971145903079 1.24993
112.088951787256 1.46972
113.072389777806 1.17844
114.101130177494 1.49708
116.07184100663 0.660952
130.098090157767 4.97545
141.102015200455 0.830201
142.087052767546 8.39053
144.102391888855 1.32434
158.094590709368 2.738
174.112361810296 1.57549
175.120266705531 5.37224
185.09261475779 0.674802
188.093160450747 5.30725
229.132111860292 1.34926
230.114954714177 2.85138
247.142496893918 100.0

>collision 20.0
41.0398651248978 0.61184
43.0326373400171 0.884154
43.0559934675304 0.635852
44.0511003983214 2.81305
55.0538497803781 0.657389
56.0541057026816 1.00796
59.0498476340764 1.24262
60.0576955671008 43.6036
60.1270389479233 0.953392
70.0672253271387 36.8382
70.1415898578664 0.575223
71.0504407917243 4.66821
72.0838367341601 6.16711
86.0732649592517 0.592395
87.081362708021 10.7516
88.0773974200495 1.00987
90.978554093739 3.34209
96.0818123214113 1.47068
97.0799069192759 2.87131
98.0988840921239 24.1609
112.089709143107 5.78134
113.074838018206 2.16812
114.099998417754 11.0583
116.073346226318 8.68516
125.003010832443 0.545965
125.107449171192 0.6087
130.099956708297 45.8413
130.198955262631 0.849385
131.132972392127 1.13647
141.104766894041 5.82043
142.088751842277 100.0
142.193406998931 1.5173
142.231369358751 0.701221
142.265718212969 0.540591
142.385383365296 0.634394
144.105780894458 4.82228
157.144729372946 1.24307
158.095026842784 9.19734
167.130555716461 0.631429
174.1147918298 3.50922
175.121956980493 16.6563
185.097236747139 2.45076
186.12977543634 0.504843
187.112457675192 0.788478
188.095213224642 11.9427
201.1414422038 0.539262
212.107774275801 1.07783
230.118365726889 4.55208
247.145122829948 20.013

>collision 40.0
30.0326671246796 0.780953
41.0405968312737 4.04049
42.0351014369829 0.600168
43.0298201915997 3.49391
43.0549375525353 13.8742
44.0502611354421 13.0118
45.0335578765249 1.50529
55.030119393574 3.1959
55.0554758451834 4.56331
56.0506471418797 8.13402
59.0490125034536 16.1488
60.0567073584549 31.1352
60.1268189316515 0.616825
68.0512339919926 0.69163
69.0677487379096 6.1707
70.0660842519165 100.0
70.1404572495259 1.71044
70.1662047623317 0.639195
70.3114233158032 0.505329
71.0499962209149 31.5782
71.1251089479099 0.72115
72.0811791768958 9.40759
73.0639849061234 2.02635
79.0529700613925 0.578797
82.0644746642207 0.644965
85.0753020244332 0.988945
87.0798393389848 3.26607
96.0811375751787 14.331
97.0839793973597 3.51222
98.0588337913017 0.68893
98.0967381383246 24.62
99.046258309664 0.638952
109.976078233214 0.504192
112.085219634332 1.19308
114.093819810307 16.8207
116.072747948126 0.761934
125.000866195933 0.539805
130.098060584422 7.23166
142.086875538959 17.7538

