>compound &#38;gamma;-Glu-Cys
>formula C8H14N2O5S
>parentmass 251.070008444722
>charge 1

>ms1peaks
84.0449231988698 0.595341
122.027056225593 4.69597
130.050018826791 1.12426
234.043391710984 0.621298
251.069910250519 100.0
251.214361312849 0.675344

>collision 10.0
58.9955416680808 0.897822
76.0221130840476 3.1125
84.0447789049972 14.9705
86.990141984509 0.906317
104.999711130623 2.71278
122.026792167656 100.0
122.125626640035 0.554372
130.049736189956 37.4926
142.031978096219 4.65527
188.037450714636 13.007
205.063703484069 1.75669
216.031232298835 0.856514
233.058759560091 2.21037
234.043269029953 19.9823
251.070008444722 67.3004

>collision 20.0
41.0388773598121 1.35028
56.0503402459308 2.53643
58.9961548553784 2.5934
76.0218587359928 13.0862
80.0483194296726 0.507965
84.0447643544148 100.0
84.1289070003237 0.678833
85.0304067580374 0.657622
86.9900106663737 4.29317
102.054496567452 3.40641
105.000099623201 6.67733
114.038013362084 0.880761
122.026916421697 25.7428
130.04938542542 37.6166
142.032079289797 15.2108
170.026910712795 1.37616
188.037722072016 10.5334
234.042587139822 4.27648
251.067605484343 0.808403

>collision 40.0
41.0394881371912 17.9266
56.0499336063794 26.8721
57.0340673064737 0.516872
58.9954785415994 19.3312
76.0219225513206 13.7356
80.0494167595192 2.62355
84.0447996100577 100.0
84.1294375223327 0.657451
85.028580875375 1.83032
86.9908605063481 3.12041
98.0055716958489 1.50745
102.05386596822 0.820171
105.001566578856 2.1087
114.035738501348 0.706814
130.0495173979 1.38083
142.030778908874 2.03963

