>compound Muramic acid
>formula C9H17NO7
>parentmass 252.108098055504
>charge 1

>ms1peaks
84.0466916206223 0.678709
144.064737375955 1.06487
216.03940570818 0.53509
216.085264544397 1.90841
234.09616819782 9.72602
252.108052502223 100.0

>collision 10.0
43.0185677590919 1.60254
44.0489169734852 1.45801
61.0283435423025 0.684141
68.0493393218896 4.05603
70.0657593301214 1.88278
72.0449243869827 4.6529
73.0306531221737 0.748766
80.047711238627 3.16535
82.0633519531554 1.19688
84.0437986052884 12.2537
96.0438945989675 9.46488
97.0274543741074 1.60691
98.060075255997 6.20247
99.0397753619371 0.938125
100.039427383416 1.2118
114.05710002683 2.52849
116.069276454984 2.03087
116.962897240547 0.844057
117.054389357031 0.657579
126.055281616879 28.8164
127.041026436544 1.00344
144.064740738393 46.7727
144.531272401743 0.767487
156.067698097921 0.708857
157.048692933469 2.39359
169.049569434864 0.901384
170.081503948131 0.877432
171.065174183713 0.677248
199.058730621608 1.38526
216.087135745568 67.8188
217.061039846161 0.848684
234.096689472301 100.0
234.331208711348 0.800543
234.811714984183 0.842358
235.116152579365 0.88352
237.174550167215 0.619524
252.108098055504 75.7753
252.589541726103 0.577537
252.941586858284 0.582453

>collision 20.0
41.0387942711973 2.12343
42.0335738925727 2.23504
43.0173231861961 9.91287
43.0551736190932 1.65872
44.0493255293171 6.71786
53.0378488127231 1.80076
54.0375072423517 2.21211
55.0530203048409 1.97005
56.0497973678227 9.28817
57.055941776905 0.97216
58.0300425950522 1.21816
60.0462303146015 3.5938
68.0493558734654 10.329
69.0333239832748 7.57708
70.0287867133662 0.805632
70.0659197259454 2.73428
71.0133486971855 1.22069
72.045050151324 45.4985
73.0290749087548 6.96123
73.0586671114584 0.917985
80.0487584792253 4.89982
81.033600336476 4.82454
83.0101576860936 1.00396
83.0501477303145 1.74768
84.044832009273 30.7777
85.0288683087378 4.2198
86.058315971485 3.83131
95.9895710695408 1.68879
96.0443912924268 27.0132
97.0281482488872 9.81611
98.0604626589832 33.1301
99.0418719879167 3.2804
100.039695724767 1.47663
101.016399069809 1.01812
102.054288648429 1.25871
108.045466123011 1.16535
109.02488139266 0.842309
112.038242762529 1.08726
114.055110600297 9.97002
116.071129827896 2.83353
125.937024986595 1.02166
126.05449137565 100.0
127.039854164915 2.17658
128.072029089236 0.971004
144.064364784466 34.1947
157.054745614826 1.1574
168.065663936225 0.957726
170.07436937197 1.88491
186.076643902678 9.10846
188.091620221431 2.37562
216.085817893627 28.0075
234.096790613066 6.43048

>collision 40.0
41.0390957295839 26.2437
42.0337587839578 9.4681
43.0180934349366 46.2669
44.0492498812601 77.6297
45.0325219749032 11.9129
46.0292375601632 5.71948
53.0388790966265 20.9389
54.0334292163619 6.15076
55.0186656624472 11.9786
55.055148116332 9.1867
56.0502494932527 55.6042
57.0348666337509 5.56364
58.0653722341441 7.27105
60.0457650921491 18.6755
68.0502616655058 47.5361
69.033376855475 34.9292
69.058277458156 5.40454
70.027579432591 2.47576
70.0652650784416 38.9851
71.0103011954873 2.78412
72.0446272003924 100.0
73.0330366468271 3.59584
78.0319659499702 7.47706
80.0497457236238 31.9363
81.0353106239133 12.7542
82.0284156765227 4.19113
83.0125869455781 3.79492
84.0439767320823 45.099
84.076643111304 3.31592
85.0285526554253 10.1941
86.0596889785684 7.56397
95.0479509436523 2.5211
96.0441074679366 24.2809
97.028117475232 17.4029
98.0603195564232 35.6943
99.0430379591707 6.72283
100.038765043701 2.83137
106.069445689391 2.88878
109.025619691093 6.13075
112.039947612478 7.1402
114.052980425997 8.17211
115.038886384409 3.62921
126.05285206518 9.66148
127.034586532348 4.39155

