>compound Deoxyadenosine
>formula C10H13N5O3
>parentmass 252.108281747726
>charge 1

>ms1peaks
136.062177192839 16.2627
252.108100480922 100.0
252.2527143789 4.41803
252.301639907957 1.70253
252.407657165302 0.68258
252.446899139044 0.719169
252.494672418663 0.511391

>collision 10.0
99.0439519564438 1.07803
117.054122497189 3.95063
136.060551819178 100.0
136.167446653637 4.10702
136.200740149609 1.5719
136.233766850016 0.705255
136.280902404895 0.519319
136.308812916202 0.617883
252.108281747726 18.5889

>collision 20.0
43.0191811275295 1.00887
43.0552006436641 1.46184
45.0348719101788 1.50328
69.0343620278372 0.778193
71.0499826225444 1.55161
73.0290865821364 2.56271
81.0339156560647 0.685065
99.0446939403007 4.35281
117.055189746687 5.17947
119.035358261654 0.916893
136.061741959148 100.0
136.167878427967 3.53957
136.203298229111 1.43894
136.309977944911 0.563836

>collision 40.0
41.0392982658127 3.99374
43.0188217014995 2.23901
43.055040159113 9.43274
45.0344529601962 11.0356
53.0398441511864 1.80742
55.0277605685063 0.564268
57.0341335461345 1.21995
65.0131024261485 0.812469
67.029929471207 1.21185
69.0340810696103 3.68953
71.0494766255482 2.08526
73.0286374534036 5.54496
81.0338407254059 1.04208
82.0404384817665 0.579107
92.0242883155015 2.47903
94.04012979331 5.85667
99.0442925295833 0.908095
109.051036475745 2.15844
119.034925331497 35.6371
119.135003269988 0.596223
136.061536100315 100.0
136.167198169239 2.21861
136.200086575317 0.900977
136.231321053574 0.510772

