>compound Deoxyinosine
>formula C10H12N4O4
>parentmass 253.091614495307
>charge 1

>ms1peaks
59.1418426289213 1.89039
119.033627487089 2.33335
137.044936743636 100.0
137.152724793102 1.89643
137.18349164439 1.14737
137.323370244902 1.45795
137.429302527252 1.18725
137.756978462351 1.1376
252.962530161907 1.54305
253.091614495307 17.9982

>collision 10.0
89.6755907145919 0.847891
119.033799169023 1.17204
121.054511093329 0.874011
137.045725686083 100.0
137.12531099537 1.92969
137.145670772359 1.5404
137.209279034096 0.944333
137.408069905046 0.866835
137.442144878455 1.46924
137.47583041601 0.927935
139.21827632977 0.984685

>collision 20.0
56.0491816933832 2.34679
57.0348575480916 1.59498
69.0338016131108 1.11124
89.1185467874634 2.46817
99.041554580278 2.447
117.054370332704 3.89157
136.061340082847 1.2226
137.045589678776 100.0
137.109275745273 3.04147
137.156314622502 1.12554
137.230261707622 1.42359
137.427627536403 1.51678
164.128062796702 2.53097
202.72417403866 1.10224
207.321657815813 1.18258

>collision 40.0
55.0310070256054 5.24409
69.036291531767 2.85664
82.0339893067696 5.05627
94.0395571593031 11.1907
110.036412696219 15.5956
117.953849731885 2.31998
119.029061295881 10.5284
121.049899636456 2.26437
137.045920901812 100.0
137.125686793794 1.99425
186.922330019675 2.25943

