>compound 7,8-Dihydroneopterin
>formula C9H13N5O4
>parentmass 256.103695388989
>charge 1

>ms1peaks
87.5025441542015 0.587052
165.065188458453 0.860737
196.082325813287 0.550011
238.093077053626 4.13838
255.095951273869 3.85175
256.103425549919 100.0

>collision 10.0
30.4617377786568 0.856503
109.048563131058 0.680552
118.042606984302 0.941198
123.031073096004 1.08675
133.965638398061 0.56984
142.073636781932 1.49137
154.06921119225 0.758645
155.077445438178 0.571289
164.056688175102 1.02574
165.062153815475 12.7043
166.074443722616 4.9765
177.946990294533 3.99992
179.080641414847 1.95477
180.088688327488 0.895463
181.058603416514 0.937603
182.061468994697 1.23386
192.084098211228 3.4723
195.068157026531 1.82326
196.082567636383 10.7288
208.08077841566 25.6692
214.870728483166 0.600942
220.083194003927 6.35418
238.092907480807 43.2546
238.203614435784 0.624798
246.398065824784 0.6009
255.095655007009 5.84823
256.103695388989 100.0
256.485291759966 0.955217
256.609000549784 0.641456

>collision 20.0
44.048809316229 1.73796
55.9420957706794 0.601517
60.0525490620349 0.735601
68.0512547498582 0.856211
82.0392764864998 0.5626
84.0431858669822 1.39715
86.0347330271863 1.4579
95.0489762571948 0.559476
97.050166200327 1.30343
108.05439480618 0.767093
112.061809875511 1.55461
113.038545017869 0.768907
120.043601529711 2.30488
121.044296881972 2.35248
125.041514947494 1.10677
126.064891960281 0.872726
127.063766461152 0.954482
132.047626977484 0.545932
133.957059867827 3.87335
136.070061444434 0.564769
138.057591734541 0.639823
139.530113885234 0.765521
140.054499213378 3.8477
141.06047271728 1.54188
142.070087184238 1.84805
149.036122858481 1.96517
151.061546560475 0.900363
152.054225001493 3.55878
153.063658736801 0.635778
154.070554782795 2.60961
155.077602362062 1.27107
156.081949783701 1.079
163.057681873539 2.88842
164.055684470471 5.09664
165.063854864761 100.0
166.070938904666 21.0702
167.755638241546 0.745525
168.086658093098 11.8175
169.064501069102 0.507128
175.056366068255 0.666499
178.071667704802 6.64135
179.079524316297 31.6413
180.085731229912 4.56847
181.054653442822 2.15643
182.064590907189 1.16299
190.071811057424 1.40202
191.072936360426 1.94051
192.087273999206 23.003
192.588672549911 0.68487
193.07034664304 0.632991
195.075282408692 10.1769
196.084025999218 11.5411
207.073307688552 0.693834
208.082100562747 50.7666
208.172644931439 0.52284
210.09603833359 0.633671
220.081337013863 11.6402
238.09244299309 19.8558
256.098211458175 6.08559

>collision 40.0
41.0382757033163 1.27787
42.0325994687683 1.95138
43.0287526626436 7.18506
44.047051326612 0.957738
45.0412695132876 1.30048
51.0217435691652 0.585154
53.0281521940361 0.503556
54.0354986787237 0.789911
55.026368172856 2.91121
56.0496607620785 5.63487
57.0419800532225 2.05186
60.0580754887583 3.67548
61.0271242613176 1.50562
62.017590618082 0.625791
66.0297848095766 2.65579
67.030400287017 0.908004
68.0446316883383 5.6275
69.0096926634573 1.84011
69.0449038210801 2.57671
70.0376416917296 2.03072
71.0562493086955 0.80293
78.0292690628744 0.983958
79.0272188332725 1.45048
80.0468790454081 1.20085
81.0441209030628 5.37849
82.051436667765 2.88676
83.0588253560412 5.27438
84.0443180866678 2.23917
85.0462320629552 2.94961
86.0347701844347 11.7601
92.0363701701488 0.827106
93.037849978146 5.4168
94.0379861628886 4.98122
95.0484834554612 18.9985
96.0549380285216 14.041
96.696804384518 0.548723
97.0553206182615 2.62845
98.0589259743506 17.1314
99.052718307677 0.981558
105.039020345689 3.49613
106.038841241421 1.41412
107.029904552879 4.23432
108.051130615783 5.51141
109.056957514047 10.3234
110.044963458877 5.48928
111.060345194664 4.57939
112.059921110426 4.31004
113.044943172116 4.34003
118.036439246638 0.860939
119.034092004042 1.71786
120.043314860857 41.0627
122.061002043846 4.85472
123.041478397146 5.93611
124.050040287842 16.8128
125.049906708312 3.17316
126.054758985787 9.56447
127.061097375931 2.40348
128.946837146757 0.927051
130.036741956814 0.866468
132.049570918851 1.39327
133.047955673487 8.03836
134.057263773725 13.0589
135.063340045685 8.09589
136.059590304521 3.76255
137.060805175838 1.47945
138.066615309967 9.35306
139.059757447584 2.75449
140.056135653264 2.35106
141.063060349228 1.27738
145.049295027051 0.748749
146.039672026267 1.18993
147.054534999688 10.4315
148.043485771774 5.47344
149.044501342215 15.1058
150.072322570154 3.16039
151.075764933521 2.74969
152.055339550435 20.1019
153.06147664124 0.75981
154.070806922789 3.38385
157.048628083187 0.833631
159.063587509906 0.609839
160.062633918323 0.775188
161.054447643208 1.69092
162.053786515472 3.91458
163.058637162609 5.43309
164.056249230414 23.6227
165.063894502142 100.0
165.14706258484 0.87737
166.071750617903 22.9726
168.088527194952 2.44377
173.04310724452 2.25596
175.056633414942 1.38215
177.064726556501 1.11438
178.072317088155 15.4315
179.079908978691 32.412
180.087043649073 2.17295
181.058903496399 0.771778
190.073747517194 1.46217
191.077900978247 2.04389
192.08795355954 1.03767
193.063628297769 0.503341
194.064557106548 0.831856
195.073965539452 10.0535
202.073240405128 0.670368
206.063441481828 1.12127
207.073843131856 1.92067
208.078752216862 1.12144

