>compound D-Glucosamine 6-phosphate
>formula C6H14NO8P
>parentmass 260.051644716974
>charge 1

>ms1peaks
108.04307892931 1.73123
126.053548943601 20.4806
126.09953835227 0.867993
126.157345090804 0.51985
144.066460809774 3.58083
206.0210973753 8.32005
219.021270230771 2.50513
224.030489571301 11.4805
224.079670453282 0.812569
242.041764458724 19.3888
242.073148420021 2.72514
242.11174526745 0.744462
242.147628282417 0.786509
248.971390336623 0.786327
259.075064725766 0.790969
259.151149335489 0.676647
259.282040245844 0.741947
260.051644716974 100.0
260.159507474645 4.80924
260.202292462444 1.78472
260.240763325704 0.875318
260.288252289028 0.707759
260.445522061126 0.711269
260.471012448813 0.611806
260.556655990741 0.535908
260.769370071905 0.657118

>collision 10.0
56.0504016907405 1.19545
69.0352698542476 0.95623
72.0443709395379 1.41556
84.0451546982674 8.8812
84.0585964628814 1.09681
84.0684807144544 0.805279
98.0594612971376 5.98447
98.0803297152564 0.844862
98.0927469201672 0.527589
98.985619748725 2.69131
108.044912025377 6.24061
108.080531139296 0.593324
109.028741114763 6.5249
126.054362603282 100.0
126.074861512589 6.57996
126.087710121932 5.37075
126.114371524622 2.11927
126.137591247694 1.2618
126.160440461245 1.32176
126.190630404196 0.99337
126.340407285429 0.624477
126.482916013473 0.645223
126.597237664982 0.503339
127.035465196319 0.790071
127.073634949222 0.506869
140.992668428581 1.08502
144.065517886673 15.9242
144.098282435324 1.01234
144.116019733243 0.606476
171.00125614961 1.85761
178.027639354669 0.592089
188.993437734699 1.94286
197.10896660299 0.707053
206.020508051682 35.9933
206.054269401987 3.71543
206.085335898692 0.880525
206.102153460376 0.562729
224.029807832658 14.8421
224.06516256628 1.34201
224.085091171286 0.808903
242.042592333269 5.97235
242.079959658122 0.720139
260.051788717194 4.47594
260.162556155864 3.34505
260.187327624199 0.930673

>collision 20.0
53.0380830024467 2.31182
55.052617280971 0.772181
56.0509924577979 4.72394
58.0303723984539 2.17071
60.0410906388005 1.28865
68.0529049560647 1.29067
69.0345668299866 2.16591
70.0661412563733 3.02046
70.0863041758698 0.920602
71.0496984019521 0.998205
72.0444649039869 8.69315
72.0639085288616 0.795105
72.0779271054217 1.26123
78.0376065872212 0.675015
80.0504956505975 13.6347
80.0705691094124 1.72775
81.0331877414904 6.30168
81.0453255111422 0.954195
81.0693545065828 0.650321
82.029232844688 0.965762
84.008644362436 1.09446
84.0447710269745 47.1833
84.0620035309968 4.86517
84.0895418886276 1.73627
84.1085955101579 0.610541
84.1291031212243 0.726981
85.028979949742 2.27508
88.112497417525 0.862269
90.096565414575 0.610939
96.0470317114211 1.91628
97.028046080079 1.39146
97.0477541722452 1.05219
98.0593547936607 39.5086
98.0819154673105 3.12251
98.1059531366974 1.23349
98.1328618663792 0.618067
98.1538416241768 0.625089
98.1932795866832 1.09967
98.9844364476742 16.3375
99.0044990395246 1.19786
99.0213266555197 0.766169
99.0463601002487 0.976677
100.037483294547 1.09702
103.038037903985 0.862912
108.043884087546 66.9093
108.066089050638 5.12923
108.094889957091 1.63326
108.116259386309 1.004
108.140488491678 1.13437
108.167631096116 0.528059
108.436463801315 0.758822
109.027702664748 16.5118
109.054034583104 1.12073
109.542893852272 0.659249
114.054065002464 2.59533
115.038664548747 0.823981
116.068327470653 1.0811
118.090153202734 0.657963
122.982188542313 1.59244
126.054547972964 100.0
126.088538812713 5.68606
126.132786352696 1.22455
126.159026517088 1.50224
126.230635707946 0.622035
126.260504001019 0.634292
126.300984944492 0.55352
126.501309345922 0.9234
126.632458706924 0.725033
127.034343461553 3.39617
136.996236531734 0.932409
140.992843762556 1.23269
141.014434062887 0.55763
144.064788999545 18.3121
144.100142721206 1.37715
144.15322045566 0.529761
154.611747669329 2.19643
160.010302974931 0.595662
171.003190697605 0.759848
178.021009255782 1.08598
188.008384725153 0.767033
203.118029399668 0.630844
206.021195746618 10.806
206.054817986112 1.4506
206.086902157237 0.831381
224.029298881897 1.09536
234.929570538865 1.15863
260.164773592047 1.77094

>collision 40.0
53.0383419699212 70.8968
53.0536887669073 3.19689
53.0766401818827 2.14798
53.8762974343006 2.39201
54.0332506988512 4.18919
55.0185059185316 11.6795
55.0547277414161 28.6738
55.0707765615539 3.40547
55.2662091414102 2.68521
56.0511381633669 36.7061
56.071215252959 2.78705
57.033272245651 17.4591
57.0503729897599 3.64105
57.0604581098474 2.67304
57.07636134597 4.27888
58.0292893882591 10.6915
60.0447800340628 13.6736
62.0167770910726 3.8967
62.9645983626953 3.06081
65.0246375640165 2.28454
65.0412175376172 5.64116
67.0187651345298 4.67399
68.0492141185831 16.5109
69.0336744234246 24.2191
69.0590863692509 3.30277
70.0650273540521 35.2654
70.0869114488301 2.42657
72.0453163243964 14.0821
74.0972338840198 4.01329
78.0303505609183 2.89431
79.0184626994793 3.89006
80.0498786151406 100.0
80.0751869449788 4.68519
80.095980033694 3.03251
80.1356496762278 2.34466
80.9724799542991 6.77196
80.9910534473955 2.26736
81.0332591373144 61.1123
81.0613860892833 3.24615
82.0295231317587 4.49962
83.0136218583133 2.79474
83.033693892518 13.5675
84.0076245973776 4.09795
84.045181605363 89.8047
84.0745465028605 2.61329
84.0927984892717 3.27156
85.0322066292849 3.65905
86.9756197778212 2.19729
87.0398011100261 2.15384
88.037841839405 3.76488
88.1094610397076 2.67304
96.0423985275188 2.20503
97.0530820757658 19.084
98.0602132629264 69.1008
98.0871282239522 6.87732
98.9845144818101 73.0126
99.0068540791971 7.60879
99.041233624833 5.78894
99.1444447268262 2.41937
108.043312894175 39.2553
108.065493688616 3.45818
108.530388240011 2.86997
109.028100562243 15.4548
126.050790326418 11.3809
144.035449972448 3.68428
144.060539741523 7.50322
159.065792570269 3.84711
186.109307540595 4.14564
188.992343234411 3.19917

