>compound Deoxyguanosine
>formula C10H13N5O4
>parentmass 268.103051793045
>charge 1

>ms1peaks
110.025453963298 0.556893
117.052176303812 0.808912
134.044074176427 0.512563
135.025516897492 1.30373
152.056028841907 100.0
152.168364809363 1.54223
152.201757109801 0.613964
152.31679048817 0.917157
152.53339332957 0.517953
152.785196818963 0.512974
268.103051793045 63.862
268.20656858799 1.15107
268.254782061192 1.13873
268.410325826892 0.542599

>collision 10.0
73.0271975893363 0.600181
99.0437080721377 0.884127
117.053521058557 2.59865
135.02905728184 1.13681
152.055768833855 100.0
152.168715124803 1.43074
152.201003552674 0.871807
152.315673485346 0.549302

>collision 20.0
69.0333013438993 0.788854
73.0278573225331 1.28486
99.0448193444332 1.68399
110.034126187291 1.35489
117.054398527166 3.18083
135.029383501546 5.89432
152.055775651967 100.0
152.168565492911 1.69588
152.200615269954 0.858163
152.260387873463 0.563999
152.406863778168 0.556662
152.482354496568 0.502949

>collision 40.0
53.0370913458108 1.45135
55.0286038967441 2.49676
57.0360323664966 1.56107
68.025753364959 0.728953
69.0339695761736 3.28235
71.05258547616 0.915124
73.0278445015339 2.10465
80.0239475504327 0.864863
81.033921266792 1.07189
82.039760929424 2.95315
99.0448396280255 1.31711
107.034493875352 2.31956
109.0508297959 3.60716
110.034273265591 36.0988
110.129975911127 0.624612
134.044663219142 1.67312
135.029373007972 100.0
135.109150767633 1.73669
135.135189944669 1.7183
135.166430165996 0.7925
135.217332511414 0.631864
135.364463725255 0.670021
152.056130842243 55.8447
152.169358944273 1.03175
152.197246200482 0.554537

