>compound Genistein
>formula C15H10O5
>parentmass 271.0611768178
>charge 1

>ms1peaks
271.060048463335 100.0
271.208820373584 1.62408
271.255935928737 0.810031
271.329338972475 0.511573
271.512622361275 0.507252

>collision 10.0
215.072215327967 0.504932
271.0611768178 100.0
271.207049349031 1.75805
271.25678963541 0.812458
271.307296768971 0.582784
271.411151902693 0.527782

>collision 20.0
91.0542781282519 0.512536
145.027959782637 0.940235
149.021832271406 1.65128
153.016595944104 3.4983
159.044633216065 0.605376
215.068557396429 4.29918
243.063247815944 3.16584
253.04849293173 1.54566
271.058560214424 100.0
271.207412143366 1.64422
271.255490631317 0.782035

>collision 40.0
39.0245447468038 1.79741
41.0407826542249 1.29242
43.0183184707653 3.9341
53.0392067471401 0.868006
55.0187553068072 3.67797
65.0392944485612 20.111
67.018785763328 10.2043
68.9976293068559 19.1472
69.033404702677 6.87042
71.0144098572798 0.590953
77.0389987488359 2.79768
79.0166397414395 1.13549
79.0557407669048 1.14513
81.0343732349749 2.46015
83.0129952043045 0.695244
89.0395368514022 5.94443
91.0548044199627 100.0
91.1192280561791 1.47849
91.1428641346724 1.45928
91.1698265542044 0.913331
91.2279045514904 0.506589
91.5854867028033 0.655564
93.03382864642 2.00558
95.0150994827502 3.05834
95.0445503715174 0.679712
97.0307056914313 1.39039
103.053415196008 3.18151
105.03390290353 2.62336
105.066051823172 1.10596
106.039938412777 1.14302
107.048069304528 11.2904
108.018029565051 0.609588
108.058843634325 0.502223
109.026953712038 2.39437
111.009285975211 2.6194
115.054498743839 12.2358
116.064488434368 1.43745
117.071814253771 3.56893
119.049768911822 15.4757
121.028650980496 13.0157
125.025608135624 0.970064
127.054306748176 3.89044
128.062705951234 2.28353
129.070534876889 3.67443
131.048286241733 9.0889
131.082685294666 3.02338
132.057638790309 0.525034
133.050186309535 0.811575
135.044968466057 5.3698
137.022943689348 4.42648
139.052647254512 0.58399
141.069258933449 25.9121
143.047482617078 1.0405
144.055509327148 3.37592
145.034137156217 8.95696
147.053875958057 3.97744
149.023806253757 15.7543
150.031688462471 3.35045
151.052989651404 1.83322
152.061977557232 3.07176
153.01848869765 73.2597
153.132898474905 0.790675
153.161534631601 0.644116
153.404373455109 0.501399
155.049173473733 4.3179
157.065737977965 1.8021
159.04363322453 4.95809
159.078634552919 3.71155
160.047609578049 0.828612
163.038020257359 1.59263
165.018562184151 5.98069
168.057252295644 2.64848
169.065033025664 24.9612
173.05950796309 2.12619
175.074003377117 2.15726
178.028280879881 0.670637
179.045217489033 0.508685
181.061177528665 0.551262
183.045441236103 2.80661
185.059579291015 2.2718
186.063618294372 1.07233
187.070471456118 2.84108
191.03381639955 1.49041
197.061063322661 22.8488
198.067875848252 1.03534
200.046753935899 6.22989
201.05417612532 2.98438
203.032626781539 1.05333
211.036309945459 1.83414
213.053978188861 4.09789
214.067882856744 0.566099
215.070527732989 24.927
215.16646837216 0.515356
224.049273516001 0.635133
225.054547798615 3.21429
226.062218652098 0.93692
228.040445732389 1.59588
229.054249762243 0.569099
241.051314902376 1.02567
242.058066800434 2.23745
243.065319223274 12.0112
253.049145276032 8.43028
271.059799301142 8.046

