>compound Benazepril
>formula C24H28N2O5
>parentmass 425.207128911654
>charge 1

>ms1peaks
190.086277906376 0.77489
351.169897212685 3.63
425.207128911654 100.0
425.383048094903 6.01768
425.473715739951 2.693
425.639949757515 1.61984
425.703626175658 1.24835
425.787011370093 1.15838
425.836315362496 1.15066
425.890997368269 1.0745
426.003236556152 0.944626

>collision 10.0
190.0849421569 4.88027
351.165979947342 28.0382
351.333340459223 1.2597
351.399616858227 0.595167
425.202983827786 100.0
425.384471460306 5.94954
425.481408167072 2.69713
425.639252885445 1.62421
425.711523141774 1.09718
425.789829315263 1.04553
425.836700653612 1.06497
425.88993985063 0.969527
425.991884143801 0.846527
426.078300988416 0.75713
426.205553320371 0.981367

>collision 20.0
91.0555100006108 1.18284
117.070902569228 2.12461
118.066254222556 1.88163
130.066280476543 0.529258
131.073865277244 0.624344
144.08132305979 0.728967
146.097305665592 0.788689
164.071238956056 1.75886
190.086000732263 26.6816
190.210084338022 1.15534
235.107846955876 1.4194
351.169874914264 100.0
351.33082423087 5.41386
351.410876384296 2.43143
351.564970933385 1.31875
351.622619862472 0.990779
351.660390380444 0.924234
351.700741514786 0.893667
351.784565900752 0.824075
351.876664792592 0.734131
351.964576857123 0.653838
352.066930024483 0.546704
352.174331037958 0.904483
425.206377346056 45.7662
425.385110907405 2.23667
425.462722287642 0.967548

>collision 40.0
56.0509278576696 0.548493
65.03996324258 0.641037
91.0554372380026 25.676
91.1429256097539 0.933674
115.055311732293 0.694231
117.071092543819 15.7786
118.065755671878 43.4286
118.165233751172 1.85366
118.196968276706 0.787113
120.081925162646 1.41919
130.066191432459 10.6088
131.07412896584 15.4467
132.081525093789 3.21791
133.089241911251 0.621724
134.09718029542 1.06455
136.076187121056 0.765568
144.081798087505 16.6918
146.097298392008 8.83046
162.092051164676 8.17818
164.071447397434 14.3217
172.089657646782 1.20487
176.071400456577 0.628624
188.071504305983 1.09168
190.086114514658 100.0
190.20934308494 5.12406
190.257595440053 2.23204
190.344794218356 0.833839
190.378573050089 1.01733
190.427258830872 0.588961
190.479401124682 0.54306
190.512118910995 0.554441
190.550591068208 0.510006
235.107236480707 1.03961
247.107624595642 1.06627
351.169786088275 26.5209
351.332371477845 0.881521

