>compound Pelargonidin
>formula C15H10O5
>parentmass 271.060847445271
>charge 1

>ms1peaks
271.060842921903 100.0
271.208231776217 1.53712

>collision 10.0
271.060847445271 100.0
271.208912091245 1.69431

>collision 20.0
121.028609581723 1.44731
197.059853132562 0.54198
271.060706420935 100.0
271.207946016511 1.55756
271.257296928517 0.515133

>collision 40.0
39.0240985947859 1.44045
43.0185640807055 2.44488
51.0245963011555 0.77937
53.0012351373956 0.520689
53.0390832554949 1.12739
55.0192733943614 2.46282
65.0393169344646 21.303
68.997791135595 17.46
71.0129187164104 0.636847
77.0399075220916 2.3078
78.0470436174585 0.893829
79.0184017967273 1.99865
79.053756565304 0.75511
81.0342728504734 1.00895
91.0542200597118 3.96608
93.033916383973 34.753
94.0402916447723 0.671984
103.054072234607 1.64731
105.033461117021 2.2422
107.049006837287 9.71079
109.028029357818 0.746584
111.007394455269 0.942655
115.054224837559 13.2815
116.061728433055 0.82939
117.069724195216 5.72394
119.048071428118 1.56573
119.082523723356 0.614705
121.028297035518 100.0
121.126770515844 0.616031
123.044639610255 0.66007
127.053800118159 8.3792
128.06208726671 2.19661
129.069149767258 2.01336
131.049302705669 6.25567
131.081905612916 2.20973
137.023732149202 0.547277
139.053494689135 0.663883
141.069592441467 23.48
143.049369960049 0.921103
144.056636443453 3.41235
145.064936378232 8.36442
147.044073991949 2.9152
147.077053827801 1.41001
149.022674777333 4.44927
150.033122137155 1.84311
151.054841115423 2.94977
152.06200734227 3.64942
153.070178882024 0.993202
155.049875812627 2.96231
157.064372074047 2.40519
159.043712553277 1.84049
159.07871689091 1.38654
160.052111868331 0.629747
165.01877285883 1.38697
168.057193317599 3.2268
169.064189266442 14.0856
170.071468372509 1.22428
172.052789323911 1.01235
173.059745269005 4.80308
177.016579970603 0.998955
179.048157139299 0.698577
180.056904072092 0.578821
181.063496908821 1.80539
183.043557732704 1.3138
184.05087995767 0.528153
185.058632192509 0.906394
186.06649732601 0.725153
187.073625045512 2.0983
196.048812116795 0.565871
197.059427290315 17.1718
198.066372879178 1.89814
200.046026922535 1.92826
201.054856556365 0.894433
213.054818940168 2.87615
214.062590291437 0.96704
215.06976074228 6.43808
225.055928590802 2.77408
226.062480277734 3.78363
242.056962530211 2.72575
243.0655268692 4.18234
253.049801131349 3.04837
271.060426451022 35.4617

