>compound 2-Isopropylmalic acid
>formula C7H12O5
>parentmass 177.07410489399
>charge 1

>ms1peaks
42.033964640748 0.651882
43.0565362414261 1.35582
71.0486538685242 11.0901
107.968772548223 0.75508
113.059812724839 5.51869
122.052991672896 0.875721
131.069881589317 100.0
131.175890865716 0.80849
156.525481043796 1.03619
158.966234609688 0.961769
159.06588508652 13.642
177.009181644903 0.775463
177.07410489399 22.319

>collision 10.0
43.0198438106212 1.25799
43.0543224542071 21.1942
43.2756465373561 0.569795
64.9780528212079 1.0668
71.0490219455628 100.0
71.0927491802695 1.64841
85.0264515981565 0.541323
100.619811139933 0.501409
113.056353273364 5.77914
131.069262817222 34.3253
132.204774153471 0.575221

>collision 20.0
27.0236966745682 1.05042
43.0184592250731 2.25222
43.0547754113796 100.0
43.0933583742554 1.13101
67.0530149169911 1.02531
71.049698060796 42.1835
71.4651472012272 0.664972
95.0480095630223 2.29851
113.059984674233 1.54096
119.529630133907 0.660251
176.11955036323 0.721322

>collision 40.0
41.038654957278 25.4703
43.0176788241508 2.60722
43.0546329347343 100.0
45.0337367089985 2.2199
55.018294692339 1.78015
59.0515056271404 2.05678
65.037055362094 1.87897
71.0471381445362 7.19265
79.0422263782454 1.74892
96.0860323752615 1.06339

