>compound (-)-Naringenin
>formula C15H12O5
>parentmass 273.077320170545
>charge 1

>ms1peaks
153.01811046931 1.78176
273.075323277507 100.0
273.218061744198 1.80962
273.267097287439 0.82467
273.527827421429 0.600595

>collision 10.0
91.0535968941646 0.566101
107.047465740319 0.779267
119.050000929355 0.629733
123.03831633051 0.593166
147.04517711773 8.73373
153.018578580435 13.0385
179.025562233671 0.555206
273.077320170545 100.0
273.222141061542 1.42356
273.318920674125 0.511223
273.423063852065 0.536911
273.547280006079 0.597522
273.605373940296 0.674954

>collision 20.0
68.9991899990907 0.890723
69.0358739962712 1.60159
91.0533960832186 2.53808
107.050500172775 1.48874
111.002898954465 0.74346
119.048828982233 6.0049
121.060141693967 0.562717
123.046194151473 3.82191
147.043487721366 59.0998
147.155217300944 0.928092
152.050181433235 0.836661
153.016834589676 100.0
153.127737009859 1.51589
153.256704754422 0.652009
179.029698135069 0.662102
189.053437991043 0.822544
231.057728589624 1.46468
273.074946785984 44.2053
273.220174769254 0.774787
273.628623152837 0.51699

>collision 40.0
37.2532213870477 1.4112
39.0223160027922 1.59042
41.0400888130544 5.30943
43.0184446848117 9.09427
54.5122248439473 1.15894
55.0187553813114 3.79888
65.0393992686844 7.62742
67.0197978954505 10.5523
67.0580493668494 1.38037
68.9971597460767 21.021
69.0325036906244 15.3333
77.0397431080711 5.78544
79.0130013404868 1.49913
83.0151892811468 4.38067
85.0273061437535 2.18993
91.0554715454243 44.9886
95.0511510676299 11.0853
97.0291529868563 8.51341
107.048040123858 6.48512
115.049744160476 2.92929
119.049676593284 46.0295
121.056773247091 1.26381
123.043159794683 4.90894
125.012923875856 0.935155
139.055623859974 1.10286
147.043146585827 12.2283
153.018632581836 100.0
153.129461979867 1.23967
153.385107405225 1.02507
155.020460008902 0.963657
157.068017100768 1.24868
161.061191418689 2.18453

