>compound Luteolin
>formula C15H10O6
>parentmass 287.05430200984
>charge 1

>ms1peaks
269.241940285052 0.688832
286.202160717925 0.67017
287.054863307414 100.0
287.201995077771 2.05586
287.271959522641 1.1003
287.3275249226 0.624949
287.529875607058 0.570077

>collision 10.0
287.05430200984 100.0
287.251731887613 1.07422
287.306376222525 0.625408
287.361951750357 0.551111
287.407707542 0.626671
287.55002130598 0.523937
287.812457465272 0.574776

>collision 20.0
153.01754730226 1.81855
287.054568961533 100.0
287.207934969299 1.48774
287.281526134334 0.701486
287.333752278607 0.742216
287.413502359943 0.697443
287.481011458287 0.524421
287.675403379735 0.559966

>collision 40.0
39.0235058863239 1.31897
43.0192777448758 9.1674
43.0513290679308 1.0044
53.0395398866698 2.46138
55.0191830909467 0.657592
55.0562637179077 1.30668
57.0360896798479 0.878473
57.0689846407778 1.19453
59.0481236067645 0.696225
63.0260662656421 0.539459
67.0184142979344 17.7524
68.998141069319 24.4266
69.0316958208631 2.96986
69.0706787002462 3.46674
77.0385879860098 3.96439
79.0551763554431 4.14788
81.0322955355137 3.31998
83.0124507868185 1.48483
83.0864573245578 0.886561
85.026914294104 0.932745
86.0926574839141 0.727919
87.0391622863894 2.33238
89.0391910402359 12.2899
89.1295308425746 0.521596
91.0334216448101 0.892377
93.0318858464249 0.58267
97.0256368182327 1.81253
105.03081732315 1.58202
107.048954873915 5.38151
108.092522508653 0.828996
109.027428167468 6.01706
111.009581474098 3.17837
111.044407422941 2.14356
112.984752616492 0.874593
115.054916398864 2.19395
117.033957182693 12.2916
119.955698487329 1.43108
121.098100181051 1.01185
125.025553199591 1.44104
127.052813211498 2.47517
128.06064600718 2.38648
129.071387276682 1.54159
133.026116000631 3.19769
135.043666607523 29.4717
135.512318576014 0.768104
137.023195804141 11.5309
139.055990934682 6.2058
143.015375115125 1.60343
143.046201739801 0.969774
147.038493682061 0.771051
150.04777896523 0.825922
152.064629317815 0.612498
153.018037609787 100.0
153.157496088938 0.840482
153.200287520604 0.538864
153.221088113629 0.528947
153.278903649535 0.824755
153.331069466232 0.56579
153.506024946255 0.516792
153.642868351063 0.524407
153.704561482785 0.551675
153.879348986755 0.535622
157.062507267658 3.2361
159.043732281936 1.01974
161.022237896927 11.083
167.047636213475 2.47523
171.040953243523 2.85187
177.086658483205 0.566734
179.033863704178 3.93266
183.042600338993 0.805642
184.04654843449 0.60972
185.059700968383 4.55595
187.03768556758 0.669024
189.055689115801 1.54402
191.092229163184 0.886091
195.04627447446 2.59178
199.037110013019 1.22124
203.035566032787 0.927282
212.04764477989 2.31205
213.055104807175 6.2042
223.034566526548 1.03461
227.040559543572 0.939514
231.066158086928 0.751865
240.036104013998 0.695518
241.049052676575 12.6601
243.510556796203 0.658328
245.038972515408 1.27771
258.048694283644 2.03994
269.045083131253 3.97521
269.501397349619 0.516833
286.039879568097 1.12091
287.054358045578 71.8026
287.254000495899 0.886827
287.309437187669 0.964548
287.410062909722 0.705016
287.506766529467 0.67232
287.739526342455 0.525169

