>compound Kaempferol
>formula C15H10O6
>parentmass 287.05432018483
>charge 1

>ms1peaks
287.054314970535 100.0
287.248789238823 1.00552
287.309684423931 0.778981
287.546493923148 0.683096
287.716706439466 0.502798
287.82640511904 0.510258
287.944920231681 0.546523

>collision 10.0
153.014010766526 0.951564
287.05432018483 100.0
287.205411503524 1.46117
287.255218432697 0.91362
287.362299801527 0.619435
287.404693490099 0.524974
287.473136967881 0.671819

>collision 20.0
65.0371558564764 0.831225
67.0181435365088 0.537492
111.006371805622 0.960183
121.026158846741 0.989327
121.056707947018 0.530719
133.030389116712 0.559712
147.040457365907 0.50277
153.018187735725 1.80977
165.020106991918 1.64069
213.050903372779 0.739858
231.065045052595 0.731125
241.049341056861 1.26462
258.05104498081 0.670824
287.054251610395 100.0
287.189084908351 1.88638
287.250748521117 1.11172
287.366080928452 0.666265
287.412829732678 0.63375
287.492745433478 0.663312
287.724420492165 0.697158
287.892226100013 0.543812
288.045792304095 0.569942

>collision 40.0
39.0244864368584 2.1726
41.0394860001324 1.83157
43.0186061847023 6.84114
44.0199853357268 1.69096
51.941423092865 2.4089
53.0371593178488 1.22924
55.0179104655511 4.06907
65.0383946069994 13.0498
67.0179261341003 9.27399
67.054932047744 1.10275
68.9983789508522 47.3678
69.0302555022149 8.09538
69.073602550315 1.60395
77.0385251617994 8.30571
77.0703876540897 1.14433
79.0524955369529 7.12321
79.0790552159458 1.25091
81.0344326510803 4.05358
81.0651017673525 1.09839
91.0531899266686 1.85986
93.0326481947903 7.94999
94.0391326346821 1.27358
97.0241487727302 2.30498
105.031411046662 15.7905
106.040153326633 1.62796
107.048249165341 13.5297
108.02088148418 1.02922
109.025390319964 8.30082
109.102048864387 2.33673
111.006898139067 9.1722
113.019023541314 1.29264
115.054057370552 8.2941
119.052976199118 2.29916
121.028148187386 53.9447
126.956379333059 1.52804
127.055303272609 6.60945
129.067528256834 3.05795
131.047490745921 4.26818
133.027994645379 7.07796
135.043287371041 1.30171
136.01745124242 1.62555
137.022719725795 13.2979
141.06678138475 3.37849
143.047093867536 2.69631
145.063621462949 7.34193
147.045463651268 9.47445
149.076248217353 1.49779
153.017956655496 100.0
153.132611138817 2.14208
155.052601205474 1.3727
157.063624256357 14.8481
161.056116042853 4.33009
165.019717445458 17.1322
165.083025146332 1.2107
166.029607054988 1.08093
167.047315494507 2.01963
168.059257352786 2.0519
169.055341607353 2.22341
171.045082934808 9.67165
174.060586937495 2.27121
179.504772492296 1.18349
184.04650237729 1.15437
185.05820858975 8.93854
189.050638557992 2.90398
197.053071000782 1.51584
199.035687185688 1.1054
203.050376242916 1.5362
213.053485387506 20.802
214.055133000102 1.53152
216.039469215538 2.02922
219.066026990079 2.62053
223.032561895621 2.87012
229.047060929067 3.64997
231.058736425122 3.35275
241.046978468352 8.5191
245.060506365129 1.42599
257.035490854084 2.5954
258.050568266002 11.5095
259.061944327731 2.61648
269.040539807053 2.46557
287.053535051621 26.01

