>compound Cyanidin
>formula C15H10O6
>parentmass 287.056081061771
>charge 1

>ms1peaks
287.056007184655 100.0
287.20907948391 1.88132
287.260178283183 0.612953

>collision 10.0
287.056081061771 100.0
287.209209464738 2.06221
287.260054110974 0.643974

>collision 20.0
137.023789208838 0.814322
213.054136171794 0.771845
287.056127119735 100.0
287.209030565341 1.88243
287.261604333082 0.590955

>collision 40.0
39.0247921711959 0.71835
41.0396806607689 0.582594
43.0186880481137 4.55513
51.0248850201013 1.205
53.0025394149817 0.559043
53.039728567897 6.65316
55.0186563218661 12.4789
65.0392534313451 7.7702
66.046271842365 0.563931
67.0186860644266 2.67968
67.0546733911952 0.53599
68.9978486871474 30.9989
77.039015515524 2.56264
79.018442157665 3.02209
79.0538026861438 1.0834
81.0341732350155 24.8036
89.0396775674162 1.43905
91.0547901600628 5.23797
93.0334949411064 3.92593
94.0409200952579 0.910916
95.01281518973 0.815896
95.0486950100687 0.825859
97.0294219474806 0.915102
101.037999772068 0.709987
103.054318720389 2.85753
105.033845509597 1.84471
105.07044875616 2.90576
107.013224720805 3.54233
107.048941126827 2.39018
107.082757100147 0.818065
109.028408116048 47.4548
110.036860580208 1.42959
111.008424448379 3.25487
115.05387296426 27.2341
116.062785758999 1.15105
117.033777891271 0.623081
117.07041520977 3.53218
119.012130294813 1.78265
119.04850850681 2.82693
119.083453250437 0.6372
121.028206270921 29.845
122.036269754414 0.766312
123.044263181455 11.3373
127.054071605242 8.55718
128.061851709009 16.6838
129.069730195392 14.8784
131.049200988034 3.59138
132.05582934054 0.914155
133.027016557121 0.645227
133.06504474192 2.65273
134.036734214132 1.20433
135.043505680493 0.834548
135.078496925752 0.735375
137.02338734878 100.0
138.036083394141 0.502489
139.053660141943 20.3401
140.061190546571 0.600291
141.069542216791 5.34829
143.049241799862 13.6487
144.056834275495 1.57168
145.02622466772 0.576688
145.064870206947 3.56793
147.043820732399 10.1481
149.023219505902 10.1333
150.031456130152 3.17126
151.05449609745 1.56491
153.019643860128 1.75489
155.049143131057 1.92769
156.055577039683 0.77768
157.064381223623 31.5287
159.043407345699 0.890277
160.050925519258 2.80683
161.059363007603 7.13208
162.028200675141 0.656018
163.039283976761 4.69691
165.018446006169 6.97812
166.024768618817 0.872771
167.048796160499 10.2142
168.05768957957 3.71353
169.066157127155 1.9272
171.044043207366 15.3761
172.051201826046 1.22079
173.059610239065 2.59774
174.029691023567 0.528365
175.038747162185 4.84237
175.074085484415 3.8169
176.048166388975 0.820872
177.017539260236 3.4514
179.036781366471 1.2174
183.044612209023 1.12671
184.051483741063 5.49482
185.059592029461 24.5274
186.067811101185 0.985985
187.039704371208 2.8127
188.046561692308 3.37996
189.054956376133 5.77386
191.034212439475 1.01947
195.04417356691 3.572
196.051222578531 1.30865
197.059367556268 2.17544
199.039123508476 4.60753
201.054376793748 1.91387
202.060762203099 1.02364
203.058871138259 3.03887
205.050923162287 1.02191
211.03994717691 0.506775
212.0453285754 2.57479
213.05458739038 65.762
214.063599161949 1.59193
216.042109105057 8.75339
217.04845000325 2.3475
223.04007040015 0.911084
227.036387489362 0.935106
229.048944444957 2.77566
230.057720139659 1.82283
231.065398615807 10.6219
240.04129137838 2.72127
241.0491516684 25.6687
242.057029865645 8.00747
257.043448118702 0.883914
258.051912424449 3.50033
259.057008101631 1.49343
269.045155697263 7.25972
285.03822925727 0.656051
287.055143547876 86.7065

