>compound Cinchonine
>formula C19H22N2O
>parentmass 295.179869126094
>charge 1

>ms1peaks
295.179869126094 100.0

>collision 10.0
277.171187164554 1.21297
295.183580816677 100.0

>collision 20.0
67.0545941787878 0.575441
79.0546431518678 1.0449
81.0703005346478 2.78177
82.0653806206679 0.564022
110.096080854687 0.886312
130.064438642882 1.69772
134.095822456898 1.07162
142.063987221354 0.69665
144.079955565674 0.705282
154.064341416146 0.81009
156.079482374288 1.38797
168.080044703463 1.8527
180.079556945852 0.548263
197.106489561434 0.609974
223.121922465125 0.752014
234.126026482058 1.12241
235.121817888459 0.626628
236.136084603715 0.520002
248.140593353413 0.554844
277.168869845903 13.1498
295.180169195001 100.0

>collision 40.0
41.0403976256778 9.29479
42.0353604833937 6.86164
44.0510858264897 17.7899
53.0401328006254 14.2818
55.0556618425411 20.4483
56.0509545064793 6.77024
65.0398661674433 6.06222
67.0550879832643 28.2347
68.0512335595425 5.79496
77.039822045007 13.8937
79.0554838715589 100.0
80.0511117855474 16.1198
81.0710566171433 94.1982
82.0662377917837 22.3693
91.0552075780369 15.2225
93.0684770628891 9.12344
94.0661401614616 9.39082
95.0822063941021 8.46768
96.0818013269097 7.13702
105.070602816541 6.84987
108.081655191872 12.6091
110.097394726337 5.58221
115.05458445099 10.8845
128.050976082004 17.4152
129.062138322154 5.18812
130.06562226136 53.3556
134.0971968178 13.1689
142.065792497703 47.394
143.073762452071 25.3095
144.081657344974 13.7742
154.065912357806 32.2041
155.073470931702 6.89571
156.081466644014 43.3234
166.066251135707 11.1323
167.073964156737 31.9015
168.081736533001 46.3944
169.079001180269 7.90445
172.076704783369 7.87022
180.08194686751 21.682
181.080907606729 10.7913
182.092833690159 7.43944
184.077238315346 10.6457
192.081888586257 5.39432
193.0888402784 6.05156
194.097017490258 11.1189
196.111936742844 5.60592
204.082007195376 7.41722
206.09650060461 9.13988
218.096911340231 6.6695
221.109283248613 8.35607
234.128724179155 5.96651
235.123849026625 11.6744
277.170505057984 11.7629
295.18181037833 10.7047

