>compound 5&#38;#8242;-Deoxy-5&#38;#8242;-<WBR>(methylthio)adenosine
>formula C11H15N5O3S
>parentmass 298.098021630554
>charge 1

>ms1peaks
136.062011760612 9.56223
298.097373909101 100.0
298.251908779116 2.89515
298.305994054208 0.990953

>collision 10.0
61.0115922539129 0.852212
97.028417235472 0.639922
136.061633418435 100.0
136.169028352536 3.25991
136.201399071208 0.977889
145.031744007843 1.70173
163.042210298356 2.40902
298.098021630554 43.5652
298.253966109391 0.644592

>collision 20.0
61.011539525629 3.15878
75.0268878264958 1.2801
97.028679620832 1.34164
119.0351523984 0.620324
136.06169680195 100.0
136.168799397102 3.93836
136.201450675634 1.21837
145.031491563967 1.32643

>collision 40.0
61.0115446345362 7.73535
69.0343503519456 0.541626
75.0270296447396 4.42074
92.0245743472385 0.726566
94.0403526035256 2.38502
97.0288952876953 0.724658
119.035358297023 9.1781
136.062021376533 100.0
136.16897804428 2.63924
136.20103645911 0.770814

