>compound Metyrapone
>formula C14H14N2O
>parentmass 227.117119594306
>charge 1

>ms1peaks
106.0682865969 1.08388
121.088217990633 2.30885
226.006145131786 0.693414
227.008212350396 8.46973
227.118409138192 100.0

>collision 10.0
93.0537038589227 0.951496
106.062605685125 0.645667
120.077529828303 1.53724
121.088920031212 17.4503
147.986856075871 0.856949
148.991241636759 4.26434
227.009569453972 1.98725
227.117119594306 100.0
227.300376191131 0.600038
227.585240267938 0.663197
227.803761576442 0.551529

>collision 20.0
80.0503401999227 1.21592
100.079103960221 0.528125
103.005489595455 2.14417
104.005645411032 0.720714
105.007029187246 2.90135
106.064722945872 13.7057
120.079443385897 11.347
121.08920534518 100.0
130.95265503929 0.529455
146.994008964584 1.35251
148.992382951359 4.08611
227.116724875845 27.921

>collision 40.0
30.0341987288428 1.30841
52.0343676056326 1.2122
55.0173556983477 1.02505
68.9857883330323 2.00873
79.0429513673746 13.4919
80.04893829311 2.15375
93.0579372313119 4.74182
104.04526279679 1.15267
105.001789085186 2.95659
106.06552989582 72.0477
120.080815728704 100.0
121.091004185193 7.7551

