>compound 3-ketosphinganine
>formula C18H37NO2
>parentmass 300.289558031353
>charge 1

>ms1peaks
300.289636465358 100.0
300.446959616069 3.57949
300.500173574303 1.33592

>collision 10.0
60.0454346306017 1.12392
254.28420736091 0.758398
270.279193259797 5.1222
282.279321951057 5.57882
300.289558031353 100.0
300.447096030048 3.3224
300.499850796734 1.20695

>collision 20.0
43.0184283309536 1.30929
43.0546708064636 4.91468
44.0499761854799 12.5384
55.0548953863501 4.07193
56.050423543203 10.1573
57.0707120227124 14.5792
60.0455336467309 20.6364
67.0550201892397 3.79254
69.0708058744697 6.18467
70.06606910045 2.47917
71.0862747800605 8.79191
72.0449970838472 1.44126
81.070461663542 6.32792
83.049580001834 1.97987
83.0861482564331 6.56988
85.101731593745 5.48692
86.0607239270359 4.74745
93.0700950822463 1.69314
95.0860066156526 9.06131
97.1012300353195 4.00849
107.085331013574 1.50327
109.101481813309 4.61184
121.101343061434 1.67136
123.116729146404 1.65691
135.116902792126 1.38689
240.268691771247 4.41232
252.268254888444 3.52461
254.28413193506 20.2508
264.268960385112 5.58008
265.253452551815 1.8758
270.279649922878 78.2415
282.279588371056 58.5756
300.290393999553 100.0

>collision 40.0
29.0390080848933 1.00535
30.0338684955856 2.61338
39.0235883801467 0.826437
41.0390584672494 28.0587
42.0341010427192 8.27324
43.018252031487 6.33228
43.0546888985403 90.7306
43.1162533854598 0.595129
44.0499263205297 59.3463
45.0335773825947 1.09699
46.0291768477406 3.28863
53.0390570013094 1.68269
55.0185181476331 5.92668
55.0549663984182 72.9353
56.0503961818266 100.0
56.1194812612625 0.571688
57.0344394037757 3.66258
57.0707997014289 88.4082
58.0297929371843 3.06267
58.0662744174196 7.44241
60.045463858905 46.2646
65.0390572250251 1.21751
67.0549098676632 27.408
68.0502436511186 2.82461
69.0333271454528 0.518486
69.0707447098024 29.701
70.0660128872992 16.3908
71.0496232130202 2.35774
71.0860062176038 16.7911
72.0449190586244 6.70894
73.0440673530697 1.21062
77.0392631099567 3.03455
79.0550090319128 11.1066
80.0503146656316 0.645549
81.070485385133 18.6287
82.0653725527229 5.72632
83.0501388330538 4.96691
83.0859812739172 9.97656
84.045414979986 1.49632
84.0809489735442 1.37488
85.0628199506548 0.555927
85.1015883937324 3.08809
86.0605852188925 15.5946
91.0550528362225 2.97854
93.0702023858132 5.50129
94.0658800735862 0.764445
95.0858196891933 14.9881
96.0810028224781 3.10676
97.064538661752 2.06428
97.1008132525478 2.31541
99.0680066423426 3.92266
100.076280060458 0.621781
107.085588973053 1.59377
108.081762543489 0.588099
109.101378681357 3.00628
110.096773467122 0.792076
254.284307604723 3.30025
270.278702346139 3.45311

