>compound Morin
>formula C15H10O7
>parentmass 303.048289332925
>charge 1

>ms1peaks
209.00975025864 0.865957
224.128759892708 4.38255
224.633383476177 0.606818
225.015369482713 1.13913
263.13554559235 21.9567
263.637654171654 6.71674
264.132156134044 3.21351
302.141378422414 17.768
302.30494559793 1.56386
302.64351629152 5.93356
303.051721896979 100.0
303.301206118977 0.953322
303.345800203954 0.64904
303.505938997374 0.814425
303.655038255129 0.723301
303.75927060498 0.666379
303.841034969198 0.516242
303.903504848346 0.521001
304.040090999019 0.518304

>collision 10.0
57.0730590093782 0.807274
79.0230063096955 2.25583
85.1023182235854 0.502047
105.012958455707 3.68516
131.001464419993 1.94709
149.022521698047 0.51605
209.015629909471 2.69744
224.125227877959 18.1702
224.627518259636 6.52352
225.009080991951 1.48121
225.127099875658 2.22199
257.043196260257 1.13399
263.131438157126 15.2336
263.634939292597 2.8658
264.134545815831 2.08871
295.195215120044 0.900891
302.062240188189 0.926434
303.048289332925 100.0
303.201374713934 1.38739
303.246930278393 0.782818
303.321127948114 0.606747
303.368393785926 0.567394
303.423842675687 0.682438
303.514241240041 0.587748
303.587198469158 0.675575
303.77496026364 0.506685

>collision 20.0
43.056991747013 1.97907
57.0728963733528 5.05691
67.0565724124141 0.625461
68.9990161326853 1.48874
69.0711828443611 1.07291
71.0882529986982 2.78611
79.023743597351 8.99388
81.0722630447213 0.827895
82.982855762322 0.633499
83.0875956550087 1.35349
85.1030512030678 1.7885
95.0875047369647 1.81854
105.014920280092 8.21537
109.103193017397 1.56042
111.008616914467 3.56149
112.990750136923 0.930894
121.033239480729 0.855429
127.04238159502 1.03277
131.003978888038 12.2969
137.026601636831 4.50211
146.996716072577 0.875701
149.025506236092 7.03582
153.021077287485 8.58424
161.062729197309 0.626952
163.040449994412 1.80704
165.021123092868 4.61412
167.035478195761 0.510727
187.03786221492 0.600429
191.022040026534 0.939418
201.059218167994 0.510632
205.051234583195 1.43478
209.018911761102 9.10229
210.016956821483 0.791578
213.053728407297 0.60978
219.03086915699 1.02585
224.129762988016 2.45604
229.050168699487 6.72391
233.045407514008 2.01004
247.063625150311 2.23718
257.045117285431 8.34969
261.039497783401 1.12161
274.048772612177 3.86253
285.039416899581 3.34317
295.195316608763 5.67604
296.201731639977 0.65879
302.07440486213 1.26848
303.051067239759 100.0
303.208755334482 1.3053
303.255244445839 0.840948
303.316952030362 0.799442
303.414957892409 0.630757
303.498159403283 0.666711
303.660055996205 0.571018
303.933638877677 0.572866

>collision 40.0
39.0268183580593 1.27036
41.00452109339 1.4916
41.0399340354279 9.85544
43.019226674052 2.22837
43.0561835830087 13.1446
45.0362649839127 0.781064
46.9981431312586 1.36945
51.4757473564302 2.73956
53.0409216140603 2.57495
54.9907069999316 2.28979
55.0211700814567 5.35562
55.056554307801 5.51266
56.019875512975 1.27184
56.9674023999686 27.2908
57.0278813643198 0.765792
57.0727288619521 28.866
57.1533778851883 1.2436
58.1480334212062 0.787931
58.9933296569469 1.64818
61.0124735143356 4.41838
63.0262822643485 0.851792
64.0012299388478 6.71334
65.0410689355099 8.9467
67.0182965343691 9.29905
67.0531772449243 3.50468
68.9674223727582 2.70488
68.9991730847932 56.5026
69.0356636062721 11.8101
69.0742545472466 2.71159
71.0105593478761 1.11667
71.049918489033 1.19701
71.0877336355249 5.72906
77.0405639060594 2.6932
79.0230221539941 29.2545
79.0929216258791 0.845718
80.0255700210543 0.982836
81.0353549630813 14.1883
82.9834528202828 31.3981
83.9813778443256 1.04133
84.9765617068243 2.0222
86.9770135304272 5.06713
90.4876518348935 1.43636
91.0555983229678 5.14407
93.0376054065556 2.77158
95.052062583394 9.91474
95.089147260712 1.98562
95.1817458450474 0.779059
97.0317579006187 2.88312
97.1604489577524 1.0265
97.9967492174252 0.909838
98.9811160646089 10.3774
99.9919869752456 0.891511
100.990620015828 5.58665
101.029072129392 0.795464
102.096751361164 1.06043
103.008702002905 5.74839
103.052620734223 1.78239
107.049641065937 6.78657
109.030940750188 11.2098
109.100648836007 1.30462
110.036535384797 2.35525
111.010185016584 20.1745
111.159607738293 0.8678
112.04212670973 0.949661
112.993521112117 24.9637
113.992960392279 1.09849
114.991549398224 0.789634
115.054415801069 2.61194
116.06563340518 1.19298
116.972083198206 3.22563
117.035503845099 1.32548
117.068254375946 1.83178
119.006714094415 0.813235
119.054919746981 6.86363
121.030985925295 42.494
121.106003715511 1.07729
121.129205456756 0.815753
123.047011218077 11.4528
125.022712802924 2.80938
127.057559154256 1.90916
128.05604115531 1.55283
131.004234944653 53.5639
133.027019715805 1.09624
133.066816654668 2.44122
134.98050134978 2.64834
135.04308991312 2.81651
136.017832283244 1.56954
137.025718560326 66.1421
137.134556232769 1.05161
137.167585853436 0.812757
137.243149683072 0.755949
139.051220791115 1.19298
143.047437305017 4.34698
145.06529633466 5.53034
145.970987840111 0.970783
146.999577676557 2.8422
147.040857498158 1.61257
147.992053538458 2.34594
149.025892505968 20.5769
153.020062609188 100.0
153.092398917904 3.57379
153.166104898732 1.57842
153.25711242753 1.04294
153.355635266275 0.77721
153.549512327984 1.10732
153.631516832023 1.06305
154.034531496667 0.984421
155.04473226835 1.61221
157.072493019839 3.48361
157.703615192958 0.877845
159.043523665483 3.33389
159.97041237 1.12353
160.055340613726 1.00342
160.998639859168 2.40184
161.063534097325 12.3643
162.036501359594 1.00844
163.04245375983 22.0622
163.48303492688 1.07729
165.019322972677 20.8234
165.099239163271 2.62921
166.03371355168 1.19723
173.065959575364 9.46871
176.05261116281 1.27904
177.053049761056 9.76538
178.035571410246 2.19301
179.041172581179 3.15217
183.047724011018 3.59076
185.059338757626 1.27472
187.039475893809 12.9666
189.031793873832 1.36307
190.063916843027 1.59053
191.038073784383 9.02756
195.033895956028 0.869771
196.978896439668 0.795464
200.042598932521 0.963911
201.059700272559 7.16416
203.026234047028 0.764359
204.044099678185 1.05845
205.050925288103 26.9321
205.127530918112 0.980649
207.030240663756 1.17408
207.199751257634 1.51787
208.917910603528 0.794597
213.048416075994 1.4363
214.043991515884 0.869814
215.032287785325 3.43957
217.053272773286 1.5371
218.060514620022 1.51612
219.032125125544 49.1805
219.576167965852 1.13404
224.980481043488 1.18383
228.041045837363 1.51538
229.052152348532 31.6312
229.50907546397 0.88404
232.038245188796 3.38968
233.042458736119 6.8233
234.047448419381 1.42435
235.063287765825 2.10248
245.04873841358 4.18437
247.064145233664 1.50027
257.049790290509 9.03987
261.034946908434 4.54328
274.051978465029 6.61913
281.054352524351 1.52408
284.022275603394 0.815333
285.034980361372 3.46105
286.036679985672 3.00493
286.171433606935 0.897352
287.047570181578 2.06147
295.201180278141 1.76838
303.053512328977 2.35502

