>compound Delphinidin
>formula C15H10O7
>parentmass 303.050837590553
>charge 1

>ms1peaks
303.050993795589 100.0
303.208978697922 1.71465
303.259093427483 0.58679

>collision 10.0
303.050837590553 100.0
303.20870430868 1.88457
303.262372662131 0.604849

>collision 20.0
229.049372521492 1.01853
257.044049664115 1.16917
303.050723684255 100.0
303.208503258763 1.82304
303.261819603663 0.600739

>collision 40.0
55.0185932413872 6.90747
68.9977061749224 23.788
79.0181399416862 11.3278
97.0287886871715 4.50975
109.028403773621 5.28512
115.053919309003 9.75312
117.06991495852 9.62518
121.028638650266 19.5575
125.023044339282 21.7694
127.053755527122 16.6001
131.049159520485 13.4976
139.041116478394 6.91436
145.062625681392 11.7674
149.023792357244 10.9697
150.030808255742 14.2352
153.017924908096 38.2873
155.048811536658 17.0207
159.04328217291 10.6069
163.039429866235 9.62596
165.018230814398 9.08164
173.054069728057 25.699
179.033161177674 7.82875
183.043985681137 11.7171
187.038642508046 10.19
201.054342086515 24.4241
203.03294238069 7.2666
205.049454734091 5.24443
213.054361328184 4.55178
229.049456777662 100.0
257.044303981953 29.1896
258.052096863441 5.11728
303.049922967276 68.9822

