>compound Scopolamine
>formula C17H21NO4
>parentmass 304.155136126997
>charge 1

>ms1peaks
138.090600196478 1.51965
156.101118712105 2.47603
304.154709888663 100.0
304.369812245769 7.86703

>collision 10.0
98.0605529989985 0.786526
103.054539933223 0.573748
110.096629124718 1.4822
121.064917336427 4.00801
138.091250011545 20.1715
138.235373878162 0.542475
156.101845477082 25.4153
156.254119214678 0.720027
304.155136126997 100.0
304.369829004257 6.20774

>collision 20.0
42.0349677646875 1.02069
44.050476184782 1.34731
70.0663924620691 0.63226
74.0614044052347 1.23098
77.0394588809908 0.50537
79.0550980914988 3.83189
81.0349180504321 1.02091
81.0699472725949 0.546556
82.0663424565669 1.68969
83.0497927214264 1.30334
84.0816577138776 2.48531
91.0546034229119 0.520336
93.0700829855305 0.766501
94.065993619313 1.04105
96.0457984061233 0.834099
96.0807094483124 0.861738
97.055956269358 1.16203
98.0608441252216 10.2915
103.055054499465 8.76159
107.049015422755 0.508041
110.096954412093 12.5097
120.080940819117 1.27624
121.065289577795 39.2027
121.204398063661 0.71742
138.091648995723 100.0
138.235471957949 3.69564
156.102104576984 79.9696
156.254304542038 2.53841
304.154729753858 56.0156
304.369670685063 1.22604

>collision 40.0
41.0392668629597 1.26034
42.0346665264651 8.95027
43.0185963243577 0.912719
44.0500734996668 4.8047
51.0240073122449 0.580361
53.0395293350444 0.627408
55.0546315785392 1.63135
56.0504974187564 0.850755
57.0357918948115 0.798188
58.029230294152 0.540838
67.0539878274 3.70266
68.0496313845505 2.01086
70.0653674126676 7.25507
72.0447770600883 1.43503
73.0292415992186 0.861279
74.0603104914492 1.28669
77.0385411934027 9.87207
79.05433301058 19.2441
80.0500006908871 1.0763
81.0348238930743 4.78968
81.0682856724641 4.1626
82.0655277628525 7.8641
83.048999279406 3.79196
84.0445175296833 0.504683
84.0812202689309 4.99892
86.0598956389608 0.538269
91.0540458599145 5.77178
93.0691196561513 4.91555
94.0650908522013 5.48059
95.071778287852 2.48199
96.0451463314874 3.90954
96.080469495654 4.01007
97.0524837301628 12.1394
98.0600311257443 14.1782
102.046472553593 0.743294
103.054146837896 100.0
103.182493045236 2.8065
107.049296767986 1.71967
108.080301785574 2.63348
109.086523949101 0.690591
110.095435909402 20.9231
115.062266444195 0.563938
120.079577695124 3.21316
121.064445476263 18.6233
123.067679345377 0.672077
138.090653406411 58.3734
138.235307485069 1.34899
154.085189657146 0.500861
156.100841527456 12.0373

