>compound (&#38;plusmn;)-Taxifolin
>formula C15H12O7
>parentmass 305.064956295126
>charge 1

>ms1peaks
100.340711030375 0.731254
123.036333365475 0.929464
153.016743314087 3.25645
161.024487850203 0.721565
195.029949546611 1.69219
209.1171666726 0.801959
259.057333355559 4.46361
287.058805595769 1.19655
304.253374884502 0.644604
305.063869176096 100.0
305.152580189904 9.61535
305.243407404433 2.98159
305.356759649828 1.1621
305.441657350616 0.708254
305.599298593287 1.09665

>collision 10.0
46.3106027624317 3.0746
52.7339532301116 2.25971
123.042835164291 11.9856
127.036046776585 4.48905
149.023654704342 19.5592
150.026668530707 2.5364
151.032045382099 2.17077
153.017407565114 95.1793
153.103460099432 2.37317
153.13841185924 2.96514
161.017058485457 3.04212
167.02940389328 4.13039
185.118542316843 3.00489
195.02923733159 39.8082
231.067312190211 13.3345
245.046430906371 2.79358
259.058574786367 100.0
259.14320549971 4.54664
259.209113123951 2.40684
273.081592917491 3.59823
287.053193437741 58.8639
288.501631693013 2.70084
304.254381095171 2.17526
304.846467732743 2.90464
305.064956295126 85.1107
305.154402090339 34.977
305.292330909988 4.51386
305.375189456289 2.36041
305.540853494451 2.41366

>collision 20.0
59.411955542078 3.81951
65.034285124452 3.91429
95.0449952577925 9.57149
111.039745131489 9.50911
114.027276947023 3.88829
121.028307145645 11.5727
121.059139992784 4.38714
123.043627563368 92.4431
125.059592833036 4.72616
129.069328016688 3.89614
131.04677294965 4.2888
139.053416960971 7.71627
149.022771776475 100.0
149.146707425638 4.92466
151.040030363375 4.91709
153.018670808124 77.6979
161.025282334416 5.6982
167.035635151705 34.9098
167.075738375643 3.67689
179.034610697334 9.88831
186.060922309245 5.37434
195.025715267541 16.3749
203.064875411904 5.03861
213.052498643328 14.906
231.064768728067 81.4708
241.046054877557 24.6525
259.058083320644 76.3526
287.052616563891 21.6401
305.157802847829 25.1081

>collision 40.0
41.0386482969289 9.80135
43.0198070602999 5.80313
51.0224904977267 3.70168
51.3062809794432 2.63535
65.0399079179358 16.0263
68.9944537679385 7.51439
69.0306194607156 3.31165
77.0431084082205 5.45488
83.04828261903 7.14147
91.0542162928784 5.00048
93.032170550055 11.7822
97.0344049319914 2.79873
105.032682244577 8.271
111.048846808197 5.68767
115.055983747416 3.69198
121.028873512712 26.948
121.066329594293 3.44933
123.042677147556 100.0
123.105513867255 3.53259
123.545411489016 3.20657
128.061874680585 2.54888
129.553192153456 4.21901
133.026099135227 3.6575
135.047171692577 2.92954
139.047063093465 3.82741
145.030969831954 5.29888
145.06057117795 4.80584
149.022755593299 59.8404
150.029281842743 4.49196
153.018412052364 57.5656
157.062584002939 9.38451
160.054558575939 3.39079
163.037303555141 6.10911
167.045327689584 3.30352
169.070062430896 4.92224
171.03807012469 3.51576
185.05914057867 15.6909
189.057353952692 5.61824
213.051164941292 10.8543
213.090772079556 2.50725
231.06683459936 6.53919

