>compound Isorhamnetin
>formula C16H12O7
>parentmass 317.066649733854
>charge 1

>ms1peaks
27.2962598651148 0.648914
158.961352707804 0.744339
195.918537314288 0.587066
236.983737334059 0.838973
238.9798274833 0.57234
239.163946853097 2.27686
273.118669212766 0.705179
302.047032203575 0.569086
316.002508722976 0.648963
316.172183515115 0.790414
317.06507598214 100.0
317.170132168532 3.55294
317.272036217059 0.679915
317.614940419552 0.770075

>collision 10.0
101.007386187622 0.853811
111.003531837966 0.696839
158.961314132158 0.824216
239.161943438634 3.0159
285.032380698306 1.07369
302.038716859947 1.50728
317.066649733854 100.0
317.213198359248 0.736722
317.611984581714 0.526464
317.976907466959 0.642199

>collision 20.0
139.039072442021 0.638489
153.01932336976 3.6555
158.955278943556 0.556693
225.047093844454 0.527184
229.047025314331 1.23094
246.052507529771 1.00324
257.040973147156 3.1534
273.034614440635 0.672736
274.051942324982 1.63449
285.039265186929 3.38702
302.041423399727 11.5728
317.066079981532 100.0
317.334800639919 0.514227

>collision 40.0
48.9511137274002 1.06822
65.0399708634862 9.8298
67.01835324786 2.32595
68.9967592430313 5.82423
69.0280762315149 1.05876
77.0418641641006 1.04767
81.0328817739505 1.0998
84.9583118973802 1.25472
92.0253526841946 19.8624
93.0347222976828 21.7502
94.0397421366828 3.43459
103.053586885772 0.932187
104.062774827398 1.9758
105.034970573085 1.72529
108.016408774028 3.35932
109.028220572957 1.26454
111.007577640739 2.02762
115.055368271861 1.70297
119.051923639222 1.43152
120.018642108909 0.912985
121.026458097538 8.45862
121.0583963032 2.55277
122.036344772316 3.86055
123.04255724423 1.17373
124.012968221771 2.50022
126.030520911424 9.0885
127.051919635619 1.30142
131.050184182582 1.47848
133.072989872407 1.70486
136.011491388355 2.06517
137.047698600046 2.43193
139.037836160615 2.06513
143.049280057393 1.21044
145.024308932282 1.83682
147.005751407059 1.26386
148.051295257617 2.20431
149.050760803312 1.58604
150.028560353227 1.79286
150.447782240362 1.00316
151.037269715754 2.54982
152.010374856945 3.49971
153.018715838229 100.0
153.080939493304 1.5227
153.14350144981 0.933278
153.872294507757 1.35027
155.046521091897 3.13286
158.039097644924 0.998658
159.045263165888 1.2041
161.056836868831 1.84364
162.028569713064 1.09497
163.037473061498 1.38596
165.017581721139 2.66806
166.026847620865 4.19602
172.051910836289 1.61275
173.055112613637 1.44038
175.037705242319 1.98588
179.035442022879 2.24242
181.010733793406 1.05291
183.04506315013 3.34859
184.054484143767 0.916258
185.059571568491 0.998995
186.025353733038 0.978666
189.051881175093 1.65721
190.04341094194 1.02632
191.035584900953 1.95171
192.045097788945 1.06177
193.004739821984 1.4082
199.040966329679 0.955657
200.04599338365 4.52007
201.051180555735 6.86152
201.949120071787 1.09549
203.034139874293 22.4077
204.042781683334 2.19121
211.043125043649 1.83819
212.046325426062 1.79314
215.029710590819 2.80666
217.050001554433 31.7615
217.922630997667 1.16683
218.055655469198 10.1049
219.028501586014 6.11167
228.040869746521 28.1
229.048902383823 42.8887
230.057427701885 1.20379
231.029885594257 7.82216
239.042525162619 1.58631
240.037250487876 1.36686
245.044852920499 33.1125
246.053386683167 13.9678
256.040828471453 2.32639
257.042051759989 14.2272
259.026147935505 1.07228
260.032409736121 0.954081
261.063060831064 3.81085
273.041624543873 23.5771
274.046470944577 16.4965
284.028163674219 3.55939
285.038364875582 20.2394
287.01020041266 1.88547
301.036100111483 1.22735
302.042630144285 27.8948
317.068734991228 5.37025
318.021991346311 1.05277

