>compound Diglykokoll
>formula C4H7NO4
>parentmass 134.044645431748
>charge 1

>ms1peaks
42.0348468790253 1.0857
60.0452680186897 3.70605
88.0397814029537 55.403
134.044645431748 100.0

>collision 10.0
42.0341738499739 19.7651
60.0454068830372 43.5592
88.0396143452571 100.0
134.043933247764 4.9518

>collision 20.0
42.0343024034122 100.0
58.0655184120878 0.776899
60.0452656400074 58.4251
88.0392633773937 31.1718

>collision 40.0
30.0340477091725 0.988189
31.0177050240731 1.1139
41.02867659776 0.926724
42.0343695084388 100.0
60.0451481529543 2.21218
91.0542794363624 0.727241

