>compound N,N-Dimethylsphingosine
>formula C20H41NO2
>parentmass 328.320841177057
>charge 1

>ms1peaks
280.29934278484 0.512855
310.31038615108 3.12739
328.320637875379 100.0
328.486758195252 2.80461
328.541023624152 0.993596

>collision 10.0
44.0501122157557 1.17393
110.096278215987 0.576937
280.299758305934 3.6064
310.310909434722 34.9252
328.320841177057 100.0
328.487187590036 2.51495
328.540219319212 0.841935

>collision 20.0
44.0498790917634 4.40137
46.0654693918215 1.70792
55.054828980645 0.590424
57.070016067826 0.544477
58.0661190644441 3.1218
67.0550613838381 0.917344
69.0704490730357 0.828314
81.0705194916643 1.41199
83.0860461350678 0.836835
84.0812920042947 3.04735
86.0604269924858 0.800941
87.0680565125714 1.04239
88.0761086070495 0.689222
95.0858991342514 1.49679
96.0814945027448 0.870588
97.1007789436994 0.677598
109.100431176802 0.96998
110.096358672956 5.16272
168.174538944904 0.521053
182.190284198963 0.710553
279.29149605191 1.44322
280.300022170438 34.5532
292.299216926328 1.3137
310.310175422215 100.0
310.470840436404 2.04776
310.530008451404 0.665027
328.321077306206 13.5315

>collision 40.0
42.034281927835 5.82975
43.0545910060638 5.36077
44.0497287779192 7.72284
46.0655176164891 6.57475
55.0548958537814 12.4628
57.0701764087822 4.71905
58.066068262771 21.1186
67.0550362721046 10.8177
68.0501542143844 4.27579
69.0705325356059 5.55839
70.0659862238282 3.73921
72.0451230024606 4.7299
79.0546101689445 5.42195
81.069872179264 8.24189
82.0656754774928 16.7984
84.0813607781656 59.1754
86.0604801724095 5.09209
87.0683428449667 15.411
94.065546265711 4.35248
95.0808049442062 6.42367
96.0810415425005 27.0252
97.0903350364416 3.56284
98.0964775394613 4.57422
108.081192587836 6.02958
110.096636253003 100.0
280.299728531211 16.4155

