>compound Carvone
>formula C10H14O
>parentmass 151.111476924076
>charge 1

>ms1peaks
95.0498676818198 1.32123
107.0863713709 1.01969
109.06492318835 64.7137
123.080265571829 20.1778
133.102031637584 0.587115
151.111476924076 100.0

>collision 10.0
41.0388207443153 1.1283
43.0186810453939 1.18074
43.0544735684987 1.65123
55.0543755063668 0.865515
57.0336355970273 0.54438
57.0707812402054 0.744932
59.0488109575634 0.686387
67.0552912750516 4.64141
69.0344481512962 1.00015
69.0700898807403 1.24784
71.0498795195601 0.542331
79.0533801275945 1.05591
81.0700467417258 6.24897
91.0554233390743 3.21936
93.0712262180116 1.42267
94.0416359315972 1.10962
95.0491177214724 5.94659
95.0845046479376 1.81632
96.0579223786994 0.559218
105.070923371927 0.918188
107.049971816575 1.27878
107.085382483721 3.17292
108.056093074378 0.702922
109.06483920066 100.0
123.080652401827 25.0962
133.101529788628 1.03354
151.111990340936 6.48104

>collision 20.0
39.0229418485895 0.745812
41.0391203394445 11.6403
43.0175641423908 4.88451
43.0545125508359 7.33285
45.0344800893855 1.30373
53.0390381413909 2.92004
55.0185102755966 1.96809
55.0546525371588 10.5851
57.0349815072321 1.57591
57.0708245030136 0.873789
65.0392320638197 6.96367
66.0456304633876 1.74162
67.0550695930006 29.0658
69.034378314461 2.63166
69.0708361628053 5.5627
71.0517303974567 0.726722
77.0396785286477 5.25726
79.0548255736976 11.2905
81.0704885356862 33.8611
83.0845794887023 0.531706
91.0546802235501 23.579
93.0342777826472 2.71268
93.0696534248158 5.83839
94.0416721203296 18.0004
95.0492805483836 11.7212
95.086010633095 8.23031
96.0572295153844 8.90952
105.070600606507 8.16256
107.049812396505 10.1372
107.082522561488 1.44136
108.056423555615 9.0214
109.064794087115 100.0
121.064717487147 0.887741
123.080695290695 27.9779
133.100150993436 0.914457

>collision 40.0
29.0386636534407 2.19217
39.0233400281786 32.3204
40.0312425998909 2.79184
41.0387359489326 100.0
42.0474650249779 1.44124
43.0176292550059 20.1732
43.0538300139124 6.2723
45.0332472819467 2.8048
50.0159889491513 0.966359
51.023627426225 20.1206
53.0392295234538 30.1292
55.0190892349247 12.1817
55.0550255840056 22.7252
56.0601457892894 0.904442
57.0368886885176 1.34494
63.0210031862456 0.817734
65.0392239488637 74.9609
66.0467397983588 37.1603
66.49534274225 0.807472
67.0554364169435 30.6146
68.0220909447819 1.35245
68.0631494067686 1.25229
69.0340290536268 7.21067
69.069119622728 2.84559
70.063815641723 1.16204
77.0391421791119 87.507
77.1626127212688 0.57136
77.2889555276185 0.782704
77.5130806402426 0.849368
77.7694207943525 0.823012
78.047113853932 1.8863
79.0177968848544 2.95715
79.0546161442372 42.109
79.3607235902809 0.564219
80.0614264476336 4.52175
81.0343652020888 14.0602
81.0698540237975 13.1968
89.0402466705258 4.87186
89.2324893515174 0.637732
90.0464896101512 2.57257
91.0542033116206 49.9687
91.109423006776 0.613784
93.033134243473 5.45718
93.0685786142215 2.23987
94.041842935151 90.6446
94.0965220836783 0.800299
94.465452191737 0.604068
95.0491454623454 37.6841
95.4325867730656 0.799103
96.0562217035586 5.93279
102.105180428199 0.979817
103.055532322403 3.71228
105.069002359435 2.38094
107.049606908708 45.276
108.057322053618 8.57114
109.065331564046 6.83171
115.053827658778 4.10791
121.06308635546 2.5036

