>compound Myricetin
>formula C15H10O8
>parentmass 319.043753051469
>charge 1

>ms1peaks
37.5170049437954 0.984253
55.4485646601033 0.993809
95.086504391385 0.851091
97.0610298886172 1.34646
99.0442677467484 0.821259
99.0768574437204 2.23369
102.131079281259 2.59111
103.132571269175 0.998637
113.05638889546 1.21421
113.090695535035 1.76984
123.077366743819 0.826203
125.105883950882 1.38627
134.099155201304 1.12485
153.018433529938 0.950458
157.083345445386 2.53151
169.082143170701 2.41914
183.168092413199 1.1069
202.2116868555 0.868517
203.085953968627 1.76354
227.128362690765 2.1894
240.985002345961 2.25228
243.12386538723 0.863958
273.044537576133 1.02067
277.094683569712 0.814093
277.161525343048 0.853022
282.247915486472 1.21187
283.154152594147 3.81771
283.259868362759 1.02926
284.164474132443 1.12475
301.158177857006 6.40094
301.206001396398 3.05065
302.19594170526 1.27764
313.071041377238 0.970762
318.190917197295 48.9842
318.510044881212 0.909519
318.800709122098 0.831676
319.044061994841 100.0
319.19621422433 12.6791
319.349401446119 1.6904
319.518167480245 1.38692
319.661416401816 0.866513
319.816369383743 1.03771
320.02633569011 1.0481

>collision 10.0
43.0191694291189 1.95091
61.8483226405441 0.587
74.0944080052121 2.89225
77.036539335263 0.871606
83.0842347411786 1.03401
83.7767109851815 0.622615
95.050859985541 0.627101
97.0661521680774 5.86258
99.0426734943298 2.72608
99.086307032029 1.0198
101.058824815239 2.67323
102.126987935278 0.683887
107.087436615424 0.784445
109.064252722714 1.06486
109.095471258154 0.624754
111.040977458456 0.894295
113.062537994292 0.833266
115.072904576009 2.02846
118.122130253246 0.684404
121.102565595257 0.695144
125.060953738079 0.870354
125.101142858851 0.932695
127.067579615762 0.588224
137.095353149758 1.19008
141.090587417204 1.43639
142.096192631041 0.769524
143.067433578695 1.0398
153.098346822074 0.669654
155.067089145653 1.54159
157.086693209285 1.77627
158.953670762689 0.90027
162.974898473571 5.3281
165.090382951919 1.0178
169.083074611927 2.01765
179.0924029113 1.03734
181.120740439606 1.43148
183.099219797289 1.30826
185.102117728128 1.23195
191.173708365545 0.608503
195.119608788415 1.52496
197.074330029746 0.795208
201.114193574361 1.96275
209.180776239081 1.26784
219.13325957683 1.14361
223.127179112025 1.18242
224.094130134072 0.661037
225.11299991356 0.879448
237.156090623191 1.03246
240.986181311472 4.61484
241.05283653488 0.671222
243.122379050056 0.981266
244.076456675421 1.49545
245.541964449994 0.641672
265.174872324757 4.65246
267.153655685531 0.588802
279.583446145856 1.91402
283.159672857468 5.53267
283.307939272538 0.632425
284.146102602622 0.986905
285.140254705827 0.738767
301.162026855378 6.9161
301.252590381723 0.667001
302.16048926902 0.985183
318.1883596217 12.2738
318.295240028839 3.50266
319.043753051469 100.0
319.150815038729 4.73799
319.196151608975 2.68411
319.250303248468 1.57912
319.291219757287 1.31951
319.360586565624 0.883143
319.453249165598 1.52573
319.60499229012 1.10129
319.759674646522 0.968161
319.878924994305 0.724155

>collision 20.0
43.0173885300694 5.07612
46.0622759313763 0.536329
55.0532215542602 0.963094
57.0711839499614 1.32436
59.0495655381123 0.816283
69.0710886242925 2.06272
84.9596075430053 0.714316
85.3645375203098 0.533604
93.0716433697412 2.35854
95.0831277692776 3.13189
97.0619276663604 2.85633
97.1033464373281 1.20602
99.0434971798062 5.40721
99.0816495161182 1.76493
101.059889637891 1.93776
109.026978070044 0.879694
109.061676865386 1.64726
109.104978152281 1.29058
111.044802019714 0.744632
111.078121503211 1.97269
111.117800574467 1.4908
113.057831553046 3.22604
115.074799395063 2.35297
121.099024142222 1.81428
123.079288085134 3.42869
125.074035450031 1.30001
131.082975576918 0.657766
135.120318704023 0.540525
137.092593933144 1.33289
140.073325191781 0.541582
145.049254336489 0.973296
147.078883286906 0.567041
148.084260215356 0.783565
149.098979438316 1.09688
153.01698133678 6.01864
155.102229910399 0.561148
156.109169595423 0.620538
157.082759170346 0.678484
162.971783505024 6.19379
163.068655775866 0.514632
165.014822952494 2.12861
165.088433351265 0.618547
169.094922965035 0.517162
179.031387094984 1.28037
179.10039698018 0.587804
187.070074978286 1.09054
189.050818305737 0.562894
191.180584564931 0.766475
201.124968626584 0.733706
203.09059498918 0.85089
213.108968152973 1.07985
215.093349556691 0.612197
223.134702532175 0.70988
225.113482985807 1.52674
229.049263161435 1.38185
233.113948705193 0.583361
241.07875909041 0.667577
245.046086978342 1.12034
247.168321761716 0.650829
255.016560834392 1.49844
263.05561491173 0.676162
265.13836546081 1.70569
273.04002668952 3.24547
277.126568293423 1.18132
283.140052586624 1.1803
290.037813976618 2.09191
301.030576207666 0.698403
319.043296199847 100.0
319.218131981016 1.60006
319.275080291286 1.40684
319.352543236836 1.17511
319.458539382242 0.657698
319.504413940024 0.64977
319.650019321229 0.711473
320.008157881261 0.812252

>collision 40.0
39.0200538140856 3.42555
41.0406653913387 2.40695
43.0188414085161 49.5876
44.0505471408601 4.46819
45.0359395914132 2.31675
53.0373571678437 11.4971
55.0172958055783 3.17504
55.0543287086744 7.10378
57.0356412496979 2.43206
65.0385591379943 7.36957
67.0181554412508 8.02472
67.0553731585842 5.67653
68.9988338960829 27.7723
69.0331656338455 6.21085
69.0697960338943 10.225
73.0267764622573 2.22656
74.0966481828368 8.84163
77.0361380168907 2.58228
79.0197381426081 5.69127
79.0554548779026 4.2332
81.0677204810939 5.25713
83.047917621322 4.6332
83.0821481854611 4.54649
84.9609707419153 6.12476
91.0526174965382 4.43302
93.0538725356945 6.7561
95.0465909312534 3.5063
95.0870652311548 15.6487
96.0929340833058 4.1894
97.0282766034413 9.04814
97.0628971745242 13.4654
97.0981854337921 6.06347
97.6341837563113 2.26092
99.0427404501004 6.9818
102.043150777759 2.95603
107.084861599513 5.96509
108.021238691831 2.64792
109.030270728298 7.55661
109.065520118274 2.11746
111.006346136117 15.9499
111.042827647307 11.0431
111.075725391389 4.53659
111.641060572338 2.58036
113.093522969959 2.96667
115.049457402797 4.53145
119.088236116528 4.33773
121.034186906315 5.89784
121.09478581413 4.05661
121.120291689662 2.55371
123.043863480434 2.84934
123.079625507431 7.61135
125.020997085318 5.15574
126.031130217695 4.22791
126.06086939708 2.08967
127.040453336927 4.67269
131.084029402355 2.22114
133.105139423585 2.0214
135.081764091066 2.44963
137.022069178078 14.108
137.086903558857 3.02121
138.024420334835 3.56544
139.033989515726 2.39641
143.052382545194 2.0216
147.045364327625 3.59035
149.066077768067 3.27111
151.038568385453 1.99738
153.018138622496 100.0
159.113574330455 3.44622
160.935427780759 1.98431
161.023694106103 3.65929
161.051317834796 1.93134
165.015978203597 16.2859
167.139647251043 1.92903
171.049917011371 4.04972
175.038774124433 9.69412
179.030306347028 8.51481
179.065858581885 2.36251
181.004694062462 2.72994
189.054135574028 14.4456
195.024388005225 3.28682
200.040961514586 2.24746
203.034427046931 3.34281
207.024575077615 3.48859
211.023679070415 2.13608
216.042330857783 2.84934
217.047388115309 35.8507
217.334858968704 2.58419
217.478148359185 2.05046
219.028933786872 5.06902
219.109221871054 2.7518
221.012779666547 4.28142
227.030249928907 2.62099
229.045199309163 2.78835
234.052668715414 2.13808
235.061707086342 3.43662
245.043526457278 36.5794
255.02373192529 3.15626
263.047892510405 3.22316
273.033979554804 15.4409
289.038638526859 2.21882
290.045483909206 3.1602
319.043707444183 4.91583
319.758662288364 2.17527

