>compound Mibefradil
>formula C29H38FN3O3
>parentmass 496.296583127167
>charge 1

>ms1peaks
159.091110015526 0.719904
202.133005620011 2.32137
406.263341482901 1.27164
496.296055795821 100.0
496.568119275033 3.43863
497.295587406719 0.704576

>collision 10.0
159.09111094962 4.73611
190.133589873662 0.657226
202.133619610759 25.9921
406.265104384864 13.8445
496.296583127167 100.0
496.568353802584 3.84846

>collision 20.0
84.0815015174808 1.73817
135.060645382697 1.21402
157.076183039567 1.18843
159.09193559897 38.7915
159.2459728696 0.910476
161.076079265284 1.09863
175.091325306019 0.534599
190.134424692314 4.90529
202.134399453774 100.0
202.314723880738 3.69434
217.138463094733 1.34837
406.265705750359 36.1355
406.519268366991 0.500916
496.297113624262 24.569

>collision 40.0
69.0703555103847 0.809278
84.0811687084703 12.6699
131.059897803883 1.02309
135.059864734973 3.63017
147.059666509497 1.31421
157.075315168674 4.89299
159.091587194129 100.0
159.245933019237 5.7422
161.075500920504 3.74746
175.091269860205 2.12238
190.133921856547 1.0871
202.133422914936 16.9842
217.138338943196 0.790162

