>compound Stearamide
>formula C18H37NO
>parentmass 306.277373330391
>charge 1

>ms1peaks
265.103582685601 0.813127
306.198230944864 0.716999
306.27651863974 100.0
306.488748143923 0.570618
306.733236798744 0.833733
307.214255516005 0.577639
336.214255516 1.0e-13

>collision 10.0
101.002225097113 1.42472
199.059897092701 1.39355
246.63289532529 1.06914
265.024289367599 1.06291
306.160471514457 2.72304
306.277373330391 100.0
307.170839643047 0.898989
336.17083964305 1.0e-13

>collision 20.0
45.0365220025097 69.1654
89.0607210058163 66.8145
228.234492530022 62.8025
306.141316837518 68.1885
306.275733913911 100.0
335.27573391391 1.0e-13

