>compound PGD3
>formula C20H30O5
>parentmass 373.19858297968
>charge 1

>ms1peaks
373.198457345425 100.0
402.19845734543 1.0e-13

>collision 10.0
355.185899956369 1.04043
373.19858297968 100.0
402.19858297968 1.0e-13

>collision 20.0
355.187092258335 5.54431
373.198603002267 100.0
402.19860300227 1.0e-13

>collision 40.0
43.01586283504 47.4473
57.0691285760377 94.2078
79.055436744624 39.4268
91.0568888384081 53.754
93.0691969454626 30.5042
95.083151692839 29.7273
134.937207634106 62.276
157.873519185519 35.4066
167.086540695905 44.8023
254.247978216916 36.0017
283.258214487679 100.0
304.295443207671 31.5651
333.29544320767 1.0e-13

