>compound 4-Hydroxyindole
>formula C8H7NO
>parentmass 134.059964836548
>charge 1

>ms1peaks
42.0340142942257 0.503887
90.977180893877 0.80898
106.063032909432 0.57381
133.053349414498 10.9254
134.059558940456 100.0
135.059428342332 0.843508

>collision 10.0
41.0371370253516 0.989882
43.0171372855913 3.05732
64.9760084496967 1.21498
77.0414659228134 1.15697
79.0526132316421 4.0821
82.9589426533833 0.580318
83.0222417984149 0.712963
93.4953192945886 1.78906
97.9691065182236 0.585129
104.048264031649 1.32902
105.057459380241 2.74224
106.064376084936 17.9922
107.04815733266 4.22278
111.981399513455 0.62117
116.049641845675 9.3927
133.0523596168 11.7786
134.059964836548 100.0
134.15573156856 0.654642
134.321034217209 0.633075
134.451195306561 0.783296

>collision 20.0
48.4957489370524 3.62701
59.0503529308696 1.99804
64.977782405322 3.68492
70.0621603192602 1.7566
77.039089246847 29.158
78.0465349013983 8.00651
79.0553264913077 48.6577
80.0500049089717 3.14409
84.9584308490327 2.20829
89.0375375505631 13.9851
104.050116055942 27.2096
105.056239025996 15.0713
106.065137298361 100.0
106.509766506586 1.79518
107.048425797689 69.1582
116.050178460911 64.8441
116.311252140215 2.12832
117.056020043502 12.0955
133.052461899703 24.713
134.060265881636 62.8419
134.399477277525 2.02052
134.503382791409 2.01831

>collision 40.0
39.0221758245834 3.00266
42.0338013977071 3.03414
43.0157495751602 1.43517
51.023141925989 23.8154
52.030007411437 3.18899
53.0392540873242 2.82973
55.018740677884 4.88181
57.0323313385005 2.3808
61.9305208734914 1.08349
62.0164982710658 1.1965
62.9823573204279 1.50276
63.0230479134525 6.12856
67.0426679374442 1.75849
70.06064911405 1.59558
77.0386491688738 100.0
78.0435074619954 7.13536
79.0546096941908 15.5873
81.0324784382443 1.62254
88.0334652345753 3.90888
89.0405218941612 17.1471
90.0446581171639 3.86802
102.956320259954 2.20612
104.048687703714 10.7131
106.064178928415 4.19935
107.049539183171 3.86491
116.05096396581 3.00282
117.058033948916 7.88607
132.040087737446 1.98614
133.055823800106 1.93656

