>compound ADP
>formula C10H15N5O10P2
>parentmass 428.035282756558
>charge 1

>ms1peaks
136.062674696377 7.71708
337.953459759403 1.29841
427.035247028693 1.14894
427.203071701784 3.555
427.293272122938 1.80215
427.859921066049 1.79712
428.035875105033 100.0
428.259281707501 1.58208
428.748716762468 1.44251

>collision 10.0
38.9650395377355 3.43648
69.067503821681 3.32534
136.062082280306 76.0084
155.103292802937 3.72759
187.069193391426 5.15231
330.055503826577 2.44453
348.072256882558 8.47664
366.631883193384 2.64481
387.002222447506 3.67527
428.035282756558 100.0
428.142952813171 2.65192
428.188459395783 2.68065
428.386328717493 6.64241

>collision 20.0
59.0581238908657 5.93678
136.061512936824 100.0
232.080924562593 2.4614
324.307911644957 1.54175
330.052221698062 1.87213
348.068978364916 15.3472
428.035085968052 7.01358

>collision 40.0
58.0648108616592 1.6908
97.0295607756795 8.63228
119.028940372373 2.49395
136.060823886521 100.0
231.900370587876 1.94387

