>compound D-4-Hydroxyphenylglycine
>formula C8H9NO3
>parentmass 168.065011190187
>charge 1

>ms1peaks
95.0494406164588 0.801434
123.044293701558 1.77792
151.038844836628 100.0
151.15229136018 0.756719
168.065011190187 23.5771

>collision 10.0
77.0387879574501 1.44497
95.0490782881154 6.29072
123.044061698711 26.1457
151.038836180253 100.0
151.152249339961 0.732804

>collision 20.0
51.0230337021898 0.591764
67.0544164372163 2.66865
68.9984899854544 0.791089
77.039137038974 20.9642
79.0552832386804 1.12751
95.0493028759717 93.3111
123.043792985807 100.0
151.038798967993 21.0354

>collision 40.0
41.038789011404 5.95489
43.0178322047791 0.525822
51.0232280123476 12.7835
55.0184433335985 3.40259
65.0389981651386 4.15973
67.0549752892247 7.08189
68.9976912416703 1.27396
77.0391199067093 100.0
94.0416577919162 0.758663
95.0491434470637 18.3685
123.042831353044 1.11445

