>compound 5'-CMP
>formula C9H14N3O8P
>parentmass 324.058005899891
>charge 1

>ms1peaks
56.9464388424121 1.06313
63.4951665075955 1.06051
67.3616028212771 0.966534
112.050230002621 34.9957
112.116248034537 0.989505
112.150273183843 0.954656
234.955745110034 0.943227
305.51539330856 0.960055
323.294176760753 2.43548
323.889243750893 1.03368
324.058005899891 100.0
324.146175545118 3.97114
324.175456860425 3.6885
324.214879404641 1.90948
324.272508090311 0.950239
324.359930407733 1.19565
324.646654837419 0.979408
324.80986064873 1.65002
324.919987637679 2.01509

>collision 10.0
95.021433149466 1.06667
97.0286217600761 1.96165
112.050061972717 100.0
112.126456133362 1.31234
112.146199965435 1.62913
112.171923146975 0.835999
112.191619764076 0.502744
112.223121630222 0.857192
112.254202339703 0.634859
112.364498642146 0.521364
112.568579518427 0.532004
112.676620254915 0.630788
324.060736579853 3.35947

>collision 20.0
52.0158237915392 0.695967
69.0425144695421 1.71686
80.0920629848122 0.674617
94.0434333013948 0.836745
95.0165922942987 0.677774
97.0290083588828 5.26006
112.050180104907 100.0
112.124265682242 1.62859
112.146518172203 2.29203
112.178455236272 0.853901
112.241010392605 0.609315
112.501774738839 0.609512

>collision 40.0
67.0307287644757 0.622664
68.0136820278732 2.18577
69.0460508132335 2.76555
74.0965365923307 1.30477
94.0405295602696 2.86752
95.0241322725842 6.88833
97.0277027016864 6.07477
112.049820719967 100.0
112.121616976661 2.06402
112.149083110375 1.88253
112.175435873339 0.885471
112.20655658825 0.737892
112.594552576821 0.578818
193.365800254806 0.685759

