>compound L-Carnitine
>formula C7H15NO3
>parentmass 162.11252328684
>charge 1

>ms1peaks
60.0819846440632 0.57635
103.039473494104 0.567308
162.112702724283 100.0
162.229014712585 5.20604
162.267509722289 2.09492
162.325100090295 0.741198
162.353894992399 0.692932
162.383976858253 0.909416

>collision 10.0
43.0184701444702 1.24795
60.0821042490801 11.1385
85.0291171658934 2.78854
102.091865227104 3.17023
103.039561585332 12.1563
162.11252328684 100.0
162.229292099101 4.97442
162.266827557814 1.93161
162.325248309497 0.623244
162.354033913012 0.573428
162.384219675939 0.771605

>collision 20.0
29.0389411474727 0.973466
41.0391990171024 3.24593
43.018597287088 51.1657
43.0790567930807 0.738276
44.0500937743596 0.9626
45.0577199186953 1.75289
57.0345591290474 16.7149
58.0661531027897 3.25756
59.0739842932056 4.73239
60.0818807475264 93.2909
60.1541450543214 2.22968
60.1740603071814 0.646674
61.029576128752 1.15996
85.029104108556 73.4032
85.114106651134 1.23937
102.092025898141 48.4344
102.184777293352 0.578641
103.039444217057 100.0
103.133719290761 2.44637
103.160492797194 0.68862
162.112979446611 55.2037
162.230544850434 0.745826

>collision 40.0
29.0025435497247 0.574005
29.0390247062092 2.11289
39.0238367354515 0.564842
41.0391769105492 3.46178
42.0343763997814 1.01222
43.0185589864097 100.0
43.0790082451975 1.68082
44.0500942957584 17.8163
45.0578109935099 19.7568
57.0345198545694 14.2469
58.0663360044044 90.5748
58.1363189199258 1.0625
59.0741043465062 26.1842
60.0819703971853 41.9785
61.0294754196656 2.01307
85.0291577004947 7.25072
102.091573237292 6.7173
103.039509441722 0.931563

