>compound N-formylanthranilic acid
>formula C8H7NO3
>parentmass 166.049411529646
>charge 1

>ms1peaks
40.9688517457743 0.549844
82.9419091055993 0.979038
92.050688896721 2.04227
120.043870339174 41.1266
123.513460433671 0.631754
124.013973667107 1.06677
138.054205089265 37.9012
144.524289622711 1.64078
145.523363001797 1.8511
147.030948552864 3.14646
148.039332560896 68.299
148.539407346952 0.658013
159.891897241641 0.65721
166.049411529646 100.0
166.288459302138 0.541915

>collision 10.0
56.9687587594136 0.672989
64.9779580630904 1.1843
65.0399277040475 1.26272
73.066510690955 0.781623
77.0377506709187 1.68674
92.0502375146298 5.13834
101.983338458187 0.513552
120.044391983777 100.0
120.327938202422 0.565659
120.403689669701 0.567851
130.026266019994 0.504442
138.054845085508 3.08238
146.023899466014 0.574168
147.027013022781 0.618012
148.038767321601 54.6102
165.081715322419 0.514639

>collision 20.0
39.0209213594405 0.817477
65.0386340352533 9.91135
66.0322042120221 0.531285
77.0397618047961 13.2556
79.0521785840843 0.794309
82.943823822104 0.778351
90.0306903170928 0.672522
92.0500506244648 37.268
93.0342606978105 1.50255
102.033535364659 0.611561
106.004153748083 1.05031
106.066193133744 0.797996
120.044288663469 100.0
121.046120684886 1.0202
130.029128535749 1.86611
146.025871364094 2.96657
148.039985341865 24.5948

>collision 40.0
39.0239721842091 6.62309
42.0325752220541 0.877385
51.0241294851179 8.98308
55.0164740376892 0.573069
58.0634271931477 0.834397
58.9608779668831 0.719511
60.9586229624891 1.91058
64.9770281627787 1.53515
65.0392934740031 100.0
66.0351991319467 3.75811
77.0389498475795 24.2909
90.0333481452265 3.36429
92.049781806972 42.9037
92.1842046893296 0.726808
102.035565788994 1.33771
103.05464090266 2.63498
120.043297805267 3.82129

