>compound Ajmaline
>formula C20H26N2O2
>parentmass 327.204962118401
>charge 1

>ms1peaks
327.208990011565 100.0
327.364927009162 5.9526
327.449111970215 2.55502
327.589179977287 1.59435
327.643458387311 1.12214
327.720068722299 1.04913
327.762145079786 1.04066
327.803466399617 0.968575
327.892759954905 0.846426
327.929710026842 0.785345
327.981015993851 0.753121
328.079394353276 0.630297

>collision 10.0
327.204962118401 100.0
327.363684603398 6.05969
327.447465895354 2.73004
327.586931131142 1.67186
327.661728937519 1.12767
327.760652535969 1.0625
327.800325353749 0.988572
327.845054464932 0.880424
327.891633459495 0.839363
327.931784836762 0.788936
327.972268778579 0.751983
328.01177298258 0.709517
328.079474843941 0.639597

>collision 20.0
110.096674976507 0.733638
138.091681597993 0.575995
144.080959287925 0.89225
158.096599000353 1.02985
212.107438420651 0.773036
238.127005146133 0.545514
309.197005801274 0.683458
327.208532322344 100.0
327.364091515901 5.84185
327.446096973441 2.59315
327.588862624807 1.53174
327.644946266251 1.13214
327.719392687253 1.05337
327.762220381283 1.01796
327.800482822494 0.941522
327.895084151438 0.829182
327.981472627715 0.737973
328.079917994618 0.622682

>collision 40.0
41.0394564654915 0.846584
42.034890165151 2.028
43.0187931887722 1.3005
43.0549625944568 0.935198
44.0502481078431 1.19891
53.039452926801 0.609741
55.0187359093727 0.779694
55.0549485287236 3.59999
56.0502850075186 6.56063
57.0345490628272 2.65466
58.06570003917 0.508011
67.0544794727649 2.8262
68.0502059391977 1.47621
69.0341790516511 1.20872
69.0698856571135 1.16108
70.0657064109358 0.778262
71.0495907575666 0.594305
72.0449563619298 1.20449
72.081143076254 2.54438
77.038939815367 1.97983
79.0547408116946 5.12271
80.0499699433916 12.8093
81.06975221271 7.49044
82.0656671626634 6.22842
83.0497638308603 1.26711
84.0448963397192 2.71555
84.0806509599575 2.40341
91.0546872203135 5.42613
93.0693809578167 5.81246
94.0655025630157 2.74648
95.0833223373482 1.86453
96.081038520934 1.72933
97.0652511269117 0.763435
98.0965741649772 1.88975
100.075588421165 0.523001
103.054164891345 0.655947
105.069959661926 2.51339
106.065255596927 4.28958
107.081798030917 4.17434
108.080842700003 9.321
109.066606912503 4.05014
110.060022534678 6.67182
110.0961763061 20.6042
111.080312409771 2.80842
115.053883034007 1.21955
117.063054632666 2.43742
118.06504565279 5.0502
119.082160577259 1.75026
120.080518523714 5.89357
121.08986339629 0.651024
122.096039681965 2.55427
123.08016430157 0.81386
124.098389460351 0.706623
126.091315923836 1.75076
128.057341596089 0.820613
129.068940520698 1.1258
130.065216963431 7.73503
131.073478480932 7.43651
132.080498137392 8.20341
133.098554538045 1.2868
134.096021692044 3.24566
135.086422275019 0.659918
136.075568900583 3.68045
136.108423379805 1.68474
138.091183434774 10.2854
142.066992779501 1.21262
143.073990878651 5.2114
144.0806260313 79.1892
144.18898964478 2.53238
144.226623940889 1.08477
145.08899433071 5.9013
146.095399435872 10.8147
147.083829574096 0.601574
148.088375077984 1.19103
150.103645980952 0.546303
152.105951661555 1.05445
154.075282890415 0.803804
155.074736602177 0.848119
156.083890304285 2.40605
157.088284505591 12.725
158.096256567533 78.0879
158.21036252367 2.67944
158.247050918849 1.09888
159.094076973222 1.75546
160.0909745386 2.2835
162.091114154543 3.20444
164.106625439427 1.97618
167.073297474297 7.74031
168.08050995158 7.95444
169.087755230495 7.31019
170.095594607175 16.0241
171.100498030104 3.9563
172.103589690428 8.43307
173.085109394013 4.18884
174.091266002536 7.41358
176.106512203912 0.645073
178.121582887702 0.525637
179.081904022241 0.593293
180.082210004973 2.83566
181.087948627225 7.38538
182.096607111131 29.9466
182.216482767768 0.713045
183.101293202534 5.61796
184.111607085094 18.5384
185.106452600691 6.1885
186.09399007957 2.26652
188.106120320362 0.631211
193.089252366817 1.81046
194.096144844143 22.4252
195.10348665523 8.43644
196.110594187246 11.3295
197.102821044308 2.79332
198.117746419867 2.94214
199.121151104992 1.34883
200.108208707942 1.86616
204.080911784579 1.13583
205.08834966292 2.82395
206.095996684234 1.66376
207.1026162627 2.5331
208.111399106023 9.23403
209.116511029167 4.07918
210.127207743917 29.306
210.258223871929 0.718543
211.119794438425 3.67135
212.108225081485 10.5686
213.113951882741 0.511136
218.096003510703 1.35136
219.103116549774 1.52549
220.111756980595 14.1326
221.114177069627 3.34098
222.125699458945 7.4227
223.126784109004 3.46419
224.129909408976 1.76236
225.14606554495 0.777417
226.129391281603 6.10604
228.13779754669 0.780203
231.103993492825 0.67921
232.111802834224 1.06961
233.116859288483 1.33219
234.126216774543 1.93803
235.124764260948 7.08361
236.139680912462 3.51265
237.139172007407 9.88577
238.131446206967 11.3117
239.153877263326 13.6992
240.138778858025 1.31866
244.112349031007 0.628335
245.119048811805 1.36812
246.128096620372 0.861792
247.125802815875 1.02153
248.140954975344 2.22561
249.144483848235 0.792299
250.149512802826 0.827498
251.140342452187 0.657141
252.168057707416 1.09661
254.156629873646 1.35386
255.148670870202 2.77467
259.134329729988 0.658907
261.138483224548 1.2201
262.152841932363 2.0749
263.153766935046 1.8183
264.168136064756 2.9174
265.167660780367 0.849585
266.154051252308 2.36862
274.158485770148 1.79679
276.159791854189 0.535011
279.183672309487 0.7095
280.169291422363 1.20026
281.193413809815 0.668709
282.184465000596 1.31773
291.185175019041 3.71243
292.169597495045 2.13246
307.180164212703 0.606763
309.196149768508 4.96043
310.180436255457 2.11656
327.20678605017 100.0
327.366725036178 3.4947
327.426977138447 1.50198
327.50561339258 0.723208
327.589394335889 0.67346
327.686584212462 0.549821
327.804001288435 0.511701
327.83596883336 0.502207

