>compound Midazolam
>formula C18H13ClFN3
>parentmass 326.08574457373
>charge 1

>ms1peaks
326.085066943585 100.0
326.306388293449 3.38549

>collision 10.0
291.116541485573 1.24218
326.08574457373 100.0
326.307823016593 4.09119

>collision 20.0
209.061921670786 0.769252
244.030969144715 3.09421
249.080412056413 1.0562
258.047089036455 0.509334
285.05662804613 1.66771
290.107927578798 2.65288
291.114490294574 11.9624
309.056866378849 0.548844
326.084066443372 100.0
326.304345665669 3.78655

>collision 40.0
42.035020475624 2.83333
54.0350932092282 0.792249
55.0425045851915 3.16445
75.0225904313745 0.511593
95.057475703559 2.03338
101.038473524909 1.39809
102.046023510403 2.59237
109.044738575803 0.934149
110.999029047951 1.34167
115.054356745638 0.517799
121.044926201616 1.41961
122.039122865511 0.683003
126.033018960338 0.512646
127.040339467794 0.581557
128.048868901865 4.84713
129.057130949571 13.7304
135.994239323846 0.971671
137.015740118532 2.20383
143.071787422158 0.678821
146.040270136651 0.969842
147.047018723563 2.13693
148.054961837274 1.88816
152.026144002518 2.27016
153.045520026687 1.15353
155.059657560899 1.35616
162.009957910095 2.83254
162.06987611339 0.53105
163.012202273973 3.25252
164.026126529027 3.63443
169.075507783433 1.39647
170.082979923587 4.40103
173.049868087197 0.824652
174.059295587288 0.721467
175.053990784566 0.546895
177.040772116942 0.906566
178.041186783139 0.816608
182.051683981671 4.22463
183.059956289361 6.95937
184.067960986186 2.92122
187.066249179587 0.605419
189.020317347519 9.30635
189.077215468558 1.74927
195.073538665835 0.760505
196.06803572146 5.76052
201.058120453547 0.503664
202.065174898072 2.18485
203.068854538601 2.22997
204.074050061879 0.69422
205.051975804604 2.36809
208.055152811822 10.0154
209.062471435814 46.8018
210.070760189553 0.852063
214.075480298631 1.05958
215.08454323507 1.61898
217.021732616383 3.31121
221.062675387533 0.877004
222.070227719027 15.0457
223.078182786383 41.1283
224.026566876517 1.40859
224.085090563981 1.09143
229.075615357729 3.98416
230.054301745742 2.88156
231.056081675014 2.62583
232.038734308041 0.914907
233.063958834878 0.871117
236.08043884084 1.16687
237.092562076725 1.79689
238.041074779707 1.12795
242.015775748467 0.650773
243.091048138371 3.11048
244.031872272102 17.6988
245.039949675972 2.16159
248.077247388915 0.621496
249.082073215548 48.3957
250.089316916706 17.2701
251.095867044784 1.11464
253.075540721641 0.594135
256.031745159759 0.78046
257.033978530388 3.93371
258.047562980233 13.1194
261.081458164729 0.547603
263.096847211062 3.17975
264.103628574609 0.985869
265.050654997426 5.25045
268.031098326782 1.24901
270.101338505253 3.27777
271.106698363969 1.61292
272.056344502491 0.60382
273.07699078409 1.94036
274.088630848742 1.02292
275.089078301277 0.508705
276.09259966095 2.80396
282.044582705671 0.682766
283.042558367136 1.54709
284.050384237248 6.35294
285.058549773095 10.004
288.092624728049 0.811221
289.052489944394 7.32704
290.108082725841 11.331
291.115703953393 100.0
291.323614342854 1.19856
297.058200679942 1.47956
299.0739440288 1.54311
306.078088107963 1.24458
307.041985221662 1.6421
308.048418808918 0.643829
309.058396126412 6.95844
310.060458487227 0.642224
311.061581587855 1.97436
325.076996557132 3.98819
326.084723066382 7.76933

