>compound (4Z,7Z,10Z,13Z,16Z,19Z)-4,7,10,13,1 6,19-Docosahexaenoic acid
>formula C22H32O2
>parentmass 329.246202567242
>charge 1

>ms1peaks
81.0693499482003 0.511969
105.066472371676 0.515141
109.100390631977 0.697859
117.070870159887 0.520294
119.08162776049 0.623633
121.097977790282 0.668676
133.099312492413 1.04198
149.134515869047 0.660282
153.091572650258 0.57404
163.143221056786 0.628775
173.132289421069 0.519025
175.148468483392 0.534357
189.161030290762 0.721745
193.118908526883 0.683174
205.119979239536 0.523708
207.137930613829 0.713283
215.175520538531 1.14107
219.137040386367 0.694476
269.226576274167 0.677688
293.230915579526 1.191
310.22197948591 0.591169
311.234765738707 4.75996
328.235259712881 8.08385
329.246745360211 100.0
329.410461063411 1.91744
329.463375961847 0.881337
329.577041833147 0.659811
329.640093708553 0.737849
329.771291617145 0.607252
329.869193978567 0.579596

>collision 10.0
55.0164517017841 0.535696
55.0544429786892 0.947585
57.067568312551 0.535708
67.0533419936066 1.41692
69.0712102224262 1.28002
77.0356074346125 0.551285
79.0536493337595 2.11412
81.0713199963287 3.0405
83.0844391435123 0.500677
91.0544526742967 3.01787
93.0686575823255 3.4173
95.0852247061534 2.45467
97.0642113911958 0.743872
97.0987917643825 0.757562
105.068766048582 1.85798
107.085319783448 1.5447
109.098813095961 4.18399
110.101023890581 0.532754
111.078928397452 0.523883
115.073902585744 0.572826
117.071653772402 2.35156
119.083372013722 3.46009
121.100888544934 2.7046
123.11462165623 2.89785
127.074188539915 0.764811
131.084641310441 3.18156
133.099404375332 5.78836
135.112827104914 2.59929
137.133949309587 0.610801
139.074891212089 0.806916
141.065425275799 0.682816
143.08686309223 0.67111
145.102708668347 1.73899
147.11411312078 2.40961
149.132137273716 4.02824
150.136863323859 0.737113
151.107096247199 0.551594
153.090481577922 2.20927
155.077966790751 0.749687
157.099348436746 0.861208
159.115829806905 0.802388
161.130276465988 4.15348
163.072791844264 0.561002
163.147641770491 5.7788
165.088361998638 0.770991
167.103561484033 0.791941
168.099481798122 0.543184
169.104484809152 1.24136
171.111914863878 0.894038
173.131891037402 2.63876
175.147575900703 5.95037
177.162994068137 0.753967
179.10799162879 1.15582
181.117311341331 1.26378
183.118333169194 1.2166
185.123390908652 0.888937
187.149293278731 2.61836
189.126226264229 1.58195
189.165485031771 1.26418
191.104573522284 1.00513
191.173640322658 0.639052
193.123172440537 2.33664
195.13543581537 1.38239
197.138308436876 0.605535
199.118277484522 1.27409
201.161838247836 3.20475
203.182738564619 1.58241
205.117983858035 1.81044
207.136835070158 2.61225
209.141610701924 0.527806
211.14481453555 0.534596
213.137023147121 0.870497
215.17389598109 5.8867
218.114763102487 0.60931
219.142267749679 1.81911
221.156065447601 1.04777
227.168482823514 0.646022
229.161741441571 0.717622
231.130202274668 0.558708
233.151916382649 1.62911
235.164871384171 1.40649
241.159265156267 0.611558
245.151382749705 2.64493
247.167959099544 2.87591
251.183761764582 0.592745
255.1657733942 0.56796
259.169365324622 3.21245
265.197729327362 1.3676
269.225375550273 2.07397
273.18167638926 1.964
283.201366880798 2.62437
287.197049814647 1.14845
293.225367946618 4.90697
301.212493576897 0.722439
311.234703532608 15.6941
328.230210832915 7.68583
329.246202567242 100.0
329.403360212513 1.93195
329.461327142086 1.07604
329.552165669529 0.928311
329.614875145557 0.537283
329.902484518787 0.63486
330.111696477777 1.13601

>collision 20.0
41.0405323877062 5.17924
43.0606785852761 2.01997
47.4966518271474 2.17133
55.0554949243696 8.42793
57.0700340051215 5.43704
67.0532396618987 63.3562
67.1031828727656 2.15707
67.1580958293082 1.92703
69.0704664899097 10.2304
71.0485777108269 6.33955
71.0832989961457 2.48793
77.0376266381299 6.5428
79.054427760691 32.0333
79.1239726743406 1.75713
81.069594772824 40.9536
83.0874014807578 4.46983
91.053436891815 28.4101
91.3406015276619 2.60649
93.0700439410266 64.4324
93.1557680400278 2.15211
95.047941542247 2.34569
95.084660990139 58.5399
96.088717275693 4.87163
97.0590312380107 2.22976
97.1011627844187 3.00038
99.0454903929718 3.44525
101.054585220642 2.02058
105.068212494742 26.2899
107.046607878834 3.03124
107.085541433987 35.3693
109.100233575928 37.0572
111.083075193258 1.87843
113.016187607472 2.37063
117.070329578026 25.7047
118.076189292243 2.14615
119.084766858499 50.8252
120.481762153746 2.06767
121.100170245087 40.2313
123.114080924643 15.2786
129.071810884317 9.17295
130.069819087055 3.76576
131.084687224362 53.4196
132.087985767347 8.56062
133.100038840519 39.4812
135.103079769902 25.9643
137.118290831504 6.13097
141.066920553728 6.77313
143.083138431927 20.4847
144.083098100997 10.3083
144.111080799555 1.94755
145.098885506295 45.8491
147.118160371632 30.2182
148.083843801 3.38003
149.128833434134 23.261
151.068520860804 6.89358
153.017815889771 1.87826
153.094905181267 2.48062
155.084094520744 3.7029
157.098831744437 14.6579
158.110980280563 1.98596
159.113591132846 29.3876
161.131250158356 34.3621
162.134339857434 2.12461
163.073698707938 4.01003
163.145949794126 28.6665
163.223123912743 1.8482
163.452400097813 1.81432
165.061383231614 3.12314
167.100144037748 4.50312
167.41041961872 2.10925
169.100968699407 11.0931
171.114683796736 20.3357
173.129618510698 27.1979
175.143399165255 32.5095
177.114485306882 5.05357
179.101052566977 9.04016
181.109487926301 14.4203
183.118783601774 8.46077
184.11644582737 2.93897
185.133067013324 13.5286
186.136057759312 2.67616
187.139482656684 19.7076
189.160114692454 6.46076
191.104536185634 5.71257
193.125614576777 7.69479
195.121591373877 5.807
196.126516862095 2.47239
196.303413286098 2.03594
197.128274290974 9.11808
199.146915497339 13.9996
200.140646359747 4.93301
201.162202878057 23.046
202.177291193551 3.49626
203.060593729224 1.81528
203.162380884239 8.21539
205.115781317565 8.35883
207.138294490988 20.7393
209.141033522732 5.92512
210.267008809849 1.76181
211.151418430261 6.68924
213.143306369209 8.20353
215.178866778751 15.9669
217.121400685925 1.93475
219.133274986049 5.13825
221.151912943612 9.55328
222.137711755875 2.18041
223.146875575729 6.68203
227.164602962214 10.8288
227.219859273443 1.78988
229.19674545407 4.9245
230.120099901366 1.83303
231.12463578484 2.00242
233.15238373577 8.1803
235.174301264999 3.88152
237.15964690088 5.7104
241.164736857272 5.52996
245.15458381214 8.28063
247.169379124802 12.7728
249.897160152703 2.76618
251.174889015178 6.58727
253.18449966663 4.09809
255.184761010735 5.19187
259.162271199819 8.70448
261.180070780916 2.64429
263.181319732592 4.44329
265.192833874922 6.27875
266.206933503031 3.02482
267.207083058903 6.53453
268.21255967303 2.19735
269.22560602259 23.1468
273.184531765377 10.0894
283.20859170524 7.75345
287.196707670116 4.96468
293.148482090061 3.01802
293.227231240629 18.3974
311.234431043412 20.059
328.23229293258 6.18845
329.244795932517 100.0
329.762517596049 2.2438

>collision 40.0
41.0392594895623 12.8278
43.0201048962583 2.86104
43.0542291568319 8.32237
43.0733438529755 1.53008
53.0383180722746 4.57004
55.0177330400732 10.1057
55.0539543015024 26.4392
55.1073313814715 1.36521
57.030989623801 3.10029
57.0723430047391 5.03797
59.053550528622 1.05769
65.0358385390259 1.41304
67.0537848842577 57.3629
67.1262180120066 1.10329
69.071304373906 7.65206
71.0492458527523 5.21287
73.065017867502 1.80925
77.0377119802925 20.931
79.0544869714515 54.4923
79.1395924447047 1.12765
79.9801151098542 1.39108
80.053088296608 2.8766
81.0694407379102 44.5481
83.0826778783932 3.10773
85.0646022161657 1.36711
91.0538212208438 100.0
91.1164094171136 2.50356
91.1410262287226 2.36556
91.3964940056693 1.66616
91.6578482588971 1.18444
93.0686578089954 77.4254
93.1588148025275 1.22841
93.5376480613542 1.05333
94.0720074079389 5.24756
95.084476130841 26.1736
96.089168183721 1.52873
103.054571172254 2.70036
105.069537398107 39.4149
105.137162639973 1.45064
106.074521676527 1.15584
107.085116225702 16.9031
109.101773145235 10.2851
109.145088311882 1.00392
111.037072793807 1.33049
115.053812123952 6.34867
116.05874706049 3.66103
117.069066301815 31.5931
118.07252727397 2.06257
119.083241238304 49.24
119.144123776324 2.88177
120.087834085891 1.40539
121.10015742275 7.38402
128.061300032261 7.49592
129.068186500126 12.2178
130.075452837252 3.28015
131.083542376838 39.4756
132.088711393969 1.26234
133.100436756377 16.5997
135.113353852164 7.53204
141.071972122698 6.40245
142.073196206282 3.81607
143.085188539509 17.5264
144.086106397019 2.81882
145.099291390695 31.4848
147.112931494939 8.34369
149.089818434842 1.20363
152.060013371061 1.18612
155.085230971027 2.9715
156.087462890596 1.64792
157.060349342623 1.01943
157.100192850935 9.75371
158.108656589274 1.23415
159.11489843577 12.942
161.128347585833 7.34628
163.145159211171 4.20129
165.095049843646 1.23791
167.080145862111 2.41219
169.099243903062 4.49147
170.103609826117 1.67268
171.11442564976 6.85477
172.122833107854 2.4127
173.132431949313 8.73131
175.144798809214 3.32455
177.055857542476 1.01667
181.097658764101 3.2823
183.113414486724 3.61219
185.125902246268 2.91518
187.141159274977 2.78807
195.110209263391 1.35327
197.106769745281 1.73881
199.141790577692 2.68431
201.118601570504 1.86041
201.162606587776 4.11563
211.142988479799 1.01488
213.164763131884 1.27532
217.116825453736 1.08317
223.146806668748 3.39779
227.148483449017 1.46445
229.160152976752 1.02741

