>compound Malvidin
>formula C17H14O7
>parentmass 331.081083612957
>charge 1

>ms1peaks
331.081105227727 100.0
331.245698692228 0.859879

>collision 10.0
315.048163596766 0.631536
331.081083612957 100.0
331.244094279507 0.759205

>collision 20.0
178.026175635621 0.699457
242.056195967265 1.3572
270.050940219368 2.22022
286.047134330225 0.586931
287.053707305632 2.80499
298.048256635935 0.94329
299.054572303165 1.69032
315.050230270331 5.07749
316.056912291255 2.70099
331.080526542266 100.0
331.245384330432 0.633251

>collision 40.0
65.0398285815147 0.914081
66.045708506429 1.47805
68.0230138067634 0.728094
68.9978288054119 1.80453
81.0333703008545 0.923804
94.0402406767147 1.85271
95.0462403521594 0.505738
107.047348387584 0.706037
109.026354729753 0.632264
110.034884472425 0.848641
111.008625615899 0.884205
115.054002573717 1.10767
116.060305094192 0.505423
121.026968778179 2.36657
122.035520537771 5.70783
123.041295714338 0.951497
126.029367102816 0.695544
127.053323110927 1.0179
128.064258403008 0.529873
129.067125278827 1.43685
133.063625538106 0.557826
137.021866940655 1.8231
138.028575311369 1.25803
139.044191543607 1.27288
140.059755245125 0.524157
143.045712119913 1.35432
145.061416655335 0.529531
146.033937787409 0.559552
147.042657335069 1.33373
149.021871792807 2.27433
150.029713751193 10.8592
151.03744781089 2.18954
153.058353608324 0.512809
155.04696145593 0.727093
157.062924588166 1.92905
159.040164762149 0.674545
161.055548618748 1.26824
163.037883700908 0.551205
165.016771192219 4.14163
166.023936049481 1.1099
169.065267251518 0.917479
171.041390405719 1.77763
172.051884833539 1.03567
173.039269831584 1.05228
174.029236855518 1.08706
174.059694328749 0.64776
175.039460722319 1.38582
176.04367051406 1.67276
177.018682445944 1.62234
178.025126217996 5.20732
179.032868119296 8.09737
185.056553084137 3.4857
186.030152387436 0.588999
187.035802890831 1.70645
188.044386658425 0.987768
189.052519831949 2.14345
192.042298027378 0.824488
197.059371219572 1.77819
199.036223340347 0.554749
200.046090948126 3.04563
201.052784156085 9.46663
202.062277065141 5.90932
203.033061846555 7.59881
204.039916117472 0.744527
212.053140054966 0.552526
213.053481357498 16.0313
214.061520353136 6.1894
216.038110021597 2.73595
217.048705033027 3.39305
224.046475619014 1.18307
227.031291972013 3.48565
228.040902798543 1.69603
229.048024084328 8.71008
230.056613001996 2.84215
231.062394032431 1.48857
241.048893040738 19.2373
242.056678854164 48.0012
243.057260591898 1.18419
245.044026129406 12.7381
252.043868501554 0.606489
253.047454722893 3.66169
256.035483992719 0.502365
257.043464010293 6.37137
258.051648512431 5.5033
259.055974648421 2.82814
268.039689731591 0.878395
269.043736892636 19.1162
270.051204145643 15.3322
271.05974947257 1.0386
273.03784855917 7.23728
281.044250140181 1.69689
285.037044866167 3.75895
286.045982960907 9.20048
287.054341356691 60.625
288.063149136501 2.24186
297.038509565356 4.5094
298.045626555319 3.99764
299.053994577673 13.6973
313.032682913227 13.478
315.049658499971 100.0
315.183181740157 0.708794
315.598931145026 0.517662
316.058801762398 1.40898
331.080322255229 5.46507

