>compound Strychnine
>formula C21H22N2O2
>parentmass 335.175062716103
>charge 1

>ms1peaks
334.16162519112 0.509131
335.174741787834 100.0
335.401368564607 2.09989

>collision 10.0
335.175062716103 100.0
335.402346808776 1.97509

>collision 20.0
184.074556489836 0.638209
264.100915578628 0.598785
335.173597921217 100.0
335.398576176492 2.12118

>collision 40.0
55.0184481078771 3.16996
55.0559270710915 0.716763
56.0505130575908 2.53083
68.0510254108096 0.605976
69.034052346677 0.701298
70.065736451101 0.564355
71.0494585950494 0.507073
77.0386530185744 0.989857
79.0550882343411 1.83408
80.0490874930759 1.02464
81.0695181050119 1.40233
91.0547951644806 1.82562
93.0672952304812 2.13849
94.0657353177033 1.08101
95.0512456721462 1.1297
105.068399188416 0.740951
106.063279573374 0.99779
107.074369855551 0.542212
108.080400084188 2.45645
118.065228387915 0.661738
120.079447578936 0.605592
121.064576560232 0.932429
122.060169289864 1.90614
124.075760281341 1.7892
129.068816219028 3.24086
130.064678875992 1.92094
132.077568331669 0.587452
138.090582821004 0.508369
144.080390601583 5.71634
147.079259993292 0.519077
154.065065294718 1.14818
156.080522491499 11.2604
158.064497748426 0.670368
166.064868441963 0.968744
167.072416432412 0.645846
168.079346117292 2.05122
169.076991019162 0.79148
170.092021789216 1.36804
171.091167371516 0.882072
180.079432772568 1.27537
181.086231560907 0.709264
182.093141000965 1.43193
183.069587336649 0.667036
184.075220517958 39.6397
185.07949130971 0.582961
186.08597343754 0.59986
194.093595438846 4.51932
196.075947531077 2.1111
198.08960311514 3.46837
200.072803426189 0.524812
204.080057314773 1.25438
206.095966378687 2.18375
208.09901462943 0.746892
210.093076657411 1.03025
212.074580211779 0.843421
217.089853521819 0.934766
218.094500343559 1.69404
219.102931031487 0.700199
220.080417465677 5.20532
221.099068238585 0.627397
222.091154087772 9.32968
224.104633798 0.809654
230.092794308219 0.692794
232.108666942118 0.828764
233.112914674923 0.671911
234.092403487721 4.80613
236.111666101935 0.916269
238.104827554829 0.814898
244.112635919654 0.757181
246.097978352555 1.46117
248.105759464078 2.41957
249.115536264161 0.730213
250.119496557585 0.927436
260.107771600861 0.912872
261.113098016179 1.01873
262.122854675485 4.69632
263.119655179678 0.591672
264.101869952408 13.7704
266.116609834311 1.70091
272.106870699576 2.91901
274.120881561009 1.69255
278.132335851857 0.630439
280.131006995929 0.51028
288.136842175438 0.536702
289.133923538373 0.755832
290.121412233279 2.18627
291.149039631634 0.683466
292.133363726216 1.35657
306.148893707393 1.47782
307.144069476379 3.21946
335.174786202103 100.0
335.404849159375 0.728433

