>compound PGJ2
>formula C20H30O4
>parentmass 357.202258584148
>charge 1

>ms1peaks
275.956861424794 0.518158
277.976432173512 1.75061
339.186191462236 0.64159
355.977189854839 0.589844
356.17835826235 0.537906
357.202809545037 100.0
357.369221808259 1.84845
357.443543749298 0.981082
357.544584117814 0.905341
357.689043847389 0.938262
357.946918350478 0.864788
386.94691835048 1.0e-13

>collision 10.0
79.022562740217 0.694716
275.953296671558 0.584462
277.144909516386 0.538401
277.64628849438 1.02898
277.983602117382 2.09735
339.191593474277 2.80902
340.193794086674 0.551739
341.304326693146 0.737261
357.202258584148 100.0
357.36672443274 1.72002
357.482240383379 1.01896
357.595070712542 0.820856
357.727351004541 0.809621
357.840378401328 0.560684
357.888787686958 0.561665
386.88878768696 1.0e-13

>collision 20.0
57.0702513613998 0.951012
71.0873103383992 0.852163
81.9520089137154 0.760012
84.0758286157553 0.609738
85.1035074802983 1.31397
95.0805109588978 0.637608
105.511612152729 0.605762
112.990718911727 0.915589
123.122258320333 1.08282
131.001207732115 1.11409
133.95238235464 0.856331
134.951316244001 0.568726
150.948257717758 1.52955
153.933390657829 0.542135
171.983446081508 0.671147
197.949401896053 2.06055
199.136448602599 0.539266
199.959455456455 2.00841
209.014946016229 1.48778
229.120463311933 0.760604
230.124134463854 0.94885
238.145953925141 0.9995
238.648040073252 2.82129
239.649396499608 0.555202
277.970739939457 1.37328
339.193287287774 10.4524
339.280352734555 0.814425
340.205709060618 1.94691
341.191930208048 1.00999
356.349727432332 0.512616
357.207380847365 100.0
357.400455130784 1.05805
357.446993680915 1.20654
357.540992390237 1.01064
357.615738657441 0.906564
357.691045660066 1.23905
357.76226220745 0.96478
357.873582948982 0.882605
357.940064592409 0.970865
357.999773066425 0.646444
358.089082707645 0.576366
387.08908270764 1.0e-13

>collision 40.0
55.0556796575003 24.0648
55.9320141243235 16.0306
56.9630170568384 16.1866
57.0707143932924 100.0
58.0625377820585 13.9671
62.0156269340077 21.6431
63.0216530954695 8.13618
64.0013312124502 15.0811
67.0507300273144 22.1738
67.0704262833541 5.22995
69.0687550618839 7.77739
71.0850179239218 11.7204
72.084762731079 8.56599
72.9366961665729 8.83525
75.0419124104461 4.38263
79.0483718120004 16.2594
80.318087760141 5.03828
81.069208588279 35.0565
81.9447248041737 8.22579
82.9783330392337 10.4051
83.0838766596309 5.96379
85.0981576629888 16.0202
91.0544378499804 6.23437
95.087797016175 12.1591
97.0967589395242 10.9418
97.9935989600003 10.9304
98.9752646296183 13.8766
99.9579523402816 7.56563
100.983637891334 7.79838
102.088115497212 17.2933
103.006190066085 9.96899
103.920601920597 9.44404
105.012210096968 5.27103
105.662684325618 5.93276
109.980394928725 6.90177
112.991630467694 19.1299
115.94048049905 10.7853
118.923609096127 16.8429
120.909382732684 8.43821
121.910766888032 4.51802
125.97460238302 11.2639
127.988686935952 23.02
128.984705577512 11.1937
129.063960392413 4.50433
130.153639475836 7.4995
131.001182511921 60.8197
132.007115108326 6.68315
133.065049366832 6.29785
133.94596542288 32.6684
134.948286716127 11.5278
135.939300956797 36.5836
136.91986261274 9.7206
137.940767732282 8.04482
137.975959290035 11.3955
138.916159380708 16.1027
140.967854749933 4.49977
151.948212225284 5.9458
152.994979560456 5.42163
153.943124154098 15.0011
154.091983639178 9.87315
154.974015713285 9.20982
155.982309396386 5.33948
156.967352520808 4.96526
164.874629938392 4.73434
167.0942922626 4.45565
171.980218688484 7.68885
174.105377293339 5.36686
176.984006207819 5.06566
187.139298605178 5.58788
194.034541575045 4.84113
199.022282894307 5.55093
199.966572457611 8.21583
260.150917012555 4.51802
284.885695382877 5.48324
306.720576176025 4.49612
323.224887231835 4.9444
324.225284157933 5.65894
353.22528415793 1.0e-13

