>compound PGB2
>formula C20H30O4
>parentmass 335.221810518491
>charge 1

>ms1peaks
256.934770239353 0.681803
281.18573653231 0.766764
299.196179109558 4.83128
300.199193309312 0.851598
317.207256100723 41.2968
317.367641492319 0.931725
318.210734716362 7.45405
319.213526128707 0.741884
334.93205525698 0.516267
335.218064735556 100.0
335.382046263108 3.14464
335.447621610173 1.50068
335.612099353471 0.754886
335.701912629472 0.648824
335.741644636754 0.650716
335.790286584156 0.581688
335.830751945007 0.535597
335.865861381537 0.54361
335.936331563526 0.555339
336.221020765781 20.5768

>collision 10.0
71.0840598855672 1.50392
91.0525753403473 0.837772
99.079123489971 1.7211
133.063946268538 0.723105
155.083540382854 0.596356
157.099928072158 0.505256
167.083498225861 1.36919
173.123672964651 0.676898
178.918988704793 0.52049
183.11471203351 1.18317
185.09467095861 3.78397
186.09802759536 0.516351
193.099093010437 0.518333
201.12498837099 2.38971
203.132782016539 2.09241
207.116776103593 0.51881
211.112058231535 0.668234
215.141074141862 2.72459
219.136016345263 1.71791
221.148115196778 0.76928
233.15293479295 2.29438
239.176999517309 0.581797
253.193419468507 0.774913
256.928161429236 0.944434
257.190195948961 0.738751
258.921243862054 0.639425
263.178902702431 1.77048
271.203845124625 1.02734
281.18947248909 6.18364
282.193392055244 1.32469
299.200483082065 30.9088
299.351486956635 0.63968
300.204295729394 6.11924
301.204357546508 0.617069
317.212011734211 100.0
317.36682397727 2.6401
317.427551928144 1.34845
317.535136031916 0.751299
317.585487944329 0.801636
317.654447554004 0.759745
317.713183881528 0.649648
317.753809877754 0.637132
317.808544908368 0.598774
317.883139702358 0.555109
317.934202029035 0.509565
318.214868102438 20.0187
318.372422581428 0.691263
319.219956153451 2.16434
335.221810518491 13.4018

>collision 20.0
71.0831840373483 39.9046
99.0771751790605 31.4385
185.091976108242 54.022
281.18559411749 41.9616
299.196080186996 100.0
317.206605703923 56.9927

>collision 40.0
55.0530356215377 41.0553
67.0530284868739 49.2001
71.0844734270795 88.0407
79.052859390257 55.0575
81.0685004960053 46.8594
91.0529300696926 100.0
105.068260997753 74.4088
117.068129741895 39.712
129.067883969039 68.4483
143.083792205381 43.605
167.084195471264 47.217
185.095237995735 39.0361

