>compound Berberine
>formula C20H17NO4
>parentmass 336.123066863134
>charge 1

>ms1peaks
336.123066863134 100.0
336.284511780385 5.8035
336.357831798326 2.56832
336.464678444356 1.36228
336.511272135245 1.44301
336.574354592611 1.0312
336.643072306902 0.949521
336.68742854596 0.953567
336.726753924715 0.896277
336.770205917805 0.830241
336.819420712392 0.801315
336.857277164737 0.757645
336.923403709949 0.707101

>collision 10.0
292.095059455938 0.891692
320.09008903752 1.04942
321.097990168935 2.53508
336.119655642375 100.0
336.284782034106 5.8994
336.36920185753 2.57142
336.509847022786 1.50911
336.572780934079 0.992504
336.643290676685 0.940241
336.686007250915 0.941342
336.769346772074 0.78359
336.859244958095 0.708805
336.935575190151 0.633347
336.998673840687 0.591049

>collision 20.0
275.09512591346 0.553611
278.082261362647 0.816153
292.098537250552 9.64285
304.098175572456 1.81532
306.07790857111 3.36643
320.093756818612 10.6583
321.099410683871 26.8334
321.258131281368 1.16525
321.320951396713 0.50787
336.122709321196 100.0
336.284960169484 5.56021
336.355875542767 2.4593
336.465567945539 1.21945
336.511766123763 1.31105
336.577843415727 0.922102
336.645355887335 0.847558
336.686152077887 0.84215
336.728449742959 0.789407
336.820357549579 0.706121
336.857535260434 0.68106
336.921459411288 0.638648

>collision 40.0
220.075763516731 0.500375
234.091732839676 0.936395
248.07239796011 0.780499
249.079254329965 0.830019
262.087166383618 1.82785
263.091647493838 3.63172
264.102950076689 1.43915
274.086905764564 0.953077
275.095364666103 10.0463
276.101101205491 1.13115
277.074894370041 2.6232
278.080725751908 56.1151
278.228912672248 2.15665
278.284918602276 0.94202
289.074722489752 0.684601
290.08243898048 1.8364
291.090518068471 4.5287
292.096602011585 75.0682
292.247781832666 3.25965
292.307641417835 1.39464
292.418300335889 0.545421
292.459976047581 0.591135
304.098969933909 28.177
304.25098174604 0.846437
305.085047680591 0.574269
306.078185833023 28.3116
306.231265797031 0.874837
318.07805985925 21.8835
318.235424480073 0.582786
320.091260160181 100.0
320.250955942788 4.84424
320.313067585582 2.05013
320.425702986723 0.873777
320.471786361895 0.975215
320.559116812831 0.685672
320.643722632553 0.615471
320.721511823127 0.575023
320.773962815153 0.532226
320.850777159518 0.502715
321.101161958413 7.61105

