>compound 5-Aminoimidazole-4-carboxamide-1-&#38;beta;-D-ribofuranosyl 5'-monophosphate
>formula C9H15N4O8P
>parentmass 339.069944458923
>charge 1

>ms1peaks
36.8704751538566 0.752343
42.8231783457546 0.574053
79.0243642923948 1.02622
97.0264207889663 2.55221
97.049079540011 0.740606
98.981160845324 1.25178
110.034652574505 8.76089
110.085670964904 0.577287
127.060938779242 15.6484
127.16135305608 0.522809
128.04655863169 0.5698
140.047797530863 0.511709
152.039289678501 0.717767
188.050674548014 0.729322
198.112216324272 0.511709
205.068096970749 0.675231
206.057458798253 3.26141
259.065751496377 0.512705
261.131026786694 0.972322
303.054976968415 0.537252
304.037862038196 0.888133
308.088485650683 0.633677
322.045121722484 5.4029
338.106077287651 2.18315
339.070318719389 100.0
339.204880517144 3.14423
339.33538091059 0.855209
339.46349969254 0.673037
339.496158139582 0.501601
339.652693616475 0.692382
339.760551060967 0.622488
339.875365170471 0.797993
339.969646025277 0.950188

>collision 10.0
55.0308215430342 1.21102
79.0193839484489 3.21485
84.0504075118091 1.52009
97.029091416482 28.5889
110.034022340799 42.6054
110.598715690732 1.32582
127.060892925139 100.0
127.144583803443 1.8819
127.196906377987 0.908358
128.043396684422 13.6238
128.220652720412 0.907243
128.622197471016 0.930574
152.03555426987 1.20919
164.046520946971 2.8389
169.071267979968 0.935429
182.054085215664 1.24643
187.049345623364 1.00723
188.047467748348 1.87788
206.056344208296 35.3513
220.10230143597 0.976893
224.068321114846 3.07974
261.088836224793 1.79873
274.92067587996 1.16067
301.871524840478 1.23871
304.036021657672 2.02751
322.042885142658 24.0384
338.105318883757 2.81924
339.069944458923 63.553
339.24076094547 2.60566
339.276481765622 1.15616

>collision 20.0
26.2839863507242 0.744677
41.0404394771172 1.51635
55.029247836418 1.38812
79.0200903688077 1.71261
84.055461536724 1.05098
97.0283230178163 37.2633
97.10768369251 0.803513
98.9857635035486 1.248
107.061557050427 1.05549
110.035176488681 100.0
110.128148832349 1.72881
110.160152341163 0.917313
110.211246804744 1.18892
110.255925200015 0.966918
116.04840755621 0.835223
124.048840259414 0.740881
126.063210281099 1.20256
127.061430045403 34.2619
127.129765427446 1.30243
127.162951532413 0.742524
128.042095868173 3.88886
150.065681577288 0.799663
152.046702172478 2.96376
160.047094505233 2.38897
162.053159497102 0.964084
164.044490424914 3.21137
169.078264038724 0.725996
176.579335831108 1.00504
188.043612560524 5.21411
205.064302202409 0.930832
206.056832042677 9.9701
220.089494126762 1.66766
224.067073496186 2.80842
304.028120422579 1.68628
322.043732529656 4.54573
338.105178219656 1.32311

>collision 40.0
41.0392803346823 5.33304
50.7439290745324 0.64593
54.9738015411763 0.680335
55.0309117024711 4.41838
57.0324088757498 1.4695
69.0374258266162 3.30172
80.9742186613348 0.73711
81.0439263132687 1.09015
82.0433886903621 6.38021
94.0421756868345 1.12432
96.0569782436102 1.60399
97.0287062407378 31.4089
97.1221595063408 0.750043
98.9877165333562 1.81946
110.034626677799 100.0
110.103178102013 3.0629
110.166793897203 0.97741
110.208261612362 0.863863
110.313682261106 0.710663
110.454793689979 1.15192
110.693579613375 0.661228
110.723830837094 0.886504
111.411326427529 0.644971
112.058018219159 0.896053
124.050465964784 2.3495
136.055284877173 1.99419
137.049371626876 0.943335
144.051969466118 0.736143
149.058460710167 0.654312
150.060952845424 0.897687
152.046411459912 1.62579
164.045605394409 0.665376
226.089717425993 0.661815
324.396251887465 0.65608

