>compound cGMP
>formula C10H12N5O7P
>parentmass 346.05402913729
>charge 1

>ms1peaks
48.1634045576244 0.562463
65.1093933743182 0.551902
135.029452094094 1.66345
152.055703117347 19.387
152.143057693146 0.636909
153.054239437487 0.636354
275.218651243396 0.689688
343.919637068318 0.681403
346.054275089731 100.0
346.21479774884 1.9782
346.270687870547 1.6742
346.331306083578 0.904178
346.587863866344 1.24361
346.691656789196 0.671635
346.837743741485 0.783706

>collision 10.0
69.0320696521564 0.77972
110.034243847844 0.738159
125.521911435669 1.19586
135.02729218615 6.81164
152.055888289873 100.0
152.166977661316 1.22755
152.203320965494 1.02722
152.260087587077 0.762198
152.370485094419 0.696712
152.445645538554 0.661135
152.571064469098 0.661818
153.0570703559 0.891332
305.209194076518 0.806306
345.010358669794 1.29623
345.185185454944 1.30452
346.05402913729 95.773
346.21303208221 1.50168
346.278316214704 0.914469
346.329281173811 0.913932
346.439154484768 0.825669
346.574085973282 0.936101
346.785079242496 1.18488

>collision 20.0
110.033918475201 1.29623
135.03074154567 5.01912
152.056475610119 100.0
152.156754727776 1.68254
152.200542251713 0.741872
152.240866497661 0.93236
152.291940513111 0.571524
152.345218748138 0.596534
152.72392831644 0.515116
346.053778178931 2.98056

>collision 40.0
41.0407057493921 0.739752
43.0291871850632 1.15322
55.0309412713316 2.13016
69.0355406459941 1.79289
97.0272630745936 1.21413
98.9828884469456 1.66615
99.0029097626106 0.701816
109.050085528989 1.48862
110.034487299685 12.5781
134.046865900496 0.628612
135.029180224849 50.6769
135.164720117065 0.626063
135.727634878944 0.711354
152.056537649329 100.0
152.165646187319 1.24401
152.205533825599 0.570818
152.252134476336 0.915206
152.375901622693 0.857546
152.433506296284 1.13021
152.700660639181 0.930334
167.279119261221 0.697159
182.999623662775 0.635116
191.441753201815 0.742104

