>compound Camptothecin
>formula C20H16N2O4
>parentmass 349.119706059031
>charge 1

>ms1peaks
270.985485462312 0.853268
305.128815378469 0.935043
307.998126372434 0.5983
311.054161315671 1.05265
317.095435610493 0.508971
318.097363628813 0.5001
348.062568393901 0.781785
349.1189114387 100.0
349.399317428654 0.774473
349.542758241133 0.639584
349.795814628378 0.746813
350.108832410476 0.759701

>collision 10.0
250.054985983538 0.657518
270.995093574562 0.802853
303.108749137314 0.638654
305.131356758671 4.17345
317.095600945801 1.44739
349.119706059031 100.0
349.287254789991 1.32643
349.378290287363 0.686926
349.428685039479 0.687926
349.473710166003 0.656487
349.638922169413 0.670449
349.797840943389 0.584208
349.997560909119 0.69702

>collision 20.0
163.03475566069 0.794672
168.070450064305 0.606125
211.043108012985 0.651423
219.086827115435 1.01528
220.10120719651 1.31533
221.106033073705 0.598279
244.035571471639 0.746581
246.074970856141 0.91875
248.090258259602 1.78127
249.10079840527 2.52077
262.104704200532 0.553963
270.992987352644 0.610542
277.133301089457 1.78312
287.115328324683 0.926342
303.109370968221 1.59586
305.125667824927 53.6193
305.248763440744 0.954393
317.087424691065 1.28421
320.078150439371 4.13917
321.120499652999 0.786136
331.103391655408 0.846707
349.115649303243 100.0
349.336554576882 0.757879
349.638118170261 0.846074
349.802086551338 0.573225
349.908579162699 0.521371
350.07131131752 0.537162

>collision 40.0
27.6492767569201 1.84168
29.0401811612477 3.07986
29.2437402709918 1.21459
57.0339450523463 41.1676
66.2244141639242 1.32716
79.0187427350011 3.90477
90.4805490988759 1.81133
106.979841875083 2.17197
107.067987600106 2.49958
120.770348574658 1.50632
120.989925664831 1.25274
135.033671996513 1.6022
137.050250210937 1.20879
138.997015791501 3.50251
140.04652196373 1.44654
141.055722039452 1.55614
142.062506123579 2.02102
143.076727270701 3.37917
144.026465646698 2.02099
150.540577239612 1.84519
155.521576171037 2.18373
161.939362584011 2.01763
163.045893635176 1.52363
166.063198336014 1.9687
166.747076905045 1.96918
167.070632107086 4.06306
168.068680371972 44.9884
168.220440838173 1.36477
168.372771449958 1.35513
169.077060377482 2.6894
169.691882124082 1.99787
179.065304614656 2.22843
180.082720220972 6.40757
181.075270885816 27.6217
181.310786207088 1.25036
182.080406217917 2.89094
183.085566848581 2.50991
189.849372228601 1.4765
190.066117291395 1.90521
192.081470955338 6.67776
192.115143695988 1.80934
193.08280781483 6.97864
194.098024032042 6.76303
194.296829169254 1.20603
195.065269220149 1.61325
203.078928430961 2.53135
203.774094408157 2.05593
204.080169463645 10.7101
205.078258407192 27.5056
206.089240819533 39.0342
207.088905832687 6.68905
209.099995613033 1.81414
209.982741900148 1.71062
216.086651205036 1.53033
217.083310593835 7.51328
218.087248337228 13.1005
218.951555488378 1.4463
219.09165907117 100.0
219.188850804916 2.68014
219.308308428479 2.35416
219.976781277648 2.07974
220.100620654526 89.4149
220.232912453891 2.17573
220.375268331307 1.29548
220.490277708174 1.44307
220.730245302099 1.69498
221.106809008961 44.5017
221.193240157576 1.50695
221.2387737842 1.72471
221.274764034046 1.25812
221.552370118363 1.46226
222.095524471656 3.14404
225.829751460238 1.6704
229.076740315805 3.02269
230.08386823319 2.77123
230.969023167908 2.09728
231.089802718549 4.95113
232.109721630278 7.68568
233.099975323105 4.37429
234.102762287239 6.25868
235.089718174801 10.1964
235.767525578342 1.51591
236.73625372559 1.29824
242.100502915931 5.90411
243.086552056195 6.14516
244.098831123513 4.99669
245.100755001126 5.30758
246.083488050797 29.5776
247.089842995072 26.457
247.190185577249 2.12496
248.093557092402 78.8533
248.226417176425 1.51538
248.274274691716 1.48267
248.525323733882 1.39578
248.700251903353 1.57453
249.102705736204 73.217
249.289759377276 2.62117
249.348409818025 1.3566
249.532312390525 1.98392
255.090349986935 1.88311
257.117548878172 2.83096
259.12597365565 13.8148
260.105659477087 7.76688
261.119899727395 8.70364
262.111638711172 11.3438
263.080728050605 5.15337
264.098425379747 4.88213
271.075858465842 1.37602
272.094661881475 8.94418
272.139323888616 3.99996
274.071233159716 3.19878
275.112661967029 17.4698
275.213212010911 1.75295
276.104980380239 4.08841
277.133905857263 24.5742
285.108803039357 6.87936
287.112393311959 3.3716
288.084465891056 1.67569
289.097799967687 7.1292
290.100745418347 5.22273
291.113492718024 8.58892
292.089621353499 3.79812
302.069430690413 1.7052
303.107368397487 8.94813
305.130569755327 87.1417
305.255257192449 2.55877
305.672638196971 1.44558
305.784638663062 1.24145
306.070120742214 1.28083
316.077245395807 2.30748
319.073705958785 3.29812
320.078484355786 4.14985
322.571616349782 1.21459
323.144803978382 1.29375
331.090390720229 1.60555
349.105386406055 3.51691

