>compound PGE3
>formula C20H30O5
>parentmass 373.19837646341
>charge 1

>ms1peaks
373.198157841762 100.0
402.19815784176 1.0e-13

>collision 10.0
355.18818312346 0.780863
373.19837646341 100.0
402.19837646341 1.0e-13

>collision 20.0
355.186710720009 2.83151
373.198345471727 100.0
402.19834547173 1.0e-13

>collision 40.0
41.0379415387708 50.4102
44.0558621826108 41.6681
57.0699323417165 53.4614
59.0485046625525 31.3717
72.089733533713 80.8137
95.0828605257175 71.0373
109.098544204334 53.6937
143.58896137496 32.8639
172.859230562766 36.3806
219.853412717926 43.1015
283.260572436723 100.0
312.26057243672 1.0e-13

