>compound PGH2
>formula C20H32O5
>parentmass 335.221539655648
>charge -1

>ms1peaks
175.111271666455 3.81566
207.104912082626 0.637011
217.121586943447 1.87933
225.114110696852 0.50442
235.132845594381 9.98074
239.182664279911 0.51751
257.189940748898 1.71645
265.21531711789 0.82556
271.204779794242 0.71636
275.201536458494 1.24215
281.190967444374 1.09767
289.2177219623 0.52176
299.200358477833 5.47149
317.211046597395 18.2717
334.275124310347 0.626031
335.221676836005 100.0
335.384466424722 1.73562
335.450300209303 0.875918
335.562162543739 0.560416
335.705263420207 0.603433
335.83649542441 0.551537
336.83649542441 1.0e-13

>collision 10.0
43.0193772976737 2.21623
43.0549109228812 1.19227
55.0182758611459 0.562321
55.0543728150577 1.72916
57.070360924082 1.4342
67.0553733388014 1.57946
69.0693151014574 0.913622
71.0120833980106 0.581438
71.0478033290829 0.521304
71.08667177284 0.617631
77.0360496371577 0.795512
79.0536824638382 1.37646
81.0707282107384 3.61741
83.0494343844435 0.977778
83.0844442526615 0.560485
85.0657543730351 1.35628
85.0999892023756 0.776282
91.0548601914085 1.45212
93.067653009173 2.60076
95.0486850734708 0.567524
95.0860495326073 2.07675
97.0633660361865 1.24766
97.102442367196 1.04612
99.0807484533033 0.707271
105.070037819321 2.59161
107.086640010934 1.99007
109.098486572309 2.51213
111.082965553413 0.557943
117.070631370653 1.67474
119.085415223616 2.79296
121.096747910633 1.24124
123.079621085128 1.17779
123.115113536542 0.994339
125.09575337299 0.604106
127.079071126929 0.989396
129.069023706815 1.35182
131.085178595583 4.61435
133.062135691755 1.17079
133.10148961869 4.60749
135.07929371788 0.88224
135.117560644389 1.37471
137.062901968483 0.751384
137.12691927319 0.681451
141.070008454445 1.32099
143.083983445316 1.63252
145.099692329678 3.75291
147.111133461319 7.08529
149.093309006548 1.91979
149.128606054975 1.22075
151.1011346834 2.91906
155.086680844339 1.40028
157.101643832518 8.68286
159.094493568236 3.08023
161.097566326469 3.64216
163.075001799774 1.20482
163.140731340997 1.34672
165.088870379047 1.6907
167.101987091394 0.731518
169.10019824373 2.85048
171.114251809196 7.07394
173.115432974686 3.56868
175.111132078782 62.7599
175.230837634453 0.965043
175.272248390352 0.540397
177.093342174808 3.25738
177.158994984782 0.74037
179.139767666039 0.800259
181.103131909607 1.00705
183.11393649154 5.25565
185.120366061297 2.34545
187.12739435866 4.17244
189.105282129939 4.29105
191.129414837082 3.22325
193.11993361423 5.33135
197.129436713177 2.74721
199.111390385028 4.52568
201.125653657077 3.86172
203.122122324304 3.10382
205.130066499109 1.62478
207.110898922871 5.33657
209.148716079296 1.44651
211.110160225368 2.09428
213.148711392798 2.88899
215.142978636217 5.59992
217.122532961052 20.1362
219.133921560543 1.84092
219.200029823955 0.791535
221.123597153429 2.5771
223.150160463449 0.621504
225.125825164225 2.19061
227.17791787059 3.35508
229.191218041308 7.48237
231.135038323429 1.60937
233.152813604816 7.11674
235.131722738855 37.7981
235.234816211102 0.811439
237.164072666421 0.981241
239.178645826749 10.0997
241.158720066705 0.77978
243.173035894711 0.901793
245.188730291442 4.08624
247.203957071405 4.89952
249.153735791958 0.520528
253.194213441589 4.85638
255.174863345903 3.7005
256.183834787202 0.695399
256.265574970627 1.60973
257.188673234603 29.5275
259.170621223953 0.899054
263.197218863288 2.78819
265.215361002503 4.15444
269.188501636614 0.551602
271.203857245171 12.3964
273.182511185487 7.21449
275.200027470063 17.2102
281.189217897835 16.7432
289.217057954028 5.76227
291.19658569119 2.46081
293.206175054967 1.34762
293.255787765073 0.542208
293.760817070643 0.657634
299.200076107313 63.6501
299.355365892037 0.882089
299.415932951372 0.522732
299.604547780266 0.510647
299.878072856523 0.545467
299.969166829526 0.59884
307.222375068777 1.71192
317.210125851947 100.0
317.373437835404 1.59933
317.46418975107 0.87776
317.55491639336 0.707027
317.612199858808 0.604871
317.701046864014 0.532765
317.992048299408 0.646091
334.242843838018 1.09287
334.290797134326 0.685491
335.221539655648 94.5484
335.434113752603 0.871875
335.495658540466 0.626733
335.551035338234 0.829505
335.787646890503 0.696976
336.190072833226 0.56549
337.19007283323 1.0e-13

>collision 20.0
29.0383376733152 0.548795
40.2990016219855 0.543386
41.0389241437274 1.32033
43.0189111844393 19.4921
43.0552659349679 12.212
55.017286655163 2.9562
55.055008176329 11.2475
57.0702470330825 10.4893
59.0512446313628 0.526108
65.0379930041135 0.710171
67.0541358807443 17.4229
69.0335667061115 0.548861
69.0702727456082 11.5592
71.012632936885 4.37754
71.0496014090327 5.32305
71.0861200012481 6.25652
71.4535937979108 0.538291
72.0811960228492 0.556517
73.0288446949181 1.01013
77.0375346757947 1.82628
79.0545541657711 10.1227
81.0701173237667 27.7016
83.04978649874 3.36741
83.0848459577955 4.1109
85.027818178755 1.47175
85.0649292092751 3.53942
85.099639251295 1.98849
87.0424768888146 2.0911
91.0541746705758 13.4159
93.070639257059 16.3002
95.0491614628673 8.31433
95.0854130471455 11.6359
97.0641422286668 7.08641
97.0980788273436 2.42977
99.0415992894447 1.10592
99.0809396388622 4.48909
101.059323499634 2.04413
103.055846586123 0.599047
105.069293801197 21.7836
107.084621716043 11.0568
109.06545422274 7.3146
109.10084819825 6.72731
110.034708250037 2.49616
111.044384704246 1.78586
111.079898667903 3.14862
111.110362691066 0.902131
113.060767113621 1.52729
113.094013736483 1.58979
115.064535597048 0.81708
117.070541838036 14.6671
119.085694662384 18.5323
119.160455434561 0.504083
121.099166739734 9.1904
123.078715393387 8.21272
123.11241958317 3.11841
125.09398676775 2.21616
127.078298634451 0.696034
128.060749469743 0.918648
129.068882023065 11.7116
130.075642881072 0.620996
131.085071255195 34.5529
131.191728284376 0.692229
131.261009529213 0.516699
133.099210691507 19.9871
133.173031294113 0.596156
133.203172684115 0.516477
135.07833342914 5.65256
135.114124245416 7.5029
137.089882125552 3.66538
139.073595563588 1.32761
141.069870702599 7.30516
142.076176309476 1.40938
143.085537355467 9.72347
143.77102372715 0.665708
144.099074150847 0.578501
145.099861592046 27.3086
145.181352773141 0.666701
145.21007727031 0.534012
146.106077101422 0.844082
147.108525313734 22.8743
147.221663708683 0.603624
149.057754941659 1.046
149.095198392106 9.63347
149.130098829949 4.09043
151.073305938494 4.04822
151.110543192461 6.03132
151.144404849218 2.6412
151.328159378777 0.599692
153.096308193281 1.97146
154.076526662469 1.2666
155.084912818144 8.86263
157.100279405885 29.951
157.168097629828 1.13639
157.209774899122 0.683627
159.103087668587 15.544
159.182899575158 0.884078
160.051226875709 0.618435
161.107311804426 11.8115
163.105214072438 5.223
165.091122037814 5.92122
167.098164931442 1.28902
168.088797010558 1.15663
169.100601290006 16.494
170.099321822417 0.919235
171.115488662165 22.6479
171.455742097409 0.500876
172.09021959367 0.770149
173.111343540443 19.1802
173.210542066001 0.810286
174.113274909902 0.712942
175.11143393818 100.0
175.264793738004 0.921139
175.310724748406 0.566957
175.383416084859 0.932509
175.690459436405 0.500771
175.730211644583 0.659746
175.76928544889 0.570471
175.89321912768 0.584091
177.101364355257 7.9176
179.111935158243 2.87499
181.103717378756 4.67643
182.110485204867 0.874363
183.115076391397 15.6574
184.126168578675 1.04803
185.094479283648 10.8486
185.127262016724 5.47685
186.10296433597 0.619417
186.137228240191 0.605894
186.572446303131 0.941728
187.115668874772 19.3906
189.107762659113 10.1087
190.131343704295 0.680943
191.138395968805 9.75418
193.12199485986 10.0465
193.215707014459 0.565441
193.505660600768 0.543111
195.117723227521 2.42079
197.129568914071 9.75134
197.200350956457 0.561712
198.096850301203 0.731303
198.138735181424 0.532566
199.112902886662 12.2426
201.127090427644 14.1482
203.133706450793 5.81851
204.143865115049 0.604131
204.260507003035 0.620003
205.134391386547 5.1064
207.131296094351 6.37583
208.148907908916 1.26013
209.138830740666 1.57073
210.110904661499 0.651892
211.120273035312 6.00087
211.948965775082 0.672266
213.14402923152 5.13618
215.146373598618 14.7471
217.124170846979 13.2987
217.190410777407 2.48449
219.1190013941 3.98407
219.207990321219 1.38308
220.124001823898 1.31603
221.13198527031 2.20358
223.152296187123 0.633215
225.13116878201 4.17131
227.176911067429 7.58226
228.118660125642 0.56456
229.192013967076 18.2142
231.137818029877 1.98025
233.153445819097 11.0441
234.145719829137 0.803942
235.137100777883 9.17773
237.164787390648 3.70469
239.178640606381 21.8431
241.15695559516 0.660243
243.155772934254 3.05499
245.18825476257 6.26409
247.05301137689 0.669963
247.205569599915 7.59558
251.157850227258 1.03422
253.192645063559 10.4876
255.174097420764 7.79988
256.18181452275 1.35261
256.263482638276 1.66943
257.188768433016 44.8543
257.380631755944 0.685864
257.438477555308 0.590822
259.165528016612 1.52137
263.182528903146 4.06858
265.214663652535 0.914613
271.204776809943 19.2205
273.185364274631 5.53177
275.199141209195 22.8489
275.352782483725 0.502342
275.392660933293 0.565517
275.493913085651 0.643868
281.190172553043 16.9597
287.190543606832 1.04582
289.215810444269 6.97234
290.464771913723 0.534438
291.201031855332 1.58977
299.201537910231 33.7954
299.316809146378 0.872718
303.146845581153 0.679701
317.209370723659 24.4724
317.315836458655 0.938946
334.233692748401 1.38617
335.218224152875 7.16558
335.291718048386 1.24895
336.29171804839 1.0e-13

>collision 40.0
41.039618639822 23.5741
41.2285661775403 0.661642
43.01905356638 53.8293
43.0553782684961 30.2664
43.1382385569674 0.547253
43.1643224615529 0.523389
43.1995614172783 0.650988
43.2328085905499 0.52576
43.4277973184862 0.545346
45.0349188885684 3.87439
51.0226108276583 1.83128
53.0384050153311 4.16605
55.0186828405405 16.7719
55.05486181679 50.1648
55.1155556329343 1.38965
55.1416673067069 0.592839
56.016099641686 0.529948
57.0338516071665 5.79505
57.0707945538263 19.4065
58.0668564277638 1.06672
59.0519038449336 0.756733
65.0377326599588 2.85471
67.0547747211885 66.3944
67.130697473814 0.878181
67.1722150654941 0.894139
67.2035549578944 0.674952
69.034646891599 1.02921
69.0698781731528 24.2285
69.1378865967477 0.513132
69.9557497883484 0.662777
71.0134688837647 8.89475
71.0492138890086 8.84794
71.0855607256279 3.64088
73.0461801467892 1.42403
77.0386981503718 13.8175
77.1210880894616 0.584502
78.0484940460999 1.19908
79.0543718307287 45.5723
79.1213215999519 0.976882
79.200484772176 0.763274
79.3334165963387 0.697609
81.0322044257988 6.08549
81.0702409820693 65.3225
81.1199506249459 2.2148
81.152241915455 0.919596
81.291901271407 0.616054
83.0469500305821 6.37385
83.0851066779359 3.74421
83.3773073181881 0.546432
85.064602137264 6.41972
85.0961609587798 2.42053
86.9723466743861 0.839696
87.0426289010075 3.40552
87.079174263606 0.539355
91.0543043092173 100.0
91.1354943587897 2.06668
91.1766332805736 0.875026
91.4224299500517 0.536392
91.7818378985819 0.547724
92.0659575191419 0.572132
93.0700139218866 51.5554
93.1464328731314 1.05864
93.1867741745365 0.749088
93.2950959900625 0.538706
94.040531458201 0.584234
95.0492632477321 17.471
95.085206570172 19.9252
95.1564099807452 0.546368
95.3142499649025 0.652536
97.0306754085496 0.872193
97.0659704779045 6.57883
97.0952809378985 1.39288
97.1247757482348 0.514018
99.0438581914137 0.913696
99.080254202663 0.941669
103.053104935964 6.78704
104.059107128136 0.776911
105.069595273374 89.7775
105.162024171849 1.64665
105.1977055514 1.0385
105.331182149075 0.66367
105.572430895522 0.504429
105.76374089278 0.5439
106.073002624206 0.546432
107.04948373712 11.1838
107.085840408515 20.0594
108.058805853978 1.51777
108.083173900614 0.523111
109.027627019724 7.38461
109.064176085913 15.409
109.096479888375 6.06295
109.485803078945 0.628951
110.036496605563 6.32746
110.077891420067 0.503082
111.04161956307 2.36252
111.080826869145 1.49789
115.054568734243 9.24042
116.062054520911 4.44401
117.069302210487 50.1829
117.171707389127 0.688803
117.198736319583 0.643289
117.231130161269 0.581236
117.293447691211 0.639253
118.073903748163 1.38801
118.99897583051 0.561929
119.085109242242 48.5308
119.186984410428 0.999981
119.223747343449 0.525662
119.257665699757 0.837083
119.525543869599 0.534648
119.973457266055 0.575562
120.079446092078 0.570291
121.064576716827 13.0881
121.096814766648 7.68788
121.161986733575 0.678126
123.078007428555 7.2113
125.054996590989 0.950295
127.054778335972 5.33675
128.060632583754 12.9757
129.069935630475 37.3665
129.174092784986 0.546722
130.078881373685 6.10187
131.085268143801 78.3801
131.190566697949 1.08096
131.225716519075 1.08685
131.461992697709 0.518667
131.70097770564 0.511403
132.09350817647 0.684797
133.062917398429 10.8978
133.100183658017 25.2055
133.205881287176 0.582301
133.726652198283 0.517456
134.048258991763 1.16334
135.07956195509 8.00299
135.106906589896 3.8578
135.21684616237 0.581292
137.087411121259 0.748129
139.032335632245 0.558101
141.06972318172 28.6011
141.172925383776 0.558055
142.077435448743 13.1231
142.172320940642 0.500348
143.085531118733 29.7943
143.179868111189 0.547931
143.464454483563 0.557979
144.054178858895 1.3371
144.094213426087 3.14725
144.132464726224 0.61223
145.100499820014 37.599
145.20570335519 0.767949
145.300054980903 0.539007
146.078136475081 2.96808
147.091902831891 11.947
148.081791597934 1.64951
149.099725414542 4.88497
151.071788413398 1.91947
151.1092576673 0.723468
152.067723980877 0.942634
152.122071814461 0.560741
153.069566694464 6.00387
154.076103725005 8.17343
155.083782984938 18.9809
156.091329615268 3.16536
157.100774720125 10.7235
158.07448582697 2.16518
159.09606994743 13.1525
159.190101990164 0.647002
159.227226920421 0.575998
160.0861656042 2.30179
161.095482106225 10.3299
161.1291933891 5.49758
163.093679528619 3.32924
163.146183469857 1.15176
165.073416550282 4.06362
166.072273757037 2.72543
167.085555242496 4.50017
168.046985185286 0.934181
168.092712566198 4.45315
169.100811643203 19.5611
170.068615872801 0.74578
170.112010040276 0.947491
171.110030501145 8.82086
172.088621426847 2.23166
173.093587893023 9.11383
173.125702363925 5.61054
174.10172818744 0.507826
175.113550471396 6.23468
177.095758319018 1.02959
178.078240202804 0.990442
179.079792805235 1.78484
179.144759362966 0.747926
181.100897863181 3.23754
182.108677210206 3.26858
183.119286198063 5.44887
184.085642740736 1.2088
185.105866210108 5.15654
186.103533601831 2.68165
187.123062204852 4.94086
189.089458195521 1.12173
189.13090836141 0.514723
190.147119872052 0.558101
191.151669692486 1.30821
192.092960550143 0.90381
193.106403416463 1.61605
195.113914517315 1.34406
197.12406205334 3.44468
198.099873694426 0.56053
199.117059732808 4.38321
199.188518952692 0.500348
200.112580571358 0.55895
201.116386378699 1.93104
201.164594460327 1.1723
203.098216541372 1.77214
205.114841860324 0.681724
205.157688388285 0.967278
206.098952659695 0.675851
207.121849765797 1.23211
210.13537058834 0.883503
211.137734926608 1.61944
213.091471003701 1.12886
215.104777576804 0.508873
216.151338709817 0.675574
217.149651779297 1.05153
220.110602675401 0.726787
223.151450264437 0.733398
225.124440926499 0.747947
225.159659918619 0.503654
229.194500778881 1.12387
231.176696639888 0.656929
235.15678340178 0.582385
237.162213139218 0.565642
243.138448253018 0.613517
247.207129044562 0.778764
257.188208485729 1.84328
275.188536080596 0.583874
276.1885360806 1.0e-13

