>compound Chlorogenic Acid
>formula C16H18O9
>parentmass 355.10253630049
>charge 1

>ms1peaks
28.435133091278 0.608634
28.8485118430569 0.530472
32.175957598054 0.527736
32.7029491507074 0.554213
41.941034576122 0.603674
43.477217600365 0.542733
43.807681457626 0.587438
45.560560322015 0.545423
47.5396499344185 0.635078
49.3199539968481 0.586935
61.4626908346898 0.541349
64.0308133988562 0.601503
66.9391575974284 0.712407
75.427683292336 0.573151
77.7896420949882 0.580835
79.024055170305 0.957728
81.9607872286556 0.561602
84.535631445309 0.862747
96.696663855403 0.679262
106.543725115966 0.560941
108.197180790629 0.594661
111.216377405363 0.527747
114.688615409891 0.544694
117.03605155206 0.626902
119.69857072873 0.712925
128.194573942345 0.528135
128.514478714482 0.568511
128.747368348679 0.578409
129.371067360459 0.543829
135.044566774508 0.645654
135.733435921017 0.536819
136.098751057542 0.55536
139.04020823651 0.673941
145.01993403875 1.17871
148.029832821369 0.52773
160.943396877102 0.576057
162.490712621653 0.596071
163.039426670934 70.6191
163.147469752366 1.11289
163.190167083125 0.812066
163.228352902002 0.675586
163.325364146277 1.26489
163.379297918862 1.12942
163.505352440586 0.687282
163.561435922582 0.749125
163.663523135082 0.820852
163.801457824333 0.541427
163.990379162977 0.557302
164.057922001553 0.633223
164.103048369098 0.557668
164.452849298396 0.678689
165.273968508094 0.633702
165.688414794141 0.602502
167.343398396777 0.668058
169.556989403453 0.809997
176.372958939452 0.681308
195.579064595241 0.57052
213.003531351763 0.718972
214.859062803077 0.594174
219.173785821684 1.05594
219.799254771917 0.639472
222.027611916593 0.535667
227.98309657013 0.828013
236.821915889539 0.567262
252.010405070082 0.56596
274.976539818196 0.9103
275.037276227252 3.02381
275.352036371963 0.666203
275.541216575253 4.32918
275.599620168592 0.890089
276.044747792269 5.72859
276.434580954783 0.61001
276.544953495119 1.76812
276.640648198961 0.6626
276.973531420241 0.97673
277.0362391462 1.99696
277.099798431728 0.872152
277.453368285192 0.667852
277.55098896151 1.0561
278.012470602263 0.535601
280.097245231696 0.533493
291.816227501023 0.663111
295.653890152524 0.554803
314.047665764357 1.297
315.049249930101 3.89231
315.427844385588 0.775232
315.548533922479 4.19816
315.679452859272 0.741366
316.04207277174 2.58092
316.128485827934 0.829644
317.796124754761 0.811866
328.695454372298 0.545825
331.680163281046 0.569008
334.981814167866 1.25349
335.242201768386 0.712437
337.08781809652 1.32766
337.242826331976 0.528015
339.309567108056 0.52917
346.069472215161 0.642127
354.037689903159 0.722877
354.156803639531 0.882224
354.264290412786 1.51944
354.550434497799 1.09922
354.60445419792 0.567592
355.10253630049 100.0
355.205130258086 2.96878
355.267014671317 1.97601
355.407301941804 0.998205
355.566861756041 0.883935
355.64450022305 1.26949
355.729495047784 1.41426
355.827248045709 0.787498
355.923141776743 0.905741
356.019238277365 1.45965

>collision 10.0
77.035935966606 0.6089
91.0554547252168 0.69159
145.025429872416 0.604921
163.037908617293 100.0
163.183297131211 0.684818
163.236580617805 1.0629
163.271656461675 0.646245
163.312723396445 0.539071
163.632758022306 0.693684
164.036920020774 0.682421
197.9374398099 0.53971
236.035439767796 0.810124
275.042584353859 1.04298
275.53509821339 1.62756
276.040829039898 2.74529
277.005793501234 0.532772
277.534234912832 0.62792
355.10378711075 4.32636

>collision 20.0
89.040044983521 1.19971
117.032770607239 1.47725
135.047141037665 3.25357
145.02903059441 5.40923
163.039224738127 100.0
163.129583555337 1.6276
163.154232426449 1.5329
163.18866840821 0.717724
163.323211264416 0.701627
163.478923796008 1.02314
163.585999947838 0.714825
163.807852039378 0.604288
204.979645153453 0.607041
220.178555691735 0.613413
291.027598025569 0.849022
292.018963207972 0.684143
295.009013081577 0.573392
337.092916453512 0.581592
355.164600934306 0.541831

>collision 40.0
41.0386708072977 2.2495
55.0565997151973 2.04549
59.0463942430488 1.34418
61.0081194805694 1.74507
62.0154928557048 1.95715
63.0224766705729 5.2661
67.0527647563414 1.9083
70.3399642132889 1.05843
77.038040684244 4.36752
79.0542535318734 2.80466
80.0290873468972 1.18766
82.9834343133369 2.28023
83.0486447692782 8.22136
89.0387037951925 34.2814
89.1205746670665 0.979892
89.3521190248294 1.03862
91.0475839074906 1.58747
100.992542407599 1.13692
107.04736762193 17.153
111.046762832408 2.27548
115.788165948971 1.0156
117.032925402325 74.0322
117.105416632121 2.1488
117.133500350515 1.10973
117.732312472895 1.07792
118.947842466748 1.39488
124.987240324741 2.4342
125.991618459476 1.36448
128.541779993704 1.18545
135.043534246978 59.491
139.032458942311 1.33742
145.027947328109 64.4441
145.136785995412 1.58762
146.032594294641 1.89045
148.984520499311 1.08451
163.037737217164 100.0
163.123679961452 2.72768
163.387257046003 1.13343
163.701795496058 1.06819
164.080440672281 1.53457
165.033437743604 1.4594

