>compound L-Tyrosine
>formula C9H11NO3
>parentmass 182.081216377033
>charge 1

>ms1peaks
91.0528176332611 1.03199
103.05294554202 0.966098
123.043320090166 2.49087
136.075525141927 3.42917
161.53208983161 1.26338
165.052479196165 11.1459
181.087579148729 1.5649
182.081216377033 100.0
182.306774970598 0.621332
182.42738391692 0.621086

>collision 10.0
91.0522542322978 5.1595
95.0513008008408 1.81885
119.049439862746 29.8036
123.042445023301 29.4616
123.752624586021 2.79545
136.075282640966 100.0
136.916764828488 1.85401
147.045056690473 28.6894
155.297203005703 2.97156
165.05480311325 95.5139
165.50870093379 1.95629
182.08641894427 7.29629

>collision 20.0
77.03726538133 5.45142
91.0541041835167 86.0696
95.0487059694565 36.3075
103.052908055185 3.69637
107.050771361628 2.47576
118.066396587377 6.43754
119.049054930433 82.0095
121.063459704566 3.19308
123.044373309589 71.852
136.075129733109 100.0
147.043411567262 26.7362
165.050573199064 8.83647

>collision 40.0
39.0258141831685 2.18937
42.032158061334 2.30018
43.0155040445095 1.35532
43.0427635515523 3.86707
65.039709012753 17.9202
67.0156065688474 1.15108
67.0540286338769 3.62991
77.0391947815496 46.5687
77.3613922567195 1.13571
79.0519335351875 1.1739
81.0686851757729 1.135
90.0455125213033 1.14779
91.0546813504995 100.0
93.038710846933 1.83789
94.0419891441417 6.80933
95.050378842542 30.2062
101.041017874096 1.15718
107.048741576256 13.8237
109.064130524323 6.15335
117.057264494111 1.66332
118.066486828442 1.51416
119.048422629897 2.2104
123.045583251809 2.37067
123.079533595707 2.64017
135.074714496 1.95802
136.072640972172 1.66141

