>compound XMP
>formula C10H13N4O9P
>parentmass 387.029678190682
>charge 1

>ms1peaks
119.01012377334 3.33829
120.965795583198 4.95663
234.997673078143 38.9523
235.031536667542 2.69287
235.055638173004 2.91193
240.885098166808 2.13296
384.847670324888 1.58319
386.051290129832 3.36211
386.083387599363 2.62177
386.234389912235 4.40206
386.286679840202 3.74834
387.029120212447 100.0
387.091574487179 6.37008
387.147372052488 4.24609
387.203261941947 2.23258
387.237076229578 3.6963
387.275677978393 2.0305
416.27567797839 1.0e-13

>collision 10.0
74.0983280306102 5.82733
88.118555374526 1.78757
119.009191292927 39.2358
119.041136626503 3.87151
120.965802571903 35.4095
121.002149988417 1.9325
121.021799435099 1.38231
174.037705747656 2.35749
175.042792525326 3.99565
216.984050008009 3.46818
234.996642139402 100.0
235.030788023606 8.46063
235.075674546607 3.352
235.096953439909 1.61063
235.135844196542 1.30322
235.841820527031 1.42828
236.464973484721 1.27456
281.357901975262 1.64172
332.9712780496 1.37323
346.177640319031 1.81323
386.048189416268 4.69336
386.281850744079 2.32532
387.029678190682 23.0289
387.085941692577 1.77136
387.211717677466 3.42726
387.378193218397 1.38657
416.3781932184 1.0e-13

>collision 20.0
74.0953983132738 13.6453
74.126234632031 1.66873
119.01046849835 76.8602
119.031577160568 7.00734
119.046371828694 3.6475
119.073765301212 1.93314
120.965446176642 100.0
121.000041506971 6.94197
121.017108068237 4.44706
121.026569244915 3.41432
121.042032472238 1.93572
121.06744491771 1.76862
121.12450589345 2.31998
122.275495531639 1.68908
174.039697080434 7.60426
175.019642376384 5.14457
216.98842035164 2.07505
234.995733275219 46.0855
235.043319911968 2.86092
264.04331991197 1.0e-13

>collision 40.0
74.0958462806669 44.5461
97.0269473027513 21.1371
107.003730112016 14.8279
119.007636347971 65.4828
120.964868692929 100.0
153.031781513981 17.2904
288.927226240486 12.351
386.287382824488 11.9368
415.28738282449 1.0e-13

