>compound PGG2
>formula C20H32O6
>parentmass 351.216038329867
>charge -1

>ms1peaks
45.3173812825116 0.704635
58.0667878183398 0.922975
71.082828961474 1.37773
79.0489309678519 0.905074
83.0816873913095 0.782055
99.042902356048 1.36118
102.127030622161 0.942803
113.062389340366 1.35599
116.105534644979 0.81712
123.046861719636 0.944209
127.07208386014 0.974675
133.101917817759 0.70084
137.092620624283 0.899086
143.064266478374 0.803814
147.079417975336 0.749538
149.12825488086 1.83735
156.135699797 1.84697
159.11363413501 0.895104
163.067328214206 0.95362
177.083981930257 0.696393
189.124879053883 1.60512
189.912344137745 0.722667
194.107355686522 0.897262
195.094831860629 0.906739
196.118218860083 0.975931
201.077467425902 0.905601
205.121465696884 1.19885
219.102116143332 3.059
221.110211235768 0.774951
221.147228445477 0.716535
231.094174431147 0.87764
233.116047951772 2.46084
235.161435593707 1.25718
237.10716905717 1.79411
241.15654247184 0.749859
249.135015664355 0.785135
251.126348209698 7.89069
259.091969869963 0.728311
269.020222109091 1.21698
269.187741889534 1.29948
272.173696699135 1.44563
274.129700251383 0.774354
279.192415242919 1.79021
285.1780890411 1.34559
287.209168990388 2.25293
292.22932515095 0.889871
294.210983062693 0.740117
297.18709956468 2.93708
297.240371517923 0.714905
299.203345928429 0.87154
305.075004025332 0.789535
305.215905542652 1.80965
310.155004125084 1.49308
315.192568479141 8.39003
315.271131543299 0.912688
317.207884188724 2.99877
317.673883368919 0.730417
318.208284340259 1.48669
332.230812604198 2.2068
333.206286599999 21.2585
333.94024238143 0.701683
334.206040440767 1.20726
350.234445705081 45.6323
350.372188428636 1.53706
350.455060163308 1.18399
350.655694232535 0.868682
350.996246816723 3.1448
351.216038329867 100.0
351.384545259644 2.16855
351.475219552987 1.53952
351.647674277036 1.18305
351.839181254918 1.27128
351.9242792561 1.33855
352.011959447796 0.83652
352.081023893851 0.846
352.13541750227 1.06397
353.13541750227 1.0e-13

>collision 10.0
43.0174265344353 2.07283
55.0194938400708 3.52184
67.0549154932421 4.23001
71.052390985161 4.90502
71.0831975281069 4.68076
72.0806369001696 2.32654
90.090538684934 2.3229
94.0619663697508 1.9041
95.0859767578714 7.88391
97.023352022511 1.80035
97.065091929853 2.28499
98.096099710886 3.06596
99.0789297413088 16.3195
100.110577395096 6.08166
105.070977013776 3.59268
107.049501092466 4.64301
111.042461439056 2.93623
113.057027438327 4.46203
113.088221850589 4.3069
117.068654031561 2.67749
119.081819727159 4.61117
121.033220553526 2.29488
121.065929537277 2.36397
121.103756974263 4.142
123.082095832826 6.67306
123.109018767391 3.46778
124.073808527178 3.12574
125.061507572833 4.94399
125.09390575228 5.83265
129.054260793367 3.24993
131.083041135084 9.65309
133.060075290034 4.31822
133.099385321636 2.95448
135.076504994039 2.21153
137.059253978702 9.16447
138.048021699949 2.28961
139.033115099091 3.7901
139.111774026641 2.25887
141.072159631958 1.79289
143.083437554074 5.72185
147.084493772297 5.99315
149.058460989319 1.89922
149.090883533786 3.47564
149.123301264223 2.57465
151.073813696537 3.21284
151.111337464221 3.99934
155.097890213416 2.80134
156.136331868256 1.68963
157.081742574592 5.10733
159.079420015333 2.70124
159.11646518005 4.36028
161.111877584023 6.49963
163.071948975346 2.92004
163.111457668135 8.59847
163.15194070098 1.73319
165.082509874434 3.50667
165.125811017975 5.82558
167.068419601073 2.38879
167.103865230817 1.70343
167.132573266875 1.89267
168.105124839687 1.88248
169.085940522451 3.08301
170.104431491332 1.88603
171.091135862428 6.10255
171.134163745122 5.78408
173.095410502167 4.23343
175.07247554192 5.64289
175.114462055196 2.92004
177.095607021576 2.36523
178.136698900981 1.76205
179.146663270219 3.81308
181.103159788334 3.50665
183.130271905101 3.38266
185.041699422999 2.00713
185.130761130062 2.16088
187.142039701217 4.05357
188.108391578948 3.89017
189.091981191474 6.44517
191.11158795596 9.49628
193.097297803516 2.20248
195.080864238888 3.41538
199.111191858985 14.4523
199.147955845406 4.02803
201.086888784054 15.9625
203.113017699501 3.62961
205.09760524187 4.08043
208.128096332086 2.07014
209.151063791806 2.22749
210.069306579289 1.96376
210.987146079194 4.93402
211.107605260771 3.33431
213.125053769907 7.2264
215.126658538104 6.96499
216.148785769861 2.37867
217.075842451655 3.10781
217.129044958919 11.4065
217.201987549205 2.83124
218.114083493586 2.37457
219.102835452838 6.49963
219.177877749943 1.77396
221.123110731772 4.53826
227.170002678806 2.58387
231.132194407437 4.31187
232.133521352347 1.68867
233.11690823734 14.9078
234.024829575078 2.289
234.188285147324 1.83879
235.139006674633 9.33455
236.15720015443 2.77207
237.121498783262 4.34582
241.193135318865 2.03789
243.172756044534 2.20845
244.035512295068 1.70025
245.112712221588 1.9503
245.190973798705 3.66251
247.170352040869 3.81221
249.15179608223 8.8725
251.128463906686 29.6423
251.18843560118 5.75984
252.132783135836 2.28499
255.167446594856 8.79583
257.180856145333 2.99709
258.182594979081 2.62596
259.197152886203 2.45276
260.192072246277 2.07954
261.180545947934 8.50637
263.117961075022 2.66097
263.202192932705 4.47996
267.158355179193 1.94264
269.032534293969 2.48241
269.187208431548 9.05317
271.165416299698 3.00357
273.185472979118 6.05003
276.13529900366 1.88055
277.196116325909 2.16651
279.17206894544 3.26686
281.182547336728 2.96112
287.199547118454 3.19369
291.19079301384 3.34617
292.132865284122 3.54579
293.192383688317 6.95947
297.188733082901 11.8903
299.200744812107 4.17741
300.201462568064 3.02028
301.208485751702 4.84763
305.206922716695 6.72782
309.191432095041 3.17024
309.862834283267 2.11551
315.197000119264 61.9603
315.765651800569 1.8198
317.204900194757 8.61274
319.22046847096 4.01643
323.204844592533 2.58768
332.223905560038 7.86621
332.280334413166 2.59176
333.206066902887 79.2371
333.366129006417 4.57131
334.200513586405 1.91446
350.232655190815 100.0
350.373526065907 3.37704
350.523941996526 2.30949
350.579451867403 2.74859
350.856746592916 2.78552
351.223562810631 64.6215
351.450301877333 2.49101
351.614216479195 1.97073
351.750543292483 1.68819
352.079466154554 2.83197
352.171098973548 1.73128
353.17109897355 1.0e-13

>collision 20.0
39.0232880486592 13.3821
43.0198541362275 25.9138
43.0558118594381 24.2655
55.0193091951593 25.3016
55.0533250749478 16.185
57.0721131444054 13.4114
58.0717154193765 21.8167
67.0554411192172 35.2848
68.0536104586825 13.4261
69.0318232667035 11.2148
69.067766416205 12.4077
71.0099895795133 8.25879
71.0496578627627 33.2321
71.0867483987733 96.5138
71.4353253095357 7.59392
72.0851897706275 6.82518
79.054417314763 27.5809
81.0690331364936 59.5136
82.075224386762 12.8764
83.052040491702 12.7838
83.0848833374635 34.3386
85.0676161503813 13.6877
85.0987407414125 16.9146
87.048827138641 11.4362
91.0541785040406 73.9016
93.0697911306042 54.8465
94.065158662915 36.4469
95.0483311445114 26.9064
95.0864777547332 51.3941
97.062347540069 26.7465
98.065969146449 13.2188
99.0443640537002 12.089
99.0815043604433 62.5351
100.113995778469 31.0713
101.021036317038 7.40255
105.031742143012 7.84567
105.070973221676 19.8807
107.050539509861 39.701
107.085553703713 27.7021
109.025137125626 7.86475
109.064469606763 19.3603
109.101155020766 10.322
110.068082637325 11.6276
111.063681519571 11.5367
113.059647878809 44.327
113.091619899226 22.6148
117.068379265793 29.5013
119.049376078383 7.93514
119.086258122662 24.8445
121.065435814159 31.3397
121.096551488749 14.3876
122.059815264542 18.591
123.039006238248 17.6099
123.078237662317 45.9281
124.047483774399 11.7339
125.093515746936 22.8373
127.071815880255 19.4787
129.067916072904 31.714
130.073111909264 9.09947
131.085064130294 59.0884
132.077275522713 7.09959
133.063630796145 80.6315
135.042514665476 13.9979
135.080310984944 26.6396
135.11217880592 16.2584
136.969524328738 10.4035
137.068122236608 30.0023
138.054516889169 15.7013
139.06944559811 20.3106
139.106685225995 15.1075
141.066778646183 8.33277
141.124465840957 12.1852
143.084195545707 44.3121
145.098512999317 27.7953
146.109132355876 10.3532
147.076115698423 62.4861
147.116803630352 13.317
148.075783765527 13.9968
149.081170841783 35.7938
149.346130815057 9.12268
151.071894116869 7.26307
151.111150230785 31.841
154.07197394856 14.0047
155.085568401818 22.4516
157.09928270616 68.1165
159.078258747768 36.0536
160.117274663607 11.1239
161.102565195477 16.2738
163.107847207627 35.5706
165.089754980862 17.5962
165.125525913578 22.2122
167.105646664667 18.2891
169.101755800466 34.5196
171.119650218399 45.6455
173.096896832509 41.7862
174.107825536247 9.04857
175.100240200034 14.2579
177.108173374277 41.2757
179.108803980509 8.71869
181.104789216334 35.4301
185.098428238555 24.224
186.085540675752 9.25766
187.108878332303 58.0079
187.613580383034 23.1972
188.085846483258 6.60377
189.037797543081 11.4237
189.116845607471 33.5307
191.103646896427 33.7621
192.189662202538 6.93981
193.099432151844 7.68117
193.148752161993 14.367
195.117530921363 13.0591
199.107981566963 95.8506
201.087582621381 21.2946
202.110869947192 17.1714
203.133243203106 39.6521
204.098454055742 9.25629
205.109328210411 21.0964
206.076395017784 6.73175
207.1424776497 8.19984
212.104317930385 13.5878
213.091972005041 15.0626
213.169790752945 7.96049
215.103047385767 55.9793
215.141644969344 16.5539
216.103474373591 14.1492
217.121918496047 38.3463
219.104687858601 27.173
220.147019576904 7.85791
222.152933547278 18.436
223.120071951016 13.8796
230.119782131638 6.79144
231.137918686529 63.6809
233.130200783801 21.6258
235.083909953624 10.3468
235.151963594069 41.0688
237.162775188529 15.1414
240.131049530091 8.09711
243.125354126315 7.81897
243.170712997517 10.6587
245.112453035919 9.90713
248.127304267227 7.92335
249.152319254967 17.1332
251.166673069347 14.7485
252.133946097442 8.08901
253.189304139195 10.0899
255.175177912815 8.54236
257.197333017097 8.49359
258.195464126224 13.2251
261.1794805097 14.4627
263.205522238232 8.1154
264.153444187748 8.30928
269.12453659412 12.268
269.186944342787 49.0611
271.172314128594 26.1144
273.186303447171 25.0246
279.170799843111 23.6234
287.198319637621 19.7549
289.080267963861 7.31809
289.173185140975 8.65496
291.194138462453 11.4163
293.202703628787 13.8318
297.183488165693 47.4646
300.200379355971 11.9263
305.214238179194 13.7668
307.183202368926 8.49269
315.194925144366 100.0
318.212735185506 21.5889
324.256210078015 6.95356
332.213955262072 8.93217
333.211641011618 36.7946
350.014120441088 9.20461
350.224960458141 90.7885
350.330296977608 13.2166
351.216509935124 26.6808
352.21650993512 1.0e-13

>collision 40.0
29.0397723633251 5.17738
41.0402328801862 19.6414
42.0353136364812 6.24866
43.0171142959434 22.5107
43.0551128140071 100.0
53.0415985573249 5.91646
55.0191969222075 32.6778
55.0549655446711 67.4186
55.0956244879295 3.49612
56.9673828614733 3.59091
57.0355851721431 9.16976
57.0688936093197 11.6216
58.0619756549026 4.28884
58.9582668954941 3.15539
59.9888571079697 3.55328
67.0545059886614 51.3884
68.9923278139392 3.99462
69.0717065193757 15.3921
71.0132731740171 5.79241
71.0493075906904 25.0838
71.0869262646167 29.6718
77.03740996144 15.9274
79.055179621927 41.109
80.0180450602927 6.18456
80.055539341789 6.92696
81.0353129385524 19.3239
81.0691114694335 56.9826
81.098556305611 8.51761
82.0645329380886 5.81036
83.0496782649466 25.4027
83.0809280789469 3.52607
85.0632189771254 17.087
85.1032495937709 5.27062
86.0564762142637 2.97834
87.0403393301541 5.85411
91.054502737366 81.8973
93.0695614856523 40.9864
93.4992600210388 3.68043
94.0640311780427 16.7055
95.0485721974266 23.7034
95.08502468403 21.6616
96.0466364638977 8.30864
97.0271488754806 4.92904
97.0621838603823 19.4565
99.0393557452352 3.10508
99.0799694298934 8.38893
103.051346573723 8.1936
105.070183154678 38.7829
106.067378653188 6.50883
107.046748989628 19.8075
107.08217850113 9.18109
108.084058074154 6.07367
109.02364047399 5.14268
109.063249281049 24.3642
109.096984969219 8.07505
110.057583879244 6.55354
111.042701404829 5.05057
112.078381052389 3.38496
113.053914905123 3.28288
113.108391977874 5.55402
115.055898985705 4.0044
116.066016462139 3.00342
117.070662600278 18.2609
118.071267205754 4.09812
119.085502692571 33.3095
120.085674694225 14.5852
121.062737250339 25.3732
121.102725215677 8.81415
123.072508786688 9.1377
124.04895614598 5.1116
125.108211444593 6.31284
128.060463271686 5.5494
129.067998951997 26.7688
130.07049999992 4.97418
131.083409249163 21.5887
132.059088022251 12.9393
133.063375503587 29.2542
133.091350299665 12.4942
135.006786936605 4.69909
135.078394941604 7.21506
135.11700412549 4.51056
136.068035514032 9.07399
137.050718835805 4.01997
141.065916594836 14.1867
142.077927275548 8.34595
142.605811676851 2.9988
143.084638568035 20.8536
144.061243822973 4.08357
145.099315192268 35.6384
147.089970194234 9.37177
149.055797719848 7.72987
151.076205465219 5.51818
151.11433847903 3.4045
152.075734956906 3.33909
153.073240043819 3.71329
154.078157163123 8.54309
155.083328667166 15.1322
156.868821195775 3.19287
157.100101765566 20.2185
159.079408497548 16.1391
159.115791098305 13.4554
161.02179200805 3.4072
161.086387853941 5.28206
162.119442138795 8.23291
163.094009280362 3.99264
165.067932819206 7.07884
169.094567880402 6.03015
170.098347721393 3.13075
171.079822026982 3.71209
171.116571885013 9.45857
172.122675583276 4.01997
173.093384248796 12.0093
173.125345537587 6.66229
175.070918548663 3.81778
179.085045119118 4.50976
180.110120488835 3.92836
185.09343784635 5.38655
187.108289978973 3.26394
188.101626348074 3.91016
189.089436866559 3.64228
189.122682443871 4.44414
191.0318294125 3.69686
191.166356277076 4.14152
199.10293510234 5.52949
203.098532076633 3.48133
210.090347576672 5.12836
211.141810826197 3.9281
227.150637851013 4.44955
228.15063785101 1.0e-13

