>compound Ergosterol
>formula C28H44O
>parentmass 379.335599066419
>charge -1

>ms1peaks
57.0699088579699 1.10174
69.0705767680641 1.3544
83.0852791984157 1.26786
125.133072137444 4.16367
145.100376160975 0.956315
159.116074207458 0.555373
253.196064707404 3.08389
295.24230779828 1.20901
309.259460048556 1.63234
378.32402317458 14.027
379.336239695021 100.0
380.33623969502 1.0e-13

>collision 10.0
41.0390985551091 0.750472
55.0546411069544 0.99907
57.0711498063885 13.043
67.054669972218 2.46386
69.0707828074684 35.5975
71.0857782298302 0.666471
81.070301468525 1.8951
83.0862073339511 14.4088
95.0861499476295 2.44128
97.10034639187 0.906741
105.06911510475 0.823451
107.08602416355 1.70306
109.10188607755 2.64439
111.116715591648 0.981973
119.086166171876 1.13054
121.100335821577 2.12825
123.118313821575 2.7122
125.132511608716 24.0071
131.084749272302 1.07458
133.101347890901 2.46882
135.11581578842 1.30382
137.131940272169 1.03451
143.085628301066 1.15355
145.101115672823 10.5777
147.115969430861 2.61569
149.132217833423 1.76263
151.147928382791 0.538693
157.099741993818 1.88547
159.116389894868 7.26823
161.13256873836 2.09849
163.148355126725 1.35454
165.16404495595 1.11323
171.117070930415 1.09732
173.133304778585 1.94813
175.146727719917 0.916112
177.164088075304 2.00744
179.177234747595 0.533105
183.118401406752 0.512833
185.132638404957 2.31821
187.14784400463 1.07523
189.164655855774 0.723432
191.178092274221 0.722266
193.196248500463 0.600874
197.132722862757 0.788311
199.147377430623 2.98447
201.16131125051 2.44773
211.147012640185 0.719674
213.164784557515 1.74181
215.178177766747 1.01654
219.209721787319 0.631162
225.163414163638 0.577353
227.180429032709 1.28477
229.1946722917 0.717337
239.178212766979 1.36767
241.194806870093 1.02253
245.226130396209 1.12093
247.242728811021 0.945137
253.194632617661 15.6471
255.209954118505 2.57968
267.209793647403 1.28284
269.227907212348 0.609212
271.243223868149 1.05072
281.225584029869 1.75053
283.242010285534 1.22206
295.242134270804 6.62549
297.257233909224 0.500221
309.256955812032 9.48595
323.273039812985 0.769083
337.29106589757 0.538171
378.323514626882 13.2401
379.335599066419 100.0
380.33559906642 1.0e-13

>collision 20.0
41.0400291010046 3.58711
43.0544644021157 0.758872
55.0557405721854 2.51418
57.0707946073867 26.1533
67.055246866055 3.64052
69.0708938009316 100.0
70.0738221586017 0.821422
71.0875407232169 1.20797
79.0542691235712 0.881108
81.0704946636914 6.94365
83.0859314046888 29.3284
91.0539596525396 0.794103
93.0691246924563 1.91922
95.0863696994275 7.16475
97.1021073654643 2.3023
105.070978487145 2.82464
107.085594634358 4.59407
109.101718107064 4.13484
111.116459073479 1.48447
117.070337714118 1.53276
119.085203355627 2.46285
121.101215131136 3.87891
123.116920210194 5.51206
125.132739728632 15.8568
131.084844528311 3.98488
133.101015062697 4.99346
135.116402591402 3.2953
137.132001116083 1.29406
143.085710531803 2.71005
145.100824725502 15.0047
147.116207033418 6.83554
149.131364055041 3.69646
151.147683744162 0.786434
157.101163191052 3.99271
158.105050431222 0.871607
159.11676439264 16.5333
161.133362993886 3.31078
163.148018358366 2.84408
165.161423385407 0.5048
171.117154516021 2.99307
173.133709549985 3.66562
175.147852177716 1.66884
177.164190001926 1.54128
183.116156315307 1.01954
184.121133436786 0.504978
185.131605661687 3.45555
187.150355038837 1.87727
189.164698790752 0.757751
191.179836463245 0.556463
197.131734077567 1.7434
199.147970178893 4.89075
201.163826950141 3.90399
211.147626562579 1.72394
213.164128027014 3.29176
215.179315182155 1.02766
219.20827189378 0.65022
225.16288563503 1.68725
227.179287375069 2.07264
229.194237581815 0.86551
239.178932932732 2.25994
241.192809947365 0.886914
252.184179883751 0.983723
253.194870569609 9.63777
254.199027996163 0.900827
255.209242545776 1.7309
267.209378443677 1.02935
269.227283666889 0.558226
271.24585771221 0.54042
281.224828702283 0.989332
283.243780415787 0.740606
295.242862578327 3.00604
309.257519526256 4.79857
323.275064066301 0.650692
378.32411362382 4.27954
379.334155209301 12.7841
380.3341552093 1.0e-13

>collision 40.0
41.039760295781 16.4909
43.0550917733958 3.20733
55.0554514596208 13.7589
57.0708983022896 17.9836
67.0553580344577 5.62215
69.0706736444891 100.0
70.0745214307531 0.945467
71.0863111729071 1.29307
77.0403144661679 0.868462
79.0552536628223 4.38081
81.0702989592908 13.3058
83.0861925218561 17.6685
91.0550969920969 7.25813
93.0702427610166 8.63288
95.0859872304142 7.1514
105.070117005008 9.5158
107.085872275133 8.29433
109.100756088831 3.778
115.054711863897 0.856626
117.070280858451 4.9112
119.08566400329 5.23127
121.101257018634 3.67552
123.116316229013 1.38469
128.06205407478 0.892446
129.070627034615 2.72527
130.077497280111 1.20073
131.085356448356 7.61376
133.100771106133 4.24257
135.116782975244 1.76709
141.070669867996 0.565059
142.076614063178 1.25534
143.085440630798 3.808
144.092356990217 1.83644
145.101158915139 9.43512
147.117817022029 3.75069
149.132755235393 0.889267
155.082941342358 1.00262
156.091369192824 0.680225
157.100822420618 4.95813
158.103953072652 0.92628
159.11662747741 9.50836
161.134426600334 0.963546
169.101500320136 0.961367
171.115876929063 1.97147
173.131609537171 1.36622
183.115952445261 0.899779
184.123777838 0.61314
185.132387667176 0.787321
187.147414783379 0.65862
197.131478902892 1.17629
199.148075978117 1.18565
211.149640745174 0.705226
213.163443534597 0.859954
253.195211764403 0.969499
254.1952117644 1.0e-13

