>compound Diazepam
>formula C16H13ClN2O
>parentmass 285.079080321314
>charge 1

>ms1peaks
285.07898421025 100.0

>collision 10.0
154.041911620105 0.702537
257.083415269839 0.730469
285.079080321314 100.0
285.233566591894 0.737263

>collision 20.0
91.0544177653418 0.798215
105.033487739492 2.10148
154.041573096099 8.92045
172.063332002724 0.880756
179.038042414984 0.679516
180.021569866231 0.727268
182.035782558017 2.37375
193.088419432343 3.78984
221.105816684037 0.893412
222.115381416203 4.65763
228.057136224978 5.12919
241.050220438859 0.771171
255.068321466998 0.754037
257.083742989492 9.93817
285.079002228208 100.0
285.23303053049 0.647717

>collision 40.0
42.032620112887 1.18038
58.0292490123133 4.26034
65.0399183647317 2.06979
77.0385203392257 4.2908
89.0399689733351 3.7915
90.0461204204204 2.5632
91.0543367802166 28.7856
98.9986188498128 1.22846
104.049499046156 4.12025
105.033698955374 3.98737
106.066115624529 0.799974
110.999683464771 2.48833
113.014533631326 1.07021
114.010706053691 1.30761
116.048234890298 7.4949
117.056894439743 11.3807
118.06540603702 11.4237
119.07318503751 6.8506
122.99998390729 1.08614
124.006059896546 0.575732
125.014646727349 13.5812
126.025325781383 1.08424
127.030288879952 1.22708
131.060611097835 1.86551
135.993160272725 0.652216
138.010580621314 3.23367
139.01729202316 4.49251
140.025605019429 3.16652
141.032996195838 3.0708
143.06036215758 9.17069
144.068349019909 3.66279
145.076517388118 1.72686
146.06186558008 1.09793
147.066958012368 3.17525
150.010751205246 5.70614
151.018176608656 1.48823
151.046729896071 0.644837
152.028376434219 3.49846
153.032777058143 0.98015
153.06668713054 0.515337
154.041577619626 60.742
162.011493776902 1.34976
163.005622290355 2.14187
164.056662464563 0.903991
165.020984773235 1.40971
165.069967621606 5.5104
166.077709601654 2.05055
167.012437647205 4.52207
167.079571248581 0.930827
172.063562011778 6.07796
177.020126336223 3.88402
177.059288953288 0.603826
178.073680693529 1.00178
179.037196259591 9.68571
180.021275835966 4.19158
180.080085492727 5.50502
181.088813427312 1.1864
182.034555802806 1.6169
190.062475551641 0.613133
191.074438937297 2.56325
192.080067843962 6.19147
193.088663162836 100.0
194.096618017464 4.68833
195.103549003112 0.89628
199.030701313077 1.05456
201.033838452304 0.540685
204.080563423503 8.33582
205.083907033023 2.16304
206.084134555232 12.2426
207.090841200271 9.27155
208.101366654976 0.666062
214.037529917096 1.30675
216.05674061141 3.36756
219.090941037881 0.719761
220.100737772673 0.928312
221.106096680692 9.41768
222.115216859509 28.0954
223.10412759247 0.527729
226.041151362915 2.25855
227.050323189668 7.15673
228.056675634319 10.4653
230.072955938217 1.11053
239.037031921199 1.43171
240.054093926828 1.44949
241.051946285688 25.2238
242.05949233575 2.16529
255.067467192897 4.69865
256.073184937968 0.589644
257.082399009907 3.90561
269.046341048375 1.39052
285.077663147923 4.02468

