>compound Agmatine
>formula C5H14N4
>parentmass 131.128159234062
>charge 1

>ms1peaks
60.0569626688987 3.58486
70.067563277212 0.701885
72.0827703148843 4.35268
83.4916656555866 0.693703
91.0043279072886 2.22863
112.08557878179 1.35108
114.10540579076 4.29219
122.501367686296 0.745506
122.999249053005 0.58873
130.013501465258 8.58253
130.091281304913 0.672652
130.160323193252 9.66986
130.51310600111 2.77541
131.011224128357 3.4918
131.130423820413 100.0
131.233953682991 1.58283
131.274738727566 0.681348
131.361321242913 0.614762
131.480306876584 0.65075
131.580932307452 0.557317
131.704592901396 0.598022
131.788246389151 0.543099

>collision 10.0
41.0410724255824 2.12117
55.0544369035988 0.817311
57.0704888181132 0.763428
60.0566977983047 44.4117
60.1268099477831 0.970538
70.0643814062513 1.02511
72.0810624968053 100.0
72.1566994407236 1.42402
72.1813265100558 0.803022
72.3302139458987 0.5919
72.4682683710595 0.650258
72.5475649345998 0.718474
74.0971072955211 1.52188
75.4792857868651 1.21918
75.982012789123 0.656742
81.9912104678661 0.950219
82.4931170181847 2.43592
82.989876113666 0.570563
83.4929028592539 5.14231
83.9929631249492 2.24398
84.4979166719276 1.04901
90.005755400671 2.61836
90.506588594145 2.08223
91.004787085191 9.6219
91.5058527902913 2.99493
92.003358456852 3.40804
97.0759090190299 5.16257
104.967979971712 0.539407
112.087070527652 0.584659
114.102320022541 35.6855
114.201636355841 0.651132
115.123607866853 0.515411
122.499077013958 1.78877
122.999226988206 1.21024
123.49825956722 0.6159
130.118129945302 0.512574
130.158040708327 7.4776
131.128159234062 36.819
131.237286235731 0.55297
132.084607742231 0.505406

>collision 20.0
30.0342967691076 4.21948
39.0244958129334 1.26005
41.0404945503918 2.45562
43.031187405457 3.8097
43.9840381721941 0.911894
44.0514882759874 1.15263
48.9900065590153 0.698583
55.030334795636 5.2938
55.0522818166366 1.76065
56.0490995017717 1.14211
57.0700466258908 1.20796
60.0572347426257 28.7595
64.9863178293027 1.14537
66.000269883788 1.00935
66.9681138833838 0.650318
70.0677308098054 0.533334
72.0819400908741 100.0
72.1594625812029 1.69025
72.1882678094294 0.677263
72.3527165323547 0.619846
72.61947411722 0.627026
74.9820259386566 1.38434
75.4873008118219 1.01554
75.9820341519856 5.22351
76.4815910407087 1.01437
76.9796641243353 1.5986
81.9931077398248 1.18306
82.492161837725 1.07587
82.9902392473001 5.79496
83.4928783122587 12.5477
83.993300090029 3.53412
84.4546035594476 0.581376
88.9486668554797 0.796955
97.0772549260007 4.9255
114.102803861484 6.42985
130.066424303177 0.619554
130.157812579849 1.24423

>collision 40.0
30.0336141817197 73.7044
39.0230740906206 18.3723
39.0420042680145 5.28528
41.0380100365446 9.46258
43.0304316535101 100.0
44.0506241802846 34.7367
47.9840924449619 6.36726
48.9924146581147 4.04494
51.9988268982329 11.5115
55.0298247652243 40.9942
55.051916941234 25.0772
56.0354735350997 6.38991
58.9818566242394 9.70896
59.96763474825 6.82444
60.0583794950554 31.1476
61.9836628397795 9.97832
62.9919781747918 61.4762
63.990027689574 7.23637
64.9855766198087 14.8707
72.0809577981923 83.4651
72.1223681032876 4.14959
73.9747288547944 9.08076
74.9730937458836 20.5632
75.4791202238194 4.962
75.9766582811761 23.6793
79.0163462094012 4.85502
83.9897606541085 6.66763
84.9538101056054 4.37687
86.9643831302676 11.7999
87.9783443028275 5.72505
105.984922891995 4.07241

