>compound Dyphylline
>formula C10H14N4O4
>parentmass 255.108253240336
>charge 1

>ms1peaks
139.664080067345 0.610874
158.958181490145 1.06501
176.928982844188 0.849873
181.075641562237 1.35711
237.125301960062 0.611509
237.171440565406 0.76859
255.013923356583 0.616952
255.108372336724 100.0
255.248094747608 1.53144
255.383695299858 0.853572
255.505757670244 0.673772
255.614460941974 1.08247
255.728080939374 0.816224
255.804391813649 0.966349
255.949019842439 0.948277
256.09391261413 0.797976

>collision 10.0
25.4499554234258 0.809077
42.0334146110265 0.992303
88.8719412493213 0.974349
95.087317679997 2.09289
124.055216038553 0.663244
151.143735431468 0.735866
152.076291302372 1.61692
180.072429230272 1.12995
181.071656561448 33.5514
181.478671134792 0.781892
181.706208802775 0.716732
182.068428128507 1.3431
219.09900600345 0.725794
237.099668518996 1.7699
255.108253240336 100.0
255.223468769796 2.11463
255.320862862656 0.77499
255.36469647787 1.85116
255.577577789214 1.16426
255.739157689531 1.28216
255.793607944291 1.02193
255.846064031221 0.995853
256.108654746774 0.647206

>collision 20.0
38.0773016033135 0.593471
57.033222753878 2.38723
84.0437964004404 0.702879
96.0579356172954 1.3161
107.062529703506 0.643639
124.048890215204 10.1446
135.063940674772 1.57695
152.078982248608 0.588014
170.090871191408 3.71386
173.368208283201 0.678911
177.013167141717 0.991016
180.076592465255 1.75502
181.069623722233 100.0
181.163805049746 1.59976
181.195301803825 1.3435
181.234929935479 0.965458
181.456686385756 0.713369
181.744387056163 0.583073
181.887338760273 0.630482
193.066508559556 0.730098
219.085340608323 0.991253
237.099231095771 2.38099
244.175385823631 0.70448
255.105436171347 17.1754

>collision 40.0
27.8209466567761 1.14809
42.0342477024668 19.4515
45.0325358772949 1.57824
46.0299188751534 2.32134
57.0340340181353 8.81164
58.0295673998191 2.30338
58.9902461163491 4.39152
69.0457944229251 23.4322
77.0369307496227 1.45723
81.0451625623208 3.25475
83.026901882804 1.17226
84.042392671968 1.79461
88.0403496236102 2.0729
95.7739147779448 0.999115
96.056701584799 25.1166
96.1046286326265 1.5718
99.0559750933615 1.05305
108.055171873845 3.42168
109.025383502305 2.45524
120.05635675226 1.89816
123.277374293412 1.02268
124.051089113625 100.0
124.131966449558 2.46999
124.669036013273 1.67171
162.058854260822 2.70355
165.047258038737 1.13323
167.96465981831 2.59779
181.06983643002 24.806
193.071368717107 1.11913
242.91966994389 1.10941

