>compound Leukotriene E4
>formula C23H37NO5S
>parentmass 440.246931890605
>charge 1

>ms1peaks
105.065299031993 0.675749
115.038742316422 0.932002
119.086366313055 0.82254
125.06078852325 0.630108
133.102664643814 0.537498
147.11765793352 0.525443
153.089274243221 1.01692
173.130675546109 0.724058
177.166383541289 1.31519
187.151508488464 0.719284
189.1636926602 14.5223
203.178366949992 1.2142
205.19510516731 1.12011
235.170722399126 1.19578
253.180115607721 2.66063
265.195485606745 2.44265
283.20556127324 3.33411
301.215994807266 28.0795
319.226799163805 29.3916
319.389619277279 0.604317
439.235311539645 0.563567
440.136899419531 0.502983
440.246931890605 100.0
440.436302590205 1.85915
440.50315529161 0.870753
440.653054127067 0.652028
440.84038769507 0.620753
440.999265380162 0.565494
441.108517614788 0.510106
441.220918995865 0.548178

>collision 10.0
79.0554672634381 1.51184
81.0705502106647 2.79362
87.0455508343444 2.31211
91.0551529201181 1.4664
93.0704185125764 3.2003
95.0833584242612 1.29184
97.064020490044 1.39436
99.0442514373315 1.99196
105.069961628241 5.39029
107.086527975821 1.45632
109.101607088425 1.8796
115.039604787596 6.71951
117.066874773758 0.760934
119.086105267249 5.88514
121.101767519968 2.68486
122.028790385715 0.598995
123.11594176517 1.79837
125.058950643883 7.43033
129.069125336043 0.920684
131.084677779162 1.66219
133.100439355406 4.23554
135.078678514763 2.36567
135.114053796381 1.49518
137.060557398724 0.688132
137.096606678364 0.819966
139.072196719902 1.13559
143.070794974009 3.26758
145.101083707834 1.11608
147.115339319135 1.98625
149.131354326972 3.36728
151.072343016617 1.42379
153.089677124959 2.18699
155.105667132336 0.656176
157.092397888381 0.598155
159.115661777692 0.942374
161.130908700886 1.56451
163.147349654206 0.882926
165.123050824593 0.749992
167.111420183915 0.763585
169.093475577469 1.57582
171.109471874027 1.17464
173.128368377473 2.44129
173.164094971162 0.666081
175.142560067196 1.17184
177.163719110342 3.41461
181.104564664663 0.681133
185.109891437559 1.85793
187.148132224453 4.45632
189.163161069012 100.0
189.288403929088 1.43744
189.335583923881 0.858182
189.383686095634 0.637739
189.44861930959 0.627887
189.501304606757 0.759591
189.680398196511 0.541653
195.120366103625 1.07785
197.13239259367 0.884231
199.108907938208 2.10844
199.146797538797 1.4835
201.167796163073 0.691708
203.181063321868 2.68512
205.124741393939 0.773695
205.197223144294 2.62525
209.133876517285 1.15552
213.128060666531 2.79185
215.164245500572 0.639187
217.140752428518 1.53543
219.135745446057 1.53902
223.149659360399 0.999245
227.14504590594 2.28057
231.13658825328 2.2742
235.168687062188 5.98692
239.171285168769 0.908999
241.190802947817 2.21697
245.149205535517 1.24591
253.179256203606 6.11169
255.206959424139 1.95028
257.186962382761 0.603778
265.194568096913 7.71336
273.185896045888 0.683994
283.20521134755 11.554
301.215939765497 89.3072
301.342514501772 1.66418
301.41566287756 0.94824
301.50079485347 0.821747
301.555690456901 0.516672
301.963272083171 0.523384
302.196727028143 0.54245
319.22622816636 29.1079
422.238274785375 0.996084
439.305797042682 0.609528
440.1234407828 0.504776
440.245379839781 7.79486

>collision 20.0
43.0554900453572 1.92589
55.0559226648015 1.3306
57.073393868016 1.90659
67.0551711432295 5.49702
69.0710025478675 2.28197
71.0501370226396 1.41789
71.0851344545628 2.53529
77.0375923514319 0.968619
79.0535716283796 3.94351
81.0713743962627 5.34329
83.0473262220646 0.986689
83.086451042689 0.902703
85.0644366032893 0.895018
85.1012819044555 0.927804
87.0443236653808 9.1879
91.054862215062 9.28151
93.0703843310668 7.84307
95.0849012927445 5.63291
97.0655518136436 4.82195
99.0447034101796 2.36131
99.0748050863347 0.783176
105.069858525997 23.5599
105.135155883511 0.590216
107.085193337426 6.36817
109.100415828064 2.97474
111.080324017566 0.543567
113.056554205014 0.795227
115.038645797235 7.49795
117.069031537361 5.37774
119.08554595902 22.1452
119.156145982853 0.685685
121.100441399495 4.52477
123.07985088692 1.55926
123.116079936317 2.43297
125.060615684597 6.33607
127.076014590348 0.505393
129.066396432007 2.22707
131.085258160924 5.12852
133.10096008768 14.531
135.095543031046 2.91048
137.058599677495 1.06422
137.096799490209 0.849948
137.128264071692 1.00732
139.074463275068 3.03505
143.085430850601 2.61095
145.099521702649 2.23741
147.116769263995 7.01401
149.131992196468 3.64741
151.076213723153 1.87853
153.090913179707 1.18374
155.088955478182 0.562669
157.102521909505 2.64697
159.115415710123 1.02826
161.130720273121 4.3404
163.145511828177 1.2728
165.09026764631 1.06725
167.079300286094 0.771445
167.140867691834 0.633288
169.105658542991 1.14144
171.114566462028 2.63535
173.129274117616 4.4554
175.144883790186 2.31343
177.164788674743 2.69517
181.09963738087 3.02659
183.11852893884 0.764556
185.127768796027 3.34466
187.146651004279 5.22827
189.163472317904 100.0
189.340001228403 1.06117
189.559927619614 0.699401
189.915170312497 0.559465
191.106592751009 1.01544
195.116572319287 2.09693
199.118398327174 4.95778
201.162210422432 1.40973
203.107712933838 0.874665
203.181130581766 2.05305
205.193983320581 1.93099
207.130678968372 0.644494
209.135562561828 2.11651
213.134225442034 2.25108
215.160328525957 0.634119
217.150321465856 2.17751
223.152456698886 0.877371
227.157062912854 1.01315
231.136846526883 2.21226
235.167500980694 3.32996
239.173455951856 1.21845
241.195761206892 2.97258
245.156732039992 1.29712
255.20989107744 3.05836
257.194654578332 0.529419
259.163758351334 0.732418
265.194585259492 5.81642
273.184976505297 0.790493
283.206684686699 5.05542
301.215274788387 28.5093
301.373180763753 0.535145
319.226704030466 3.07083
439.502427205381 0.576535

>collision 40.0
35.3171363106049 0.624503
41.0389490872692 9.4049
43.0184198987181 8.23722
43.0548723135555 15.2737
45.0341047494877 3.97925
55.019344785004 5.29724
55.054863031172 14.2395
55.9391274416058 0.586791
57.0338620567339 0.507528
57.0697956142367 5.7764
65.0403654242975 0.916225
67.0546617397809 26.0937
67.1158444378728 0.544836
69.0359114317181 2.38361
69.0709548078178 11.8165
71.0491219103177 12.272
71.087073993175 2.39939
77.0392674913488 4.66125
79.0538010248625 37.3045
81.0334381753263 2.04777
81.0699002168225 12.4826
83.0501853992997 1.28975
83.0828618917405 1.73041
87.0447205925897 25.9743
87.127844187136 0.510478
91.0540798204614 92.2508
91.1217957014538 1.95872
91.142527492585 1.47489
91.1675106453414 0.931875
91.1988044222662 0.733258
92.0550821490442 0.665099
93.0701678753567 24.774
93.1324715968686 0.771793
95.052096501222 1.56873
95.0867855886653 10.5386
95.7287872562779 0.517853
96.0796551669321 0.882101
97.0639729642214 23.9811
97.1328088678846 1.07264
97.1532108515478 0.540861
99.0428041572597 3.37573
103.053960890908 1.92963
104.066682116019 1.30768
105.069759450484 100.0
105.207878865444 0.81416
105.246251212736 0.640721
105.293524261284 0.512574
105.394870866514 0.958602
105.493585863433 0.615332
105.78424303527 0.554404
107.04610794241 1.44583
107.084458140697 12.336
109.101207820038 8.12316
111.076141411167 1.29125
113.058392334699 2.6134
115.048902577421 3.5229
116.061719189374 0.801437
117.069202776304 17.8416
119.085036925419 80.6791
119.1850240369 1.67128
119.234470259744 0.634439
119.485546326708 0.7545
120.143655386028 0.626087
121.100194545601 5.32646
123.08502226067 2.21048
128.061184590226 2.02401
129.068476343101 11.7107
130.073104164343 1.6553
131.08512239274 20.0987
133.100400443892 38.4785
133.197701443206 0.863181
134.109875421125 0.811115
135.080028051301 3.27114
135.116729218268 3.55706
137.057204851342 1.06362
137.094508049629 1.23844
137.135949326318 0.614126
139.075377664295 3.98731
141.070782231999 1.66738
142.079770346792 1.57933
143.085291990317 10.2306
145.09991357539 10.3625
147.115957371314 8.75344
153.071840305701 0.876622
155.08582888046 3.06805
157.100261787431 10.7418
158.098792275539 0.611518
159.077232693137 2.46739
159.114826183357 2.44695
161.130887799072 4.62389
163.109053864655 0.72541
165.07757376747 1.01045
166.078100544155 1.22362
167.0834988961 2.30642
169.096471303151 2.09246
171.117476606133 10.4573
173.122526975432 2.61999
175.144114120514 1.82577
177.08028826425 0.949029
177.167913130876 0.944019
180.086676830653 0.502708
181.101681875805 4.62505
183.046637049866 0.687514
183.115954457863 1.15616
185.12550029799 2.50607
187.140938784024 1.66237
189.165020519097 17.8607
195.113106863814 1.11673
198.106388548298 0.567552
199.113609770254 2.62333
199.149195611296 1.23591
201.160873249324 1.29424
208.122062984959 0.959471
209.133585707713 0.959123
213.159783553126 1.66915
214.180079949815 0.544482
217.154730532669 0.738881
227.17825762996 1.28842
239.175588201011 0.516212
241.195421066582 2.21781
301.216179016006 0.599072

