>compound Dihydrofolic acid
>formula C19H21N7O6
>parentmass 444.160573611141
>charge 1

>ms1peaks
120.044779480929 1.4935
178.072128536454 100.0
178.193223700248 1.59776
178.228048508614 0.851912
178.315708911266 0.704544
178.438126461802 0.505975
178.531865810422 0.501915
179.073479261229 0.522779
295.099202908263 0.943057
296.093631338799 1.72536
297.108445009407 13.5549
443.147953263582 1.26836
444.160573611141 47.4713

>collision 10.0
120.044626726835 5.04284
136.052619937076 0.524662
161.044971491491 1.36795
178.072094348219 100.0
178.189521886713 1.74571
178.237014655647 0.839479
178.319815580463 0.519331
295.091241443457 1.94738
296.096605171895 3.27189
297.108571201045 23.1572
444.161417362974 2.56276

>collision 20.0
56.0499911769161 0.514557
110.071389529019 0.639458
120.044638319978 14.388
136.050619343228 1.72352
150.076171217665 2.0283
161.045532028327 2.24143
178.072179240044 100.0
178.194050675115 1.75213
178.229397638917 0.847872
178.297658531122 0.521853
179.074229276286 0.822317
295.093543715885 1.50115
296.095416717327 3.3179
297.108916745832 13.0129

>collision 40.0
54.0359567902845 0.818362
56.0500520779367 3.5544
65.0398099396142 0.548487
69.0079982022277 2.19875
81.0452656167474 1.43202
83.060988009362 2.71646
91.0287602789361 0.930837
92.0489370599043 0.637664
106.040234165514 1.14158
108.055990349525 4.76461
109.048170706222 0.856467
110.070692240756 9.21131
119.024050799531 1.40481
120.044712272278 22.5961
121.048513805711 1.57936
122.035473333864 1.38758
133.050389802004 3.07607
135.066420651292 4.14681
136.050367429232 17.7136
137.052164569434 0.772392
150.077605960862 10.3723
160.060998787879 1.866
161.045845457011 26.1782
161.15956357857 0.5289
176.055945345396 3.63309
177.059604636432 0.906935
178.071785559506 100.0
178.192587939679 1.5058
178.22637896244 0.712278
178.273732007469 0.666194
178.322920288628 0.568626
178.390620270327 0.580267
295.094963103481 1.1184
296.093449166366 1.48576

