>compound Petroselinic acid
>formula C18H34O2
>parentmass 283.261258877968
>charge 1

>ms1peaks
57.0707037816169 2.09474
69.0691116471243 0.680602
71.0843925757779 1.30979
85.099734451588 1.32933
95.085001946742 0.52691
97.101381555456 0.648581
115.075537333593 0.639059
123.113810012787 0.533027
129.089909291321 0.776696
135.115744199194 0.507973
139.111310792582 0.712501
153.128395667371 0.661045
157.120616398387 0.903362
171.134377734428 1.42308
185.153146450898 1.07805
185.188428104595 0.532252
199.169030811384 1.35987
213.183540002574 1.47232
227.199458237634 0.941515
247.239936655245 4.48264
265.251194765537 11.9092
283.120707041905 1.48302
283.262242906545 100.0
283.402184216993 0.570713
283.632141172825 0.520855
283.735186491555 0.523508
284.26270858282 0.546273

>collision 10.0
41.0387278770525 1.31778
43.0176577838323 1.91822
43.0550284218453 8.76067
55.0189593632419 1.37095
55.0552135203394 5.74096
57.0336262132983 3.94556
57.0701044648443 46.2232
57.3377808751275 0.690456
59.0446474282872 0.694645
67.0544590222121 5.85277
69.0308253574566 2.0185
69.0689441110866 19.7943
69.164536310765 0.70616
71.049448450098 2.21015
71.0859831529361 55.2022
73.0632884484206 3.29037
79.053536670999 3.44404
81.0693901185136 16.9127
83.046963403951 1.39679
83.0850747651685 28.1142
85.0658980697238 3.07452
85.1010549403691 36.8336
85.1483359883954 0.606178
87.043586820762 1.01363
87.0780356103966 0.613918
93.071138382125 5.62093
95.0854751455915 24.4563
97.0642935458765 12.3131
97.1013695087463 27.8227
99.0782201425887 3.43679
99.1162697782779 4.82772
101.059267905407 3.99032
101.093965620434 2.47577
107.084256013497 8.62928
109.101302525044 15.8339
111.079411465255 9.26869
111.116315864006 17.1997
113.057641506114 0.948598
113.094311924675 2.8217
113.130239805242 2.88577
113.153783097013 0.714073
115.073695759268 9.05586
121.100025556518 20.1392
123.116954370892 11.5338
125.02262680225 0.809435
125.0950673859 18.2774
125.132016592001 5.10658
127.112362784646 1.44354
127.143204268687 1.47504
129.090218202567 7.62547
129.120171806499 2.38964
135.116432975198 22.6403
135.297285345684 0.596082
137.13015077917 11.8712
139.110183722237 22.1567
140.038317956508 0.685131
141.12427487778 3.40755
143.106603633562 10.3838
143.171893323416 0.60113
149.131358305455 32.6293
151.149543532843 7.75947
153.126300949143 19.1708
155.143366133369 2.32375
155.176777031983 0.756093
157.122778371621 8.41434
157.588567942121 0.713602
163.064459878197 0.843238
163.146582438131 21.6284
165.161550012703 4.78881
167.142039238632 17.838
168.503514977728 0.59699
171.134427702994 9.45244
177.162806535617 16.8445
181.158611071739 17.3446
181.729229296683 0.727694
183.170961741997 0.892305
185.153041437986 9.39324
191.179168559931 15.0078
193.19466643293 1.40661
195.175579929384 10.8314
197.180993884767 1.10493
199.16723623374 7.9007
199.200916675273 2.88421
205.195524887278 4.55118
209.187968015295 10.8045
213.185352409495 8.34711
223.2292035347 5.87051
223.887226137021 0.613918
227.197595757435 7.86537
241.214793049602 4.66172
247.241286488497 77.1246
247.547348725009 1.10391
247.613712048979 0.667426
248.90389655927 0.587359
263.232479882902 0.654236
264.249834942003 0.66413
265.251216295685 100.0
265.433771087005 0.646159
265.525717880192 0.728746
265.629176685687 0.923674
266.201819942803 0.65915
282.224220738783 0.694637
282.275351124816 0.814312
283.146925228796 2.12148
283.261258877968 30.6167

>collision 20.0
41.0385779688091 3.23943
41.0545046918895 0.728986
43.0193425283401 4.95981
43.0548320708137 43.1285
55.0171492661724 1.95994
55.0549163615395 41.0475
55.4216646194267 0.667329
57.0333341570861 7.26973
57.0704725820622 100.0
57.1510218547045 0.693907
57.1790889013186 0.768038
57.3605267885067 0.64461
57.44139129689 0.603415
57.4683745358899 0.512635
59.0464488336807 0.976055
67.0544554866665 13.4482
68.355121128622 0.563916
69.0345079816025 1.23209
69.0700469970932 63.6137
71.0483907747959 3.15707
71.0855137203264 61.4344
73.0674560621458 1.92458
77.039318917191 0.86838
79.0547502830427 5.83011
81.0697827554386 31.6085
83.0490464097743 4.10103
83.0855721876556 57.1931
83.1698445992085 0.631608
84.96231204249 2.23999
85.0652741027537 5.46322
85.1012331965278 27.0731
87.0439396847697 0.855126
87.0781710765109 1.01715
93.069869381927 26.0555
95.085825535037 33.5354
97.0644987611643 24.2434
97.1009453728678 41.2614
99.0807032576388 1.95258
99.1193623929165 0.881657
101.057212242754 3.93861
105.064963415008 0.558043
107.010825366442 0.524968
107.085316262683 21.8911
109.100017667712 16.574
111.079037163869 12.6652
111.116484236179 15.911
113.091390104232 1.15413
115.075992864315 2.49729
121.100148166089 30.0817
121.155015647088 0.675953
121.555634766693 0.652703
123.115153928449 11.3887
125.09782636241 8.26091
125.12901745174 2.70132
129.091683576675 2.2531
129.126316971751 0.653503
134.486386975267 0.554502
135.115722206719 30.4085
137.131212237881 5.94694
139.108408366798 7.5533
143.112432847576 1.33306
149.132053893885 21.3849
151.14666625757 3.17531
153.126540772309 8.47141
154.12846645747 0.616661
155.139927507749 0.735022
157.11990397246 0.958839
157.161464860329 0.883114
163.14568038788 8.92526
167.142783236258 5.64775
177.162114990292 5.64403
181.158237633791 2.97281
184.024821496054 0.762395
191.178400880331 7.50257
195.173837345989 1.75336
199.160463509753 0.984035
205.193440311721 2.70601
209.186407339881 1.34403
214.923382812088 0.524722
223.199218325363 2.61498
225.086438921211 0.671318
247.244032525323 9.48022
265.25130545316 2.25331
283.142213407365 0.614432

>collision 40.0
29.0398775403498 1.41027
41.0393020682226 39.8669
41.0769514152365 0.867092
43.0175032362165 6.56239
43.0551457349355 69.2134
45.0315314113785 0.691411
53.0381513322567 0.693648
55.0186065922494 4.852
55.0548974961178 100.0
55.270807134353 0.921819
57.0325673329343 1.97946
57.0705978451657 63.9067
59.0490925830318 2.47287
65.0378532910149 0.712127
67.0552480584299 20.5921
69.032969496724 0.566192
69.07025366631 66.5017
69.4157142292734 0.572139
69.476374978874 0.707208
71.0499515682958 3.24916
71.0853398873999 7.40379
73.067087725574 1.74388
77.0408077791589 4.84104
79.0541388035926 15.7704
81.0280716965061 0.689587
81.0701719542275 21.5635
83.0850317170514 15.949
85.0654924975148 0.544008
91.0554233899798 4.57751
93.0696155358355 24.258
95.0852130599336 11.244
97.0650002312007 11.4331
97.0996158873273 6.22879
101.054241278292 0.54053
105.066984089751 0.650935
107.084970368399 10.9261
109.100346943643 1.37161
111.077976032962 1.65029
121.102264185039 3.53352
135.114693838295 1.31253
149.130902184064 0.876702

