>compound 13(Z)-Docosenoic Acid
>formula C22H42O2
>parentmass 339.324091474434
>charge 1

>ms1peaks
57.069581773061 2.23803
71.0836342494923 1.13038
83.0858031838171 0.518482
85.0991916828713 0.952233
97.0634211665597 0.706504
97.0987210019527 0.553852
113.128298694097 0.586665
127.145529683771 0.681549
135.117516297204 0.582238
137.130084811298 0.595788
143.102331109855 0.73459
153.123237935761 1.47847
157.11902364342 1.48855
163.148984733692 0.789573
167.139218228266 0.749796
171.136913675733 1.08634
181.155562688737 0.877702
185.148359314229 1.76628
195.171431112101 1.09554
199.168456786111 2.84054
209.193278605528 0.599481
213.186629010229 2.38212
227.201755284167 1.89087
241.218822436134 2.5771
255.233555633525 1.65931
269.245455640586 1.14519
283.25780537764 0.869476
298.03225701808 0.967414
303.30748459517 1.71492
321.31444522179 14.3054
338.315466456629 1.27215
339.324542990381 100.0
339.488306835921 1.79104
339.538778284046 1.20427
339.611407447107 0.631871
339.671893149359 1.09755
339.899502335617 0.60618
340.148475775533 0.923805
340.311446023936 0.642439

>collision 10.0
43.0174995755242 2.31045
43.0573076576227 3.07722
55.0156480252886 1.41378
57.0705944570283 37.3854
67.0564925139306 5.45895
69.0694673699023 14.7818
71.048754096233 2.10168
71.0863393624847 42.5626
71.1420234744342 1.3245
81.0707082357545 11.4419
83.0863939942124 14.0409
83.117680697099 1.87801
85.0657879459769 4.59767
85.1008605359637 38.0777
93.0658498337075 2.90547
95.0843587367222 9.56101
96.0886634054247 3.75354
97.0644446705993 4.62183
97.100662964857 15.1502
98.1037563879153 2.01413
99.078584102654 6.53525
99.1151524557574 8.02973
101.05819262736 3.33465
107.083825892633 2.90971
109.099460435988 7.28112
111.08294491018 3.84912
111.115593035083 8.41617
112.125281936465 1.23759
113.131614909427 2.47121
115.074069446141 7.48656
121.099282984372 8.00408
123.115466156019 5.99435
125.09604867953 8.30245
129.088600616013 5.89915
129.121478454628 1.89065
135.115235379082 13.6223
137.130107348603 6.67823
137.18436081993 1.29141
139.111074596117 18.4896
139.142053854713 8.50007
141.162460594602 2.3233
143.102570900145 5.98325
149.130134365185 16.92
151.148820975578 2.87308
153.126015829924 15.3868
155.180456613796 3.77819
157.12050579704 9.62726
162.427639462085 1.71168
163.146731131974 12.2132
165.160891454635 2.81583
167.141476597339 10.1624
169.187187262389 1.80188
171.140229440787 3.52766
177.166364434784 7.07339
179.179853915727 1.14351
181.158259386778 10.3307
184.135563019214 1.39789
184.965033047101 1.56266
185.151806326101 11.8327
185.418993906075 1.64443
191.178111705082 8.16981
193.190045068581 1.92358
195.17319662229 16.6469
197.221345770673 5.57604
199.166811049844 8.41773
205.192997219323 8.11806
209.188531413138 10.338
209.237882513594 1.88633
211.182368812753 2.23663
213.183712126716 14.6257
219.204245737786 3.35621
221.220446941382 2.96382
223.201741192181 6.90908
227.201612475527 8.3096
233.132976167671 1.1288
233.223991641649 5.90952
235.813630189841 1.48975
237.222737054634 9.24615
241.217194174912 12.3093
247.239165470688 5.57173
251.242139485244 4.31414
255.233302084043 16.3041
255.300762091118 2.15588
257.013677909269 4.25757
265.249655080271 6.91767
269.247455284214 10.182
269.332550419314 1.5405
277.294351431277 1.6242
279.274725346345 1.62049
283.274677779715 4.86718
298.040236523491 2.8904
303.304657765837 47.0916
321.314174927974 100.0
321.480234170134 1.51214
321.706091654495 1.76819
339.19108222011 3.37358
339.324091474434 59.0618
339.472397311122 1.65068

>collision 20.0
32.0929653984635 1.64522
41.0388126465778 3.54147
43.0191433263769 1.6453
43.0552211055491 19.8714
55.054451982371 20.9392
57.0343309473104 5.48305
57.0703060963154 100.0
67.0554653800296 18.6884
69.0701149113318 65.3607
71.0481368526479 3.91249
71.0858477647139 92.1007
71.162891926033 1.65976
71.1891504958255 2.27543
72.0894121021094 3.04044
77.0365616373772 1.89575
79.0545445003427 7.09596
81.0693127224032 23.0263
83.049191119612 8.23304
83.0854531489365 57.8191
85.060642481063 3.87674
85.1011574600334 44.1726
85.1467551176374 2.86174
93.0695696211818 23.7008
95.0874326002343 27.6712
97.101201394264 35.3665
99.0786384205282 4.50138
107.085650880085 21.8138
109.100137269972 27.7681
109.150797730867 2.28536
111.08084252144 17.5333
111.115913580871 29.927
113.096420098124 5.94968
113.125286473634 2.91804
115.097796725876 2.89426
121.100985461975 38.4004
123.112964865878 7.69228
125.094425667539 16.6749
125.129644349352 8.65672
127.147164391549 2.44639
129.087481351056 5.88795
135.116154842041 31.3185
137.126616468165 5.74179
139.112062594913 11.2695
139.140817382739 4.92003
143.107458965659 5.18472
149.129204437126 34.6872
151.148262292824 7.91813
153.12507873031 13.2288
157.121939600378 1.56673
163.022905357895 6.97516
163.148388285394 22.304
166.125748417839 1.69525
167.140808103216 6.30144
171.136532566909 3.72234
177.163221808805 9.47145
179.172892168505 3.00187
181.159339519007 11.2861
185.140224501067 1.6059
191.178414428693 19.0439
195.171721262711 4.0975
197.189919721804 2.16041
205.189394331091 4.0967
207.213777521285 2.65909
209.192403439292 4.62195
209.247605977482 1.70325
211.173051735261 2.51567
219.212402403765 3.75207
223.197658352753 3.01792
227.20236509803 3.02086
233.223495579028 6.89645
237.21994779169 1.7859
251.237637739329 7.0503
279.247305061227 1.57476
303.306335264982 16.9285
321.315745852839 7.63018
322.356561426826 1.80468
338.346738820577 2.15426
339.213458627756 1.93491

>collision 40.0
41.0389767977173 14.7661
43.0197440314081 6.54354
43.0546581530808 77.0562
43.0958083753018 1.37148
43.1163770738102 1.57925
45.0347573305599 2.27663
55.0202291500902 3.67672
55.0549242782021 100.0
55.1223260513131 2.54841
55.5966889490868 1.42167
56.0601201834753 2.39339
57.0344736461716 3.82739
57.0706501792997 89.0018
57.112723026096 2.81225
57.1399685524836 1.20116
57.2487292815446 1.3763
57.4998922984587 1.52394
58.0695340669474 2.34272
59.0531339548309 1.36617
65.0442669004008 1.21741
67.0537388907448 31.3229
67.2563243648275 1.28178
69.0696341709175 71.7072
69.1660837327002 1.37165
71.051485726104 4.51023
71.0854646625807 13.1385
71.1267587070833 1.31474
73.0619752829746 2.36687
77.0449885202105 1.69327
79.0537932674718 17.5159
79.1565798754363 1.34931
81.0702110146346 23.403
83.0481435486146 2.63609
83.0857099949858 33.9376
85.0650302985336 2.18563
85.1001346252221 8.55105
87.0444120791018 2.01466
91.0541962544493 8.8253
93.069628274561 26.681
95.0858008941408 27.0334
97.0623627717348 10.643
97.1032996012552 5.60731
107.08568794596 11.429
109.097351421758 5.86524
111.081200481762 4.85196
121.097967762492 8.99139
123.112533415208 1.37439
135.119545524849 4.35139
143.013990516125 1.90141
149.131435281596 2.73025
161.030951529569 1.35526
163.025622978888 3.30782
163.14611034763 1.56283
173.302280958532 1.19653
188.285409649401 1.80553
221.233215022293 1.32026
315.957197386337 1.81328

