>compound (&#38;plusmn;)9,10-DiHOME
>formula C18H34O4
>parentmass 337.234306114957
>charge 1

>ms1peaks
336.201410394448 1.78039
337.234750373766 100.0
337.475945823868 0.863326
337.531254522696 0.655812
337.567946691163 0.599042
337.624982453851 0.713461
337.718739235035 0.678052
337.953322695231 0.516779
366.95332269523 1.0e-13

>collision 10.0
337.093007800891 1.35513
337.234306114957 100.0
337.399010696904 1.59907
337.463625004707 0.764132
337.591993929175 0.674099
337.81182894332 0.662977
338.21734095534 0.56207
367.21734095534 1.0e-13

>collision 20.0
97.0645776005344 0.619136
225.10693104266 0.556709
336.171973053941 0.616355
337.234498481321 100.0
337.402611624001 1.29039
337.490453598117 0.649575
337.589647640226 0.6827
337.694147956175 0.589897
337.755121802322 0.617941
338.120020712885 0.628937
367.12002071288 1.0e-13

>collision 40.0
41.0396103279252 33.0719
43.0195335538473 100.0
59.0490389037761 23.4886
64.9747281784369 12.4061
65.035072449917 26.9767
81.0695730299607 16.9266
83.0879158347867 23.2806
87.0422011907816 13.2298
95.0843249564707 14.0304
97.0662162928842 36.9285
98.065336943832 18.7919
99.0440378106149 16.4208
106.367968312286 13.2611
107.083761677197 10.9036
108.086294512047 11.3268
111.046401668086 14.1089
121.044858476732 24.4486
123.082198688746 10.5757
135.085271992445 26.9266
153.08049162789 12.3982
194.159719993637 11.9027
207.02353992861 10.9672
236.02353992861 1.0e-13

