>compound Leukotriene D4
>formula C25H40N2O6S
>parentmass 497.266602541955
>charge 1

>ms1peaks
93.0680227460728 0.500394
95.084188316404 0.784419
97.064679832726 0.623617
105.069989279708 0.928847
109.101991100333 1.0413
115.038465476019 0.640657
117.056231929391 0.717546
119.089538330126 1.32736
121.096501366254 1.18753
125.058651530258 0.986493
133.099385955621 3.28694
135.084826559173 0.673041
151.073303882594 0.596088
153.096286977447 1.06964
155.102380943136 0.670259
157.102212450785 0.579386
159.111374372208 0.531453
161.129947507281 1.52462
165.120706339354 0.560093
177.166645839856 1.85426
179.048594330824 5.44066
179.073788522462 0.583844
179.091753631059 0.626561
185.09917961982 0.505769
187.14511587178 0.732621
189.163032092855 19.8379
189.20291662833 1.62708
189.234209144493 0.559552
195.114521688409 0.827689
199.111880946913 0.905836
203.096653538267 0.535255
203.176986256481 2.29547
203.215421290568 0.500856
205.194300514878 0.744761
209.12814157896 1.07311
227.141248214718 0.987848
231.143614016548 0.527311
235.172713405109 1.05166
241.19501328777 0.780489
245.155707819801 0.965849
253.173506200448 1.69154
255.174552837001 0.664442
255.211482534212 0.874123
265.192966505274 2.91868
283.206864355368 3.90352
301.215536783266 28.363
301.292138507249 0.813461
301.321235315444 0.767174
301.437129752959 0.513017
301.549579852053 0.617369
301.994887776569 0.509351
319.226683587068 22.2767
319.394720988268 0.772975
409.15901940753 0.907143
457.674040345384 0.682909
479.259187640697 6.54217
496.653994025533 0.558699
497.267903772174 100.0
497.406381067918 2.29081
497.437179415065 1.74423
497.470373908352 1.80927
497.525299854251 1.37174
497.560072644984 1.19401
497.614949620665 0.787358
497.637041608621 0.592629
497.682729438046 0.697473
497.750209434991 0.796813
497.786120360075 0.656898
497.818702618236 0.532234
497.870014888483 0.68324
498.049878191622 0.680972
498.20320841191 0.643656
498.267764950733 0.692854

>collision 10.0
43.0542632463849 2.35017
57.068127505375 0.768292
65.8700448160076 0.538067
67.0564664886612 1.8548
69.0717547072678 0.549981
71.0482496875407 1.08715
71.0875602920117 1.02253
81.0726031470668 1.47055
83.0878385423774 0.532275
87.0444543724686 2.92085
91.0557786001932 3.41753
93.070686975784 6.37203
93.0895244011842 0.560725
93.107676063226 0.501394
95.0826168877503 2.54782
97.0611699778491 0.662192
99.044958607995 4.3607
99.0785150937104 0.658615
105.068702477314 4.07941
107.088128781691 2.37483
109.06452437829 1.46934
109.09835886975 2.57643
111.080357292864 1.6814
113.058347379376 1.42633
115.037196685662 2.94101
116.021945136608 0.659041
117.054154827599 1.88122
117.06988370924 8.55853
117.098464972653 0.632655
119.086020083076 7.29352
119.122048929393 0.560946
121.099455722169 4.55165
121.130892243866 0.584614
123.112931871625 0.741872
125.059092417869 6.60174
125.076530037074 1.31636
125.095474009689 0.800843
129.072800565776 1.04977
131.086037370926 3.38056
132.941221959884 0.542899
133.101017399727 5.75864
133.122252544687 0.645219
135.081182140777 3.71255
135.115079558445 1.85898
135.979903930662 0.590766
137.092907757093 0.717113
139.107155311445 0.524987
143.069912061871 1.88695
143.090026932178 0.632635
145.101694482284 0.984656
147.080255450296 0.778335
147.112836314331 2.66488
149.132872949007 3.77589
151.074756611715 1.45293
151.093335067864 0.60097
151.105046747189 0.615897
153.089713860078 6.06124
153.120562891556 0.688865
157.099946777607 1.45272
159.093104131166 0.983027
159.114957067295 1.49882
161.098040805134 0.530744
161.131894879992 1.75088
162.022127220147 5.43268
163.134747272358 1.03514
163.150152237538 1.48149
165.092451055274 1.5745
166.080562384933 0.967629
169.112327326946 0.841165
171.10977484373 1.20123
173.114568838704 0.639684
173.133461066788 3.35116
175.149684329899 0.812728
177.096618281863 1.06284
177.162360189072 2.27369
179.045612710222 13.7605
179.073309146748 2.21914
179.102463181654 1.3601
181.700325792342 0.558354
183.119701024186 1.35054
185.093927759215 0.640088
185.128729810417 1.01102
187.107835730521 1.22739
187.146773637601 7.52321
187.173652884899 0.65429
189.163404508198 100.0
189.198856291242 7.82206
189.254072818768 1.77496
189.274721651812 0.952099
189.293188388853 1.28807
189.330740823104 0.788689
189.367624804515 0.657061
189.534480148911 0.96302
189.652931857516 0.573592
189.851523107908 0.673897
189.927684782667 0.625563
190.026991191451 0.534256
190.161931843904 0.799557
190.52827956435 0.596865
191.110588739745 1.0588
195.110466499773 1.39975
195.127782314356 1.38739
199.110657667721 1.88664
199.145495225599 4.16363
201.128326216151 1.62347
201.164028615304 2.17838
203.104805468436 0.637477
203.144164531367 1.37852
203.179460505566 5.67233
205.123250255129 0.586483
205.193523733834 5.68836
205.228639391815 0.779582
207.132717137632 0.7931
209.12906988831 1.62289
209.151802548558 0.782439
213.126334361047 1.7563
213.16423597455 1.77324
217.119500113876 1.317
217.149493198693 0.813384
219.138424806827 0.530499
221.140663277353 0.522191
223.147209946737 3.22306
227.140883647195 1.12535
227.176743976423 0.619577
231.138044563132 3.79278
235.168105418317 6.4863
235.218474798917 0.519525
237.165986922135 1.52351
239.17511747895 1.54617
241.188189783472 2.57721
245.155938257484 2.54673
245.190551572006 0.795849
246.96099985812 0.543016
253.184512919571 4.31729
255.204209443444 3.88969
259.16565305383 0.963329
259.202419640084 1.21264
265.195341101985 8.39584
265.230274903518 1.00598
265.265543520157 0.703608
283.205340328101 10.4129
283.261372711928 1.01602
285.326261637945 0.553163
301.215461054775 72.6388
301.295174396853 2.73378
301.320080727139 1.88283
301.377162446065 1.80694
301.418474942273 0.712735
301.594792090713 0.819048
301.636535684072 0.547625
301.675444620653 0.892269
301.910861445439 0.662763
301.975331005152 0.958562
301.998887344587 0.570891
302.03439941135 1.37666
302.146842010204 0.876886
302.339309201844 0.595568
302.373310298136 0.692617
302.772590311518 0.692558
302.9267247145 0.59441
315.090705011988 0.660122
319.22579330029 39.5468
319.277846829145 2.99767
319.3184525949 1.85016
319.356538051484 0.953179
319.393393875076 0.683984
319.51302411808 0.896974
319.765464615941 0.581184
320.129361370868 0.550591
320.368222156279 0.671046
321.178027523471 0.551641
337.121667649791 1.65307
338.12358936416 0.670038
401.046725032898 0.541303
409.175260477501 0.644538
417.662438819055 0.541098
418.872965230298 0.919011
457.682678977046 1.24254
479.014473797381 0.942645
479.260165964384 4.92444
479.31206144748 0.768847
497.1568606788 0.713274
497.19989472976 0.653639
497.266602541955 13.268
497.340440807142 0.605172
497.455254829842 0.55

>collision 20.0
43.0165256224361 2.02715
43.0308936180036 0.98932
43.0554028247781 2.54765
51.0231874344343 0.716616
55.019883537863 1.20083
55.0560398061777 3.2103
57.0700411267352 3.93917
67.0534345930848 2.18779
68.0787711434665 0.559007
69.0694470789337 2.87188
70.0283622122484 0.806631
71.0485255377129 2.62293
71.058668300462 0.724897
71.0831780316692 3.22609
71.3193814926758 0.600415
76.0234293337827 1.27749
77.0399007611157 1.60953
79.0538093172901 3.66483
81.0686318819688 4.77582
81.0948435746409 0.685681
85.0651335256417 1.41824
87.0445147098215 10.5515
87.062407702765 0.818842
91.0541208820055 12.5671
91.0697692824852 1.11931
91.083538908355 0.860621
91.1069110694102 0.630511
93.0705969567861 7.02196
93.0911912303097 1.1329
95.0846751820019 2.76261
97.0659240557705 3.07875
97.1010881763709 0.591239
98.0692599935005 0.892427
99.0450120114674 5.98934
99.079395841859 0.552704
105.069797976429 19.9013
105.093495846103 1.70845
107.084001511673 5.04999
107.118679660493 0.543479
109.061363468249 0.590959
109.098956061799 3.76022
115.038184030291 5.55973
115.052486502682 1.84598
115.084065062054 0.65536
117.070151540984 7.33619
117.087946651273 1.33677
117.104570691241 0.73174
119.085889434928 21.2761
119.12080185355 1.32263
119.144195163867 0.71366
119.170744898198 0.662688
121.100282074142 5.29448
123.081904533456 2.99212
123.118271552709 3.58204
123.12988663985 1.15354
125.060322690193 8.93979
125.095059640673 2.56119
125.142214698466 0.507432
129.070927440232 0.880859
131.085872285712 5.73967
131.115236145969 0.632943
133.099810954713 18.9437
133.129113494111 1.25906
133.16550211493 0.561495
135.078638028048 4.94862
135.119031579619 2.57849
136.007694227957 0.624077
137.05746474692 2.69814
139.073710222837 3.41491
139.113211806536 0.559151
141.069059468383 0.587992
143.082558825744 4.22383
143.095943648606 1.11885
145.061231080271 1.70831
145.099640049912 3.26215
146.073117048026 0.621218
147.079023940697 1.10601
147.114624782572 7.05423
147.15130351409 0.673078
148.131467545249 0.766047
149.09581481658 0.849264
149.132535857323 2.6537
151.074839761395 1.90042
151.111878981045 0.916474
153.094175297772 2.39724
155.086176628857 0.684474
155.106394631724 1.74213
157.101059205244 2.15986
159.082817569536 0.80585
159.120570305619 2.5025
161.095269781139 0.907806
161.131068095398 5.9327
161.15272632339 0.665521
162.022629650884 3.46665
163.107086919994 1.35017
163.146936327108 1.40212
165.071783819102 0.657998
165.09077266438 0.900946
165.124090202112 1.09524
169.094791007118 2.87743
171.117578614861 3.40162
173.132852457571 3.24017
175.107185458265 0.91105
175.150669185724 1.0897
177.16284723309 2.26103
179.047704525987 7.0573
179.096399311762 0.890344
181.098265044094 2.03025
183.117491295781 0.878745
185.092118206137 3.25193
185.131233985649 1.92549
187.14604495437 7.06146
187.178000626898 0.581403
189.089309884579 0.977193
189.128385843642 0.967338
189.162909580791 100.0
189.292885708156 1.73799
189.341420912637 0.603172
189.515234206519 0.755953
189.556032647668 0.66493
189.759699507829 0.500777
189.878194036799 0.673655
190.120065149666 0.524644
190.176573724249 0.885435
191.108443276434 1.13975
195.111018291167 1.00329
197.132872169313 1.02784
199.115330346759 5.00033
199.150054750097 2.02094
201.12602928569 1.72668
201.166607875726 1.22817
203.149623643014 1.13095
203.181835117632 1.55855
205.198927918805 2.11672
209.129575865562 1.24236
211.16164042666 0.683231
213.126303343677 2.49005
213.159061412093 1.40673
215.18033448185 1.04789
217.119108806398 2.3141
217.153923349009 1.47503
217.580421984219 0.531833
221.149939237233 1.17865
223.142905276308 3.47956
223.16799531633 0.557865
226.089407576018 0.823714
227.138795854288 1.57352
227.180795625647 2.40531
231.135235406925 1.53479
235.170255935436 1.38515
237.165775126797 0.630627
239.18038480482 1.86338
241.192749579568 7.14414
241.216830763908 0.705284
245.15156653047 1.75344
255.209333184483 2.96325
257.185238565615 0.629181
265.190494759315 5.43965
277.081958814502 0.596533
283.207045679201 5.117
283.279795559026 0.534162
283.673293359922 0.654543
301.213996104768 29.8059
301.256156105478 3.27698
301.287330306613 1.60012
301.330892202367 0.880091
301.754139541865 0.569445
319.223468640708 1.48359
335.199199521378 0.52105
341.502202085378 0.602107
355.035873295474 0.538734
376.214176846136 1.16766
417.218419079922 0.622598
418.878953196032 0.610767
425.119839744597 0.880018
479.25919993817 1.51759
497.228481454939 1.01449

>collision 40.0
33.3894774539822 0.999721
41.0391969693978 11.0725
41.0487789000703 1.0199
43.0172245614266 5.98843
43.0546061500877 16.0204
43.3347181453702 1.23029
45.03523595373 3.39657
55.0186077342425 8.82979
55.0286776566934 1.37116
55.0546875031598 19.0498
55.072545743291 1.54348
55.0924225753339 1.17335
56.9632895424477 2.04167
57.0699385087887 13.4506
67.053684420256 33.253
67.0738365313872 3.30641
67.0903019186846 1.39446
69.0702235440058 12.4986
69.0893863064707 1.30295
71.0500607508835 11.8096
71.0853584282327 1.56832
76.0231727482594 2.14619
77.0383379977926 8.35713
79.0543951529882 31.0653
79.086488866967 1.54083
79.1056151279409 1.25327
81.0430721228801 1.03924
81.0711413602533 19.3344
81.0966666465359 1.29759
82.2513697759225 1.96296
83.0487997019723 1.71505
83.0900310653678 6.27001
85.1013662989673 1.91505
87.0452355528398 40.0713
87.069114134223 3.34317
87.0828442772098 1.21514
91.0533832514669 73.8
91.0778637330951 4.26608
91.1063594705383 1.76856
91.1440646377181 1.62643
91.1808263870238 1.24267
91.5746639179574 1.01938
91.8433926078119 1.02456
92.0665781091932 1.83489
93.0687054902743 38.9325
93.0816320249232 3.18513
93.1006989593482 2.41491
93.1163887120249 1.44245
93.3184863509321 1.74727
94.404226401365 1.20049
94.8254024934182 1.02944
95.0479885104418 1.51925
95.0856295930062 9.07227
96.043614462844 2.33496
97.0637326625 22.6599
97.0914435330186 1.73037
99.043982311151 5.83351
99.0779643366978 2.21615
103.052942425792 2.97703
103.069550001449 1.35019
104.065930259603 2.48999
104.491760705905 1.44414
105.069477113838 100.0
105.092528034989 7.54616
105.120165658432 2.69395
105.142926546319 1.17443
105.165952030672 1.86304
107.086717151573 18.307
107.104500618385 2.7609
107.661669852243 1.81405
109.063701706786 7.12373
109.09891225136 10.5818
111.083381344202 2.00645
113.056460400925 3.78819
115.035789208892 4.39354
116.016051697792 3.22991
116.212955522504 1.19266
117.07005072132 24.846
117.094399441494 1.46853
119.084994510764 95.5777
119.110880549699 6.03615
119.127586772953 3.0303
119.145270162906 2.16399
119.188577847343 1.42856
119.269791911247 1.02944
119.399028596862 1.54926
120.05281106755 2.78183
121.059654731975 1.61395
121.102596890895 11.1005
121.129956419255 1.22637
123.080561964477 7.08474
123.12042031948 1.98719
125.05798560098 3.96847
128.070076648367 1.32175
129.068070397852 8.59497
130.080677225268 1.14875
131.084632310815 28.7633
131.118205535822 1.88312
131.142485380341 1.3173
132.09035241174 1.56745
133.102256056079 36.3047
133.137291924234 2.88133
133.63711739293 1.37539
135.075480569584 3.0559
135.112658565022 1.10706
139.07888928939 3.55191
141.070100141652 5.42384
142.079818284688 2.74061
143.025904047244 1.98702
143.085315470642 9.50609
144.008904670405 2.72975
144.088711071551 2.18648
145.062420545522 1.27072
145.096719668619 9.41569
145.120476348669 1.66413
145.312869033522 1.19565
146.106748752908 3.00507
147.024116607941 1.11149
147.081252854352 2.63956
147.116407607934 13.3521
147.136479333398 1.20545
147.156787987243 0.994547
151.080878070326 1.04422
153.083720229426 1.79393
155.087907406118 3.28066
157.100981296693 4.6766
157.470116693512 1.63423
159.088168291901 1.46543
159.117172075371 2.55953
161.092362308175 1.77457
161.130568805107 4.16665
162.018431298041 2.50657
162.479693479133 1.68348
166.077488375618 2.83495
168.049677208049 1.21395
169.101592722529 3.65426
173.088049343757 2.11578
173.13269362057 3.38725
173.162949846566 1.27782
175.136997827373 1.14564
181.099046262757 2.08327
183.114278980092 4.3787
185.09504454567 1.95442
185.132087922899 3.36564
187.116908535335 1.24189
187.147480905786 3.33297
189.161475253656 35.4293
189.193688072608 3.71729
189.212497608508 1.90148
195.116774282717 1.34494
197.135755262824 1.71635
199.110615197419 2.6402
199.139494875302 1.14263
205.123191163052 1.27535
209.131628026255 5.45332
213.124694951506 4.48682
213.156171603202 1.36016
217.122286770986 1.79246
218.047671538974 1.33296
220.133900110697 1.19532
224.97352362173 2.18591
231.131801630743 2.50862
233.125956638288 3.5896
239.187648692521 1.06803
240.281882373848 1.54119
241.19193966291 2.095
301.211192377754 1.61466
313.216893202528 1.32261
313.23975418251 1.71469
356.099820741204 1.83256
375.746237757996 1.02766
376.741305767285 1.04474

