>compound Maltotriose
>formula C18H32O16
>parentmass 527.157976761527
>charge 1

>ms1peaks
527.15799049122 100.0
556.15799049122 1.0e-13

>collision 10.0
527.157976761527 100.0
528.12431425106 1.0229
557.12431425106 1.0e-13

>collision 20.0
347.093851785773 1.84972
365.105318827632 1.65411
527.158106248551 100.0
556.15810624855 1.0e-13

>collision 40.0
164.921222724348 0.782424
185.043973957477 2.12516
203.053505584531 8.19704
305.086086387903 2.78154
347.096531143481 32.0581
365.105113296019 50.5591
407.114945602688 0.964244
467.137984497803 5.98712
509.145333443574 4.50294
527.158302828524 100.0
527.671464707993 0.715727
556.67146470799 1.0e-13

