>compound 9-OxoODE
>formula C18H30O3
>parentmass 295.226683890298
>charge 1

>ms1peaks
55.057722353539 0.728886
81.0692178064316 0.721678
151.110760066438 1.04278
152.064000118608 0.551746
158.964417845012 5.06349
171.104144197081 0.743621
191.135691869662 0.520549
226.951242301177 3.67088
231.212340421201 0.806434
253.999855767983 0.941052
259.209508445243 0.554226
277.215046182416 33.5183
294.937892660159 8.42198
295.018525166667 0.59259
295.142426422151 1.47313
295.226683890298 100.0
295.435687162484 1.41797
295.498929802943 0.743752
295.688047423333 0.995367
296.225021508897 0.785238

>collision 10.0
43.055865207206 0.848163
53.0411390891047 0.712264
64.9727749225247 0.620245
67.0551820092694 3.32529
69.0709006913365 1.63247
79.0511120931932 0.834847
81.0346001854343 0.784069
81.0702705414352 2.7709
83.049365908516 1.66182
83.0812537126073 1.34363
85.0631197230222 0.645
85.101847806855 0.976268
90.9756875853238 6.63215
93.0691923951149 3.48499
95.0479999680438 2.27921
95.0860343188034 1.69919
97.0661586504452 1.18416
97.098923552908 1.58526
99.0808859905961 2.31272
105.071817797019 2.28059
107.084180371801 2.28621
109.065121178549 0.738868
109.100504985011 3.24953
113.096073713467 0.695596
117.070309261061 0.826567
119.083213233687 2.54068
123.123543457973 0.961294
125.09505195447 2.70916
131.085658012897 0.686386
133.100644318303 1.74315
135.077684799553 1.59364
135.119288656077 2.22481
137.093973413914 0.940956
137.132315344258 0.774244
143.083023426411 0.502765
145.10249651106 0.561842
147.118136125704 1.23428
149.090461214427 0.658914
149.131985657713 1.58553
151.109872036187 10.3457
153.094463008406 2.93978
158.963251635277 18.2772
159.070991976016 0.504076
161.132213501365 5.46466
163.108119078294 0.703166
163.151660307757 2.69423
165.086044732644 1.02779
165.124396479985 1.15198
171.108640590413 1.05166
173.136173750811 1.05624
175.144088887171 1.06934
179.124825890219 1.97591
185.127568771543 0.640651
189.1508918918 0.994585
193.123087920781 1.1777
195.131953473643 0.648993
199.146769118445 0.903515
207.137319906196 2.62855
217.193228439911 0.754775
221.147588319204 0.914314
226.95033836406 4.59327
231.207640061633 5.15781
241.195289603186 3.70278
249.222483795952 2.17433
259.202546585759 5.44123
277.215721851872 100.0
277.367032865911 1.77377
277.406265543221 0.778798
277.5160704978 1.01692
277.573842056777 0.926437
277.617854480712 0.661698
277.715131639323 0.810943
277.911620696058 0.58548
278.1625828889 0.522025
278.218032412552 0.930753
295.129744447959 1.58549
295.225354326719 7.96969

>collision 20.0
43.0547102411351 15.2907
53.035975389021 13.7612
55.0173523406326 8.36332
55.0546368187554 31.1319
57.07111380096 7.29254
64.9786325977789 11.0152
67.0554385060916 58.463
69.0321839069857 8.21679
69.0702144099414 74.6997
71.0467430635425 7.60513
71.085079520407 10.2525
71.1115459935285 2.9439
77.0381440983215 6.10722
79.0543478709553 33.2577
79.0908867738833 3.87282
81.032806077631 69.1414
81.0710612923636 64.4775
83.051054287617 17.123
83.0848743079121 15.1969
85.062861351455 9.16603
85.0984598563053 10.6825
87.041309696837 2.9624
90.9762737402466 100.0
91.0561765003218 27.0717
91.1088161985712 3.20532
93.0705726622194 43.1825
95.0500797848313 54.9002
95.0847997997369 37.7169
95.2511698520364 2.86672
97.0647068731046 9.31377
97.0997947534909 17.8266
99.0808280384479 15.7932
105.070504086818 24.2671
107.048184039391 4.82604
107.084528936788 34.5108
109.062511315881 12.2759
109.100595173845 24.6902
111.106359567478 4.29858
117.955396421749 6.69397
117.9927666301 3.23944
118.988634137646 4.86833
119.085155547093 23.0706
121.100767351689 19.433
123.07435873841 5.25578
123.118591534094 3.4645
125.09801462841 15.3622
127.114906254687 5.93306
129.069129090285 10.261
131.082200243152 3.43231
133.098974403414 23.7737
135.079944701705 10.7213
135.117250604982 13.821
137.129695828354 9.72355
143.082544435493 3.29681
145.097639942896 12.084
147.116277966037 21.4863
149.131757270743 13.7842
151.111627845698 98.5327
152.119399664386 4.0741
153.090568979905 8.12053
157.110268018094 8.51727
158.962471565241 26.5475
159.111805226826 6.21922
160.062300618892 5.51336
161.130765007654 19.6694
163.155441842867 6.16016
165.126908466757 25.3934
171.114451828717 7.93442
175.117046061155 7.60831
177.1571216604 9.24094
179.140766839685 4.12883
181.123503291405 3.64823
183.143296979257 2.87987
187.148789796891 3.23725
189.151054272232 6.63956
191.146368235001 3.29208
191.180606173395 3.03565
193.126196001953 6.43399
200.228671864724 3.01984
207.135265215748 7.20603
212.94415768695 4.20295
215.177645681688 3.24432
217.075003219781 3.71869
221.149240604539 4.56014
231.207157469242 17.2361
235.173354303942 5.4181
241.188450026696 10.7928
249.068111867455 3.10918
249.222925680766 9.30543
257.162275999421 4.4607
259.202489287048 10.4447
277.216077959181 51.488
295.164424681828 6.74365

>collision 40.0
41.0392621694069 17.6428
43.018499172463 12.7309
43.0545750220673 25.9656
53.0401052378677 69.7835
55.0179610921476 17.9451
55.0544988280922 99.3405
55.1210594936514 2.48096
57.0685265447104 4.09631
64.9784960099012 17.9929
65.0360507266317 4.81723
67.0555494867756 52.1126
69.034509942305 15.7345
69.0699297455733 45.6681
71.0496748356589 2.42325
77.0383057339932 9.24438
79.0548394641033 44.6722
81.0334527331148 100.0
81.0691997994509 63.2694
81.1153341562644 4.78855
83.0493719464743 15.9256
83.0818089689872 5.2407
90.9789091847335 3.02159
91.0530584299485 37.6229
93.0696222780696 28.5167
95.0672487468167 14.4558
97.0982089502308 2.31421
105.068975958695 27.0216
107.067012622561 5.08867
109.062311120575 4.19071
109.10409758561 11.1344
133.101557235484 4.57301
151.112550719193 3.43094
209.353012304667 2.4631
277.20568745868 3.46163

