>compound Minocycline
>formula C23H27N3O7
>parentmass 458.191955194587
>charge 1

>ms1peaks
441.165255959881 6.42239
458.192016275281 100.0
459.187889134819 0.524884

>collision 10.0
352.123891710911 0.586361
441.165419217429 72.3095
442.165116065237 1.17459
458.191955194587 100.0

>collision 20.0
154.049370737874 0.756474
337.094265768907 0.83657
352.116972735008 2.7482
395.155897497304 1.24603
396.106773349542 0.899429
413.166239405086 0.65108
423.154353867482 3.45744
441.165315831205 100.0
442.175963172322 0.599629
458.18979016494 7.31346

>collision 40.0
38.9610771766398 1.28897
42.0356825195778 4.4341
44.0492717668076 2.23567
46.0637340748069 6.60258
57.0745505760791 0.776976
58.0652807963064 9.47941
70.0651161027937 1.15725
72.043748108329 0.701239
84.0811935105802 6.1967
96.04083295589 0.862472
98.0606520983704 31.2716
99.7098937139603 1.09878
100.139166357152 0.781691
104.949068827145 0.883797
113.232740954232 0.803636
124.043080386777 1.08062
126.054540241311 10.7267
131.075275279102 1.85669
133.028166750768 0.712639
136.072933039637 1.92071
137.081761267685 1.92097
147.003830742799 1.64902
149.026309885798 1.62014
149.482498944757 0.859012
150.053284287692 0.773255
150.090849755563 3.15244
152.033331544129 4.43396
154.050779199767 22.8721
160.07260381399 1.00602
163.060109346497 0.733597
164.06545334361 4.3298
165.077414156441 0.817534
165.747428085657 0.771921
166.083459747977 6.51676
167.071098853779 0.81731
175.016013904357 1.03899
176.079287580094 1.1375
177.017492496987 6.02265
178.084967017363 2.36353
178.987989699134 1.59143
184.071076301065 1.7851
187.059575807673 8.03928
188.069295463967 3.18138
189.079149848396 3.33959
192.064417191888 8.20464
194.076219683598 0.773578
197.062042567 0.745441
200.065994166975 0.701081
201.076847650125 2.0427
202.088322747398 2.3478
203.02870599696 1.01328
204.102355660938 5.42813
206.089442487631 1.03072
208.116110502196 0.689402
210.084492208377 1.69838
213.079323942468 1.01111
215.057265280952 37.8292
216.064708984684 1.01637
216.104319267683 2.24571
217.073919910518 5.31061
218.043349406779 0.763757
220.062885876945 2.80965
223.095254310011 0.982238
224.066302279957 0.921453
225.072711330143 2.37657
226.082639118418 1.29191
226.123099023273 1.57781
227.093491152026 3.40734
230.079751360107 22.5503
231.083792306101 1.37474
232.096669129112 4.04487
236.100266063871 0.856288
237.064895696438 1.21137
238.085825111548 2.13659
239.093240972993 3.24499
240.109512079494 2.54921
241.076315034174 1.51643
242.117567445967 5.37773
244.122396593801 1.90073
248.098085948518 1.55427
252.101755702418 3.73087
253.063336499798 1.06194
254.070063683377 1.23442
254.113165916592 2.55365
255.087736239106 3.48476
256.062834274392 1.92545
256.1341320877 2.82108
257.101938362828 5.27093
261.076118583565 0.711933
262.077441376243 0.938576
262.125482971064 0.919461
263.090941282354 2.12861
264.069252345335 0.862462
266.072371151393 1.11207
267.09070220458 3.93974
268.061290860909 2.87246
269.075230089016 3.24225
270.113142896736 11.9958
271.078243485788 1.92188
272.131350538296 6.55039
278.117591095267 2.14417
280.097834859438 1.21395
281.099173595405 4.8469
282.114384415282 3.28227
282.817775976904 0.883359
283.083429470471 83.1804
283.843759391386 0.709905
284.085184866735 1.13697
284.127752996628 1.22019
285.098097204291 5.25342
288.124678504893 2.66964
289.073376495193 2.02729
290.076788657591 1.03133
291.084952954679 2.57688
292.065601165013 1.90601
293.102806401506 1.99628
293.176967869184 0.705547
294.116430797685 3.95193
295.088423149465 2.68936
296.127985017162 4.06267
297.100619397752 3.89521
298.103906752251 20.7164
300.12273266688 19.3783
300.928616820424 0.810259
305.037147635411 1.11156
306.086155417245 0.932751
307.08260737582 10.1807
308.132878228379 0.811204
309.103951571968 9.32237
310.142592816976 1.1621
312.127138301313 5.30175
317.071603079534 0.854863
319.080549903038 1.76709
320.086120373242 1.09707
321.164697857919 0.719927
322.107282070575 4.0688
323.154393680919 1.1228
324.119812119902 10.978
324.385875826411 0.76724
325.096830208989 6.04113
325.166243714333 0.80464
326.144017126508 1.16375
327.168529990812 1.9795
328.112378188111 2.46821
331.10298412149 1.64413
332.085267359913 1.90268
334.103002556796 3.22442
334.856452612912 0.705177
335.08073148256 5.42033
336.093652639217 1.2809
337.094736385053 100.0
337.64402308577 0.891195
337.712489476092 0.769442
338.097996072524 1.40204
338.165300608662 0.765637
339.172675966721 3.36906
340.120855210971 4.95467
345.056445295559 0.701571
345.182324124406 0.932513
349.11003036665 1.32697
350.100484533142 4.6692
352.117129288606 96.4239
352.677805460659 0.838682
352.958279429954 1.09825
353.088262408582 22.2606
353.192139634855 0.770146
355.167691167594 4.66739
362.117120910138 1.68194
363.078879377588 2.80472
365.093374901047 15.5475
366.070882860063 0.73732
367.163505243772 14.2006
368.113987315213 6.5431
370.129551432865 1.14008
377.146630876914 3.19302
378.102411276545 1.41842
380.137933653904 10.0643
381.087063402987 5.22184
381.140581201617 1.07544
390.116575412888 1.18384
395.156785765733 12.8312
396.10772071805 6.5257
408.131970795022 6.37386
413.176064283392 3.34218
423.152570783479 10.9854
441.165929245824 42.3127

