>compound &#38;beta;-Cryptoxanthin
>formula C40H56O
>parentmass 552.430774712354
>charge -1

>ms1peaks
460.368981256164 4.11805
551.422926617863 4.12873
551.631674878943 1.96917
552.43039301798 100.0
552.908387900466 0.562092
553.90838790047 1.0e-13

>collision 10.0
81.068677520777 0.565254
95.085083991583 1.4202
107.084074761203 0.7447
109.099629071413 0.824058
119.082621561897 1.59729
121.102364477966 0.593498
123.117628453435 0.918305
133.099990355707 1.30108
137.131988897223 0.732641
145.100653589153 0.685472
157.099218547628 0.718429
159.113190084786 0.949766
173.134846721162 0.718023
175.145612628724 0.963282
177.165797079826 1.16266
187.147504890421 1.02372
189.163622737499 1.19878
195.113562181959 0.717343
203.179930406444 0.99679
209.131108540247 0.877987
211.144345645418 0.548796
215.17647099285 0.543272
225.161269643594 0.56879
237.164071510566 0.537444
239.178027368096 0.582659
241.193379195305 0.550397
243.208823305674 0.56045
275.180948324987 0.501617
281.224437265674 0.595392
283.203894289963 0.604101
346.269654035794 1.12748
354.287851808607 1.13621
394.32095598727 0.655683
446.353624274616 0.649461
459.359404016627 0.57529
460.368555221875 32.5827
551.4205033279 3.57925
551.633510448639 1.63706
552.430774712354 100.0
552.638348274411 0.726921
553.270362262602 0.607946
554.2703622626 1.0e-13

>collision 20.0
43.0552388201774 0.644416
57.070608092539 1.7476
65.0366540419726 0.501701
69.0711156991147 4.49547
80.0579093194688 0.545422
81.0702185497993 3.60771
83.0851023996874 3.83788
91.0512808419723 0.744956
93.0689062791531 3.84978
95.0435079027172 0.779859
95.085521361151 14.4898
97.0994337337843 1.4485
100.07471887829 0.55739
105.069426589252 6.70483
106.076703565455 0.64169
107.085529621503 10.4643
109.101368540215 9.22077
111.116933434066 3.27574
119.085093645228 17.1219
120.094550215715 3.33694
121.100353242553 13.5933
122.104685666321 1.34723
123.117315564138 6.44618
125.095747283596 0.900009
131.083347322573 4.09254
132.089923834313 1.42004
133.100457311363 8.88942
134.104861490827 1.4553
135.080312502314 0.672478
135.116122426252 7.77608
137.129056015627 3.17818
139.10363720301 0.730829
143.08411926913 2.08306
144.094726582001 1.61867
145.100347593857 6.78376
146.106705379008 1.19324
147.116228994325 7.36461
148.119597462925 0.953419
149.084927092347 0.811042
149.130204212699 2.01152
151.109448514423 0.905562
151.14519937737 0.517199
155.087330801461 1.29187
156.092358705877 0.832408
157.100231013732 7.41602
158.111339702018 1.57133
159.115312761268 11.2583
160.123422137856 0.793127
161.131357382451 6.12163
163.106802527634 1.24417
163.148673385727 1.38991
169.101139254876 2.72367
170.108232968289 2.57686
171.116191121788 9.13371
172.122617698335 2.06313
173.132257955623 6.91019
174.141225373222 1.97298
175.147470952583 14.7233
176.156750217979 0.694931
177.162772925664 10.7145
181.095514480759 1.25117
183.117854701173 5.78285
184.119040594891 0.78402
185.129444828582 7.10524
186.140812720888 1.4118
187.148687481868 9.27298
189.163768256618 6.68421
190.171581303063 1.20481
191.143359182904 1.39666
193.095870102476 1.21914
193.161133910172 0.884957
194.1093245341 0.604627
195.118423778638 2.91781
196.121816496483 1.62387
197.131596674893 7.73376
198.144497537213 0.963024
199.146240960222 3.42991
200.15335787325 1.68231
201.162160821135 6.38966
202.170441303294 1.87796
203.178361117423 4.4789
204.188369233262 0.889285
205.154142712187 1.03357
206.159873536007 1.29897
207.117903931627 2.03614
208.123102750357 2.33099
209.131238615628 12.0966
210.136161566988 1.17243
211.147368611509 8.2298
213.164723818223 4.64364
214.172054365288 1.44953
215.168715676379 2.1547
217.153786653411 2.07989
217.203108308682 0.891747
218.163073378985 0.966277
219.173652959536 1.08681
221.128747149062 4.94043
223.148623900741 5.40493
224.153415921853 0.922987
225.163139392366 4.55215
227.174947684823 2.12388
229.1913722917 2.49622
230.20308042679 0.655406
231.114582775616 0.852899
231.166338978832 0.770405
233.129537760508 1.47548
234.142162088085 0.518487
235.148899533225 2.70003
237.161634983056 3.13696
239.128338413742 0.547288
239.178465682516 5.062
240.193549525479 0.788454
241.193242795626 5.18565
242.201721416749 2.07549
243.208466798292 2.22315
245.184402240861 0.650556
247.147045215845 2.3004
249.158422336964 1.6193
251.176434601999 1.75595
253.194199103698 5.28097
254.200439391548 3.34941
255.202455045807 5.40781
256.218998192945 2.94955
257.203048720263 0.723666
259.145489397066 1.47184
259.20725291861 3.5452
260.158234070826 1.08673
261.164044173352 1.94271
262.173753244479 0.908695
263.174331815798 2.49023
264.190312489309 0.624232
265.195077153362 3.95019
266.192310928194 0.864132
267.209611999943 5.17224
268.214114224493 0.866128
269.221802197275 3.54552
270.201673405003 2.09704
271.205298968092 1.83992
273.158657379971 0.57914
275.178485335697 2.1898
276.187396062483 0.955468
277.19469585252 1.32119
278.202831608364 0.5629
279.213057234796 0.580068
280.20789897048 1.39949
281.226392632471 3.3499
282.21683319677 0.506585
283.208073359033 7.1209
284.212919898218 0.822194
285.218604801768 1.77214
288.1845777181 1.06886
289.194235472248 1.33496
290.198810543794 0.657665
291.208695560834 2.13769
292.221597271491 0.983349
293.225169668028 2.25828
294.23403903743 0.92655
295.196960984852 0.973846
295.23822933736 0.976226
296.100555704687 0.829216
297.224667596582 1.20424
299.172716841243 0.505949
303.208384116999 0.562188
305.224651820262 1.88498
307.239830760945 3.17286
309.218336132955 1.08291
319.240909632183 1.10898
320.245742566819 1.60545
321.241758638259 0.750829
323.23595182164 2.63648
323.289164332008 0.565887
324.238146172081 0.655912
327.207175159541 0.80881
331.241378375159 2.33018
333.254802593022 1.97844
335.255450638982 0.528089
336.240244551117 1.41556
337.254645164295 0.95313
338.264127186014 0.592143
339.262642140381 2.7291
343.234669091562 0.697276
345.256722670596 1.27454
346.26365297499 2.4315
347.261798725401 0.836198
348.280259120748 0.988699
349.256156448893 1.25593
351.265539589048 0.888819
352.267456524981 0.653279
353.280230864182 0.522348
354.289069875683 4.69489
356.243002044338 0.757114
357.26308530833 1.04252
359.266385409499 2.55098
361.273723646941 0.55135
362.264244606311 1.6282
363.275020185142 1.13128
365.292070092153 0.675659
367.299131011321 1.60239
368.297917321915 1.38668
371.27015931484 0.735019
373.2778084921 1.0589
374.274452525785 0.591449
375.269858205331 1.49297
379.291364953267 0.639566
383.271118948651 0.534888
385.283234272196 1.41625
387.303323002887 0.557355
388.177247208547 0.530901
389.279619442467 0.951266
394.322709979616 1.95165
399.305674940769 0.837973
401.312126885184 0.865506
402.29742681328 0.534419
408.332570968177 0.810559
415.291733198635 1.5218
445.344441679446 4.95883
446.355173675678 1.98823
458.146272451563 0.611895
459.359528019709 0.596795
460.367792951235 100.0
461.123571938486 0.685838
461.249196684298 0.80242
461.365735607909 0.677775
461.806454806596 0.57126
463.197945243865 0.511675
472.361090732735 2.14975
473.373247114163 0.970862
533.418297950739 0.950185
533.512447432648 0.508144
534.413237530181 0.576899
537.411288212762 1.49337
551.420875116439 2.08568
551.627884536026 8.31491
552.431465685113 59.045
552.627465409359 2.36703
552.934429054235 0.561299
553.128780407716 0.520802
553.311098741954 0.686552
554.31109874195 1.0e-13

>collision 40.0
41.0392091771871 3.60363
43.0188792093091 3.40968
43.0554663439419 4.01218
55.0539420377398 13.3209
55.3190114812267 0.80718
57.0327577648095 1.37863
57.0706801809186 10.4467
59.0486939673372 2.40015
65.0402468902505 1.2624
67.054855864897 16.329
67.0822127657947 1.63978
69.0698921169119 36.4918
69.2978942562527 1.39173
70.073149212875 0.86004
71.084157344732 1.67884
77.0397353676731 5.1036
79.0543845549397 10.1437
80.0608146602658 5.01134
81.0699976265228 32.6583
83.0858633010397 10.8772
85.0626241096826 5.74419
91.0547832576053 16.4041
93.0697010804705 42.5712
93.3079952729542 1.00964
94.07733638008 1.18702
95.0854985576508 56.6136
95.2643272761779 1.13056
97.1006860997791 8.59505
103.050351068902 1.20998
105.068943712662 65.2474
106.076382203481 2.33213
107.084625837717 57.1649
109.100518268406 44.0104
111.0795744377 3.77465
111.114353424945 2.08565
117.069078841858 8.26777
118.076060854976 0.773219
119.045170387582 1.50141
119.084885637335 100.0
120.093549793089 12.484
121.065078249922 0.953282
121.10050451528 44.8296
121.848012138757 0.819365
122.10673337894 1.39575
123.078506078564 1.16212
123.115752696366 17.322
125.055603020301 0.804433
125.094244717407 3.7143
128.059496120789 2.9289
129.067921796475 7.19025
130.07970410684 1.30749
131.084405722938 31.7621
131.590032185865 0.958646
132.091701037255 6.8887
133.100442099984 55.5891
134.105098314156 1.8924
135.079881847159 3.28486
135.117813312998 22.7692
137.094382940725 3.961
137.132886400117 8.44784
139.109944221456 0.95252
140.081031118363 1.64168
141.066400151366 2.71979
142.073591139534 5.53184
143.084585837439 31.4914
144.09239934096 4.26013
145.09969168667 66.8829
146.10720092703 1.47038
146.138960009207 0.768161
147.114441570542 26.5536
148.121246036505 1.02892
148.431887715645 0.82861
149.09591378632 3.8083
149.130226579279 5.14572
151.110229490408 1.20432
151.146938237162 1.43088
155.084225363081 11.4376
155.527417054409 0.90826
156.09183444358 12.5231
157.101826681836 42.9095
157.974695969055 0.793234
158.109451867283 10.1827
159.115995317448 48.6454
159.185994391112 1.18281
160.124774751659 3.14851
161.131348229158 18.5897
161.198192187733 1.08576
162.139401310085 1.45454
163.140091274047 5.34341
167.083676738299 7.43821
168.088371580601 2.53901
169.100613050884 28.4243
170.107502104427 7.54894
171.115523505173 36.4221
172.122351178238 5.22572
173.130703399738 28.4918
173.58342185382 0.782576
174.13464622957 3.10021
175.109392126476 2.30584
175.146310081777 24.5083
176.153918331738 2.12411
177.161620708279 10.5199
179.08622335188 3.4651
180.08660691099 2.83757
181.099619592704 11.5322
182.10591985869 2.38867
183.11501389283 40.624
183.180318137596 0.923476
184.124637806677 8.94367
185.132557084353 27.9304
186.136794431943 3.92568
187.146438961531 20.8869
188.153919077385 1.18105
189.162710004608 4.91483
191.140098437218 2.79072
193.103229316535 7.22606
193.159165910321 1.40756
194.108708954142 10.9452
195.114901322238 17.1719
196.123437809937 7.31729
197.13096104675 20.0522
198.138322743873 5.02306
198.176904524436 0.868527
199.148241117878 20.375
201.145800635652 8.01074
203.171022910346 3.0097
204.014151318466 0.795641
204.151331448198 2.24631
205.095817585898 1.59665
205.158486202655 1.52451
206.109676614099 3.55379
207.115117094172 8.66471
208.125589650509 2.86551
209.13350460536 25.5021
210.140621209961 2.30491
211.145603872259 21.8112
212.146841277097 1.22523
213.162416431984 4.87964
214.16781911403 2.05382
215.174410002343 3.6748
217.100851127029 1.06708
217.15776768681 1.14723
218.107983411032 1.44618
219.112874975787 2.7306
220.123952777872 3.26376
221.129400164744 9.19051
222.140344104292 4.41301
223.02336225984 0.8152
223.147226653813 12.5596
224.153921495311 5.38885
225.162289460354 8.61567
225.212532384301 1.73296
226.157748518225 3.18657
227.13808997023 2.0086
227.178961329362 3.09216
228.185955428305 1.31134
229.148279302754 1.4127
230.194963033584 1.16502
231.114187054671 0.934964
232.121715923381 0.819735
233.131372537493 3.99609
234.147284300167 1.13461
235.145343324419 6.25064
236.155694814975 1.44947
237.164228638701 5.20541
238.168737012309 1.88595
239.179322969256 10.6704
240.18388947363 1.15775
241.190542932938 3.4366
242.174840823931 1.19659
243.168659355797 0.917477
243.211457081682 0.824596
245.138927924533 1.46985
247.143107434916 5.08948
248.151412732214 1.5286
249.162417403361 5.77559
250.175621060424 1.57914
251.178539814407 4.09895
252.182867314122 3.10503
253.195715013847 2.07254
254.199000934111 1.76746
255.17719294619 4.45688
257.189928759751 1.56325
258.137586016378 1.67636
259.146882030811 2.23599
259.203295166371 2.33368
260.153531638566 1.26934
261.162511922459 2.25859
262.171808706142 2.9019
263.179630102253 5.65748
264.174152449762 1.04086
265.193751761675 5.12485
267.210194146556 5.40365
269.20975442268 2.6265
271.200531547271 1.21949
272.150730867166 0.802418
273.159477343344 0.884168
274.162068773769 1.67627
274.415615196441 0.986297
275.183619352081 2.42374
277.148603446851 0.814941
277.196474718201 3.1741
279.212410965102 3.69363
280.214593327735 3.00104
281.218274316888 3.17606
282.229659018516 1.72548
283.203365447728 2.60118
285.209721993139 0.970749
287.17294680292 2.89711
288.184994414372 1.08729
289.189740624232 1.17624
291.208515426748 1.23815
293.211420773302 1.2403
295.242846156744 0.933989
297.328208583886 0.763527
298.345515395053 1.09874
303.20299807146 1.82899
305.212373094805 0.877088
306.236634155676 0.935493
308.243913833357 1.06842
311.176703833436 0.900041
315.20325029668 2.9012
316.215854388208 1.23834
319.212877130318 0.921947
321.224056934018 1.46463
323.277150856716 0.768206
329.235947938837 0.986637
331.245367832767 2.58158
343.130346608304 1.03855
345.263587978056 0.825548
357.26359546199 1.01433
359.278978887821 0.791703
385.285939438556 1.3541
400.311752501978 0.91533
415.286536962601 1.12834
430.345030162302 1.02941
435.4903780938 0.954373
445.340922985554 3.90665
551.347268251337 0.779523
551.630432922274 10.008
552.629804857654 1.83572
553.62980485765 1.0e-13

