>compound L-2-Aminobutyric acid
>formula C4H9NO2
>parentmass 104.070997890274
>charge 1

>ms1peaks
41.0391835620867 0.50294
58.0662421548358 76.887
58.1355700733845 1.08494
104.070997890274 100.0
104.164910424751 1.53986
104.192492504362 0.511184

>collision 10.0
41.0394944788184 3.63987
43.0425933154675 0.838341
58.0662874073311 100.0
58.1356845065304 2.08354
58.1571727940587 0.644423
104.0706150199 3.02122

>collision 20.0
30.0343287234229 1.63925
39.024240537313 0.693833
41.039676180916 21.8135
42.0350689200942 0.779474
43.0426294063446 8.97294
45.0345027372544 0.815821
58.0661581354543 100.0
58.1354784904524 1.40452

>collision 40.0
29.0131680747505 1.23411
30.0339762109766 2.40282
39.0238582646745 14.4325
41.0394276256212 44.9007
42.0347368886931 47.436
43.0194533440106 1.79463
43.042628517389 100.0
44.0502767975066 2.57743
44.9979743128541 10.8336
45.0345876539651 5.76693
56.0507118090789 0.746585
58.0660083496253 26.9079

