>compound Canthaxanthin
>formula C40H52O2
>parentmass 565.402905941319
>charge 1

>ms1peaks
113.096341237461 0.907408
133.066089932264 0.656504
203.142614455015 6.36565
211.148391970761 0.667202
215.138813104482 1.16752
217.157640037263 1.10421
269.188379139 0.801214
283.205917854411 0.675594
345.259844647989 0.566219
349.251449219761 1.06033
361.251748733295 0.787487
363.268875770165 6.94687
547.394699736161 1.46794
564.393832503994 3.38979
565.403127266422 100.0
565.623529290321 0.538035

>collision 10.0
57.0327553120399 0.541444
69.0699865608617 1.12091
81.071743296366 1.20603
95.086257184004 3.89283
97.065496750762 0.685104
105.068396664521 1.30101
107.084104645817 2.1434
109.099115903351 0.536123
113.097036970566 4.91174
119.085626406103 3.31384
121.100672102507 0.950307
133.064143369608 10.9056
133.098308896277 2.77822
135.080038707636 0.650955
135.120356513291 0.958344
137.098390659555 1.25708
139.112032285492 4.89564
143.084659283045 0.885633
145.101493898204 3.4389
147.080634573518 0.645103
147.118052766173 2.91918
157.100091070715 3.73006
159.116061845139 2.35674
161.104564476363 1.10297
165.125670767174 1.11312
171.114765595445 1.25834
173.130941582858 1.37793
175.13699824632 0.793048
183.11590987855 1.27949
185.092385960824 0.699683
185.131950598446 2.02504
187.148877336153 2.64673
189.127333171683 1.28245
191.141587327136 3.85203
195.118776133372 0.834585
197.132360451461 1.15491
199.149639514286 2.71992
201.171364212143 0.579607
203.142814491986 93.3408
203.273393796988 0.578261
204.149508369862 0.550398
205.158467319201 1.96865
209.131991036161 3.02339
211.146154443526 3.16091
212.15158316879 0.545404
213.141634581955 0.625799
215.14204343829 12.4716
217.157106728694 6.82285
219.176636253958 0.610115
221.134281271953 0.652342
225.164724693635 3.21632
227.149685772695 1.18159
229.158434262683 1.72588
233.13196703659 0.736207
235.150739080269 0.655402
241.158995063896 0.845758
245.18865221552 0.644646
251.177477860062 1.17554
253.165005230906 0.51299
255.171934731489 1.59454
257.189293362401 2.40193
261.161153242188 0.752189
265.195357158965 2.69467
267.170609716421 0.643167
269.190050929855 5.84264
271.206421240704 5.38117
275.186897305396 0.71683
277.198414638699 1.0153
279.203106436355 0.638211
281.18801173652 1.56394
283.206262454855 4.20203
289.192233322727 0.65665
293.191174868998 1.16184
295.207625889673 2.36638
297.220972968222 1.24159
307.195677519137 1.05436
309.228836537131 0.785898
335.238901338762 1.66747
337.24956649652 0.851313
341.232219538683 0.577736
343.239990262034 0.81883
345.258653453867 2.05727
347.234689516261 1.34089
349.248464130323 4.79763
361.250965495076 4.31007
362.255839240692 0.710691
363.267001449043 56.9863
363.392217904468 0.682784
364.000617886763 0.539517
364.277432271843 0.560365
374.259832606066 1.11542
375.271549467097 0.528249
395.270112721032 1.25704
401.290835257864 0.868509
413.280519090066 2.33987
419.287490832982 0.603909
427.298317099447 1.80255
441.313533439641 1.21007
459.321479920428 1.20136
472.329493948045 0.818427
473.339901088165 2.46302
485.345731869838 1.37898
547.389970504604 5.98911
564.399930998881 6.14444
565.402905941319 100.0
565.5767398854 0.64662
565.666707153714 0.533379
566.185047792858 0.630719
566.39300349337 1.13645

>collision 20.0
43.0188774903329 1.39478
55.0544125920872 1.30116
69.0710854902937 5.39765
81.0695510899313 1.9378
93.0704076706105 1.24635
95.0861360901553 5.91137
97.064784812881 2.49914
105.070118557841 2.19041
107.085331169013 2.16135
109.10014376631 0.695944
111.080143157455 0.775293
113.096651156153 5.71988
119.047125679858 1.27026
119.085354068076 8.4244
121.06341685871 0.855721
121.102878947804 1.85803
123.117832613812 0.905798
125.096537155975 1.15207
131.084130082586 0.681652
133.064719244762 44.9502
134.066689872027 0.672601
135.117562062035 0.964292
137.095582927274 3.67474
139.111381875098 8.13194
143.08506878426 1.29824
145.100860231632 5.81361
147.116292835805 5.5216
149.131052899197 0.881354
157.101439848683 6.40198
159.116472349729 5.69537
161.123790948913 2.38512
163.112389236628 1.19215
165.125476846523 0.601332
169.101362155744 1.67768
171.116258561551 2.96524
173.131580337838 2.10292
175.108966607962 1.2207
175.146631520973 1.09249
177.126384825036 0.841959
181.09558968098 0.577232
183.117638028315 1.48148
185.13204213509 5.41225
187.148334798688 2.49085
189.128948626746 1.69169
191.142609995479 7.85062
195.115136086344 2.29488
197.130702300232 3.39383
199.14789889066 4.67499
201.144621403986 1.06161
203.142721721513 100.0
203.267667929636 0.629579
204.148439591522 1.17336
205.157566162391 2.23765
207.115071779488 0.918602
209.132138451855 4.09791
211.147861781232 4.90467
212.156896012842 0.978544
213.136327272252 1.23735
215.143400796418 8.44921
217.15780566386 4.96985
221.131705994453 1.71149
222.139992882477 0.585989
223.1451949795 1.53038
225.160399660312 2.11887
227.145222787922 1.36725
229.155559284905 1.3552
233.129979422402 0.587753
235.149497466083 1.06373
237.161783879514 0.75304
239.175480769125 1.50705
241.15927888557 1.08054
243.171522391818 0.775345
249.16140313986 0.940323
251.17815967032 0.691623
253.162640399844 0.680808
255.1753114224 2.40878
257.19105857974 2.33799
261.164719894796 0.673692
265.19173613585 1.72454
267.174866946747 0.663708
268.177556470259 0.541894
269.191682992861 5.51281
271.207940548878 3.05008
275.181056774897 1.00593
277.194572187584 0.645383
279.172447433036 0.597801
281.195581954891 2.133
283.204922984518 4.03209
287.18245063069 0.55785
289.198014179988 0.609732
293.193560154474 1.20247
295.206085571918 1.76675
297.222332039997 0.789373
307.203611864768 0.968495
317.229508724313 0.52199
319.205216649013 0.527714
321.225165623195 0.527065
333.215481972795 0.535941
335.237102559134 2.42178
345.233881038061 0.747922
347.23672741333 1.51439
348.245434548706 0.569959
349.254764614931 0.907855
361.251730350032 1.76523
363.26867829645 10.9967
373.251631449636 0.734174
374.258480633108 0.700518
375.275203376018 0.701377
413.282283364281 1.96112
419.287969083278 0.733624
427.296807287231 1.05601
459.319389531624 0.692872
473.335571494642 0.737611
485.339942052977 1.19516
547.398282063844 0.57182
564.392034941292 1.09718
565.403909055272 8.74959

>collision 40.0
41.0403554995426 0.543843
43.0187702000818 4.918
43.0548353928493 0.957369
55.0185383437574 0.698713
55.0554058274178 1.086
57.0723361695472 0.844256
67.054502081346 1.22377
69.0704911652068 11.5238
77.0375843792288 1.42502
79.0547055452084 1.22244
81.070867524903 4.59024
83.0505618916134 1.62319
83.0870568776021 0.984801
91.0551636966209 1.64819
93.0695823932956 4.28039
95.0853861242102 5.25821
97.065979861335 2.31629
103.0542032147 0.621818
105.069591962392 7.83141
107.048851191177 0.644137
107.08498564225 4.1658
109.063850793544 0.97403
109.100761763057 2.32195
111.079418558494 0.776851
113.09638572092 0.982098
115.05229931467 0.511214
117.06957112018 1.22999
119.049550612767 0.881089
119.08505721039 11.919
121.064991547753 2.0367
121.100820429762 4.96418
122.074002394512 0.802486
123.106872330893 0.680424
129.069513188003 0.847007
131.085734883275 2.17485
132.09463791818 0.627985
133.064690084616 100.0
133.170043775212 0.562191
135.079660449463 1.06844
135.115278336728 1.6611
137.096149468787 4.75432
139.111832936884 6.04988
142.079732317501 0.67708
143.085281348705 2.88426
144.091641392252 1.38102
145.100801972608 5.06448
147.08040199691 3.93289
147.116226608544 4.76504
149.097273436047 1.22808
149.131275323182 1.53237
155.087743133812 0.764718
156.09083555718 1.57438
157.101299349823 6.66875
158.110029543609 0.732372
159.080097581064 1.1739
159.117412971301 3.67881
161.094561374527 0.982041
161.130015080412 1.83335
163.111124061982 1.58809
163.146464683552 0.587248
165.130601262616 0.73705
167.087509037202 1.03954
169.101375676901 1.89684
170.107871472103 2.69639
171.114024045554 3.62395
172.12293079061 0.587637
173.094571278789 2.09588
173.132000593824 2.83919
175.134844566255 0.829751
181.101127711214 1.85332
182.109503065236 0.709548
183.115658861777 2.51632
185.131713273226 6.52389
187.145153710694 2.1267
189.126660735752 1.19614
189.156188116823 0.538497
191.145849122996 1.40551
193.10094452988 0.642831
194.105368223215 0.793989
195.117225917999 3.59542
196.127257128218 0.89726
197.133755706821 2.22348
199.145518115589 2.16282
201.125417673409 1.12251
203.141682929543 12.9265
205.156632510619 0.757984
206.10765430361 0.626699
207.113459457905 1.16286
209.131684708565 3.39839
210.138450674487 0.658964
211.145769501392 1.87544
213.135216568557 1.04181
215.142929603603 2.69421
217.158706457792 0.503138
220.128357194036 0.679802
221.131575903453 1.35059
223.147398334647 1.00851
224.152555131817 0.546301
225.124544280143 0.870344
227.148028113043 0.861064
229.161475303169 0.516111
233.130296121382 0.759168
235.147067039361 1.1055
237.164976115922 0.772623
247.147998950965 0.69846
260.15438343732 0.61549
261.162161435638 0.703727
269.189659023 0.71317

