>compound Leukotriene F4
>formula C28H44N2O8S
>parentmass 569.289119902569
>charge 1

>ms1peaks
189.164538707724 2.90229
199.107201700098 0.666317
251.067925486033 3.54849
301.215807954116 3.87208
319.229435270321 3.32009
551.27558019494 2.1203
569.288681954293 100.0
569.503932565383 1.56595
569.642499908117 0.917732
569.850032044428 0.850509
569.986071275496 0.811428
570.282879727147 1.28723

>collision 10.0
41.0374846495018 0.583403
43.0507924063573 0.903581
57.0321524303127 0.594738
67.0548486501065 0.734136
71.0871267483217 1.07275
81.0692047066911 0.940321
85.0963671254851 0.615304
87.0461824838436 2.10767
91.0628689956998 0.656437
93.0710210431816 1.68965
95.0864216368326 0.795096
99.0426503809455 1.31131
99.077753382149 0.697862
105.068343243436 3.32172
109.100500409597 2.34482
113.045919202805 0.682176
115.037698073318 3.28544
117.066040024904 1.25394
119.086515275987 4.14425
122.026138003341 1.22697
125.062835301023 2.32304
127.07015442199 0.609681
131.082809297892 0.896774
133.100374431795 1.67833
135.079333954479 1.22995
135.115607996364 1.42631
137.093270249336 1.28071
139.073256086659 0.721986
143.06493670506 1.06099
149.12753284063 2.01238
151.146448972878 0.601284
153.093020476986 2.54647
157.085897213883 1.78601
160.075675077641 0.656047
161.13536887033 1.2846
165.165820685964 0.813987
167.10239031052 0.596738
169.108274896982 0.762726
173.135149058626 1.27577
173.402232785887 0.542485
177.164499968075 3.38283
183.11180764658 0.893649
185.097949904638 0.675348
187.15059165928 1.62705
189.162534882839 64.6654
189.288926064332 1.12191
189.321837869642 0.644522
189.63557028654 0.580979
190.164925285219 1.18053
195.112494766008 0.668731
199.111354615627 2.42076
201.157159037332 0.961782
203.179123697872 5.95436
205.199044155463 2.09572
209.135028833118 1.85833
211.154728522025 0.640791
213.125506165476 1.30007
217.075282070088 0.560901
217.154743040016 0.76338
219.138093308012 0.964414
227.140398541677 2.03443
229.189479272353 0.596874
231.141910858634 2.09258
233.161816041638 1.04061
234.03611873789 0.625958
235.165596185076 3.06627
241.192281716328 1.15816
245.149358673694 0.658412
251.069655592996 38.806
251.211502553966 0.6535
251.257543318074 0.693474
253.178173696829 3.18995
255.21251083094 1.63547
259.205834783828 0.548169
265.191464362555 3.30744
283.203920290364 4.19206
301.215111393263 54.3157
301.376664144692 0.916489
301.545493433861 0.662302
301.677894702172 0.590547
301.809506455934 0.56602
302.210073841479 0.803096
319.225162341183 16.9501
319.545517731793 0.594679
431.931631520025 0.690972
433.257394967335 0.693871
551.276693107459 7.26817
569.289119902569 100.0
569.562158950777 0.872724
569.626040732349 1.17371
569.77893827745 1.01149
569.918339226448 0.555622
570.122989636529 1.09675

>collision 20.0
43.0174621142481 1.23127
43.0548868084685 2.43769
57.0708019299882 1.59446
67.0558563467579 5.03281
69.0694277495084 2.40502
71.047997391765 1.0126
71.0841492543077 0.893711
77.4697853987164 0.66372
79.0551290210491 1.68258
81.0691431266088 3.82478
83.0861329464264 0.865798
85.898384431284 0.654253
87.0434730292542 5.06562
87.1435888374782 0.517729
91.0551811299175 2.88653
93.0695872721928 6.84918
95.085637553767 2.16674
97.06359101691 0.76352
98.5461626729475 0.585822
99.0426602692925 3.08205
105.070100879047 10.9709
107.086345686553 3.164
109.064048183129 0.679172
109.101204984603 1.69244
113.056920110692 2.03698
115.039110334851 11.08
117.068171293234 1.35924
119.085459525209 12.5844
119.138097993098 0.555744
119.436926032142 0.706089
121.098758022442 3.52114
122.027853693548 2.24717
123.118109753368 2.5464
125.060204037024 7.97549
129.066914252429 1.92156
130.044558578189 1.98344
131.083118072345 2.60763
133.099581219628 9.35579
135.108368178135 3.39129
137.056745268835 1.8493
137.091030251905 0.87163
137.136830279601 1.09354
139.073297245806 2.29135
141.063999950796 0.968365
143.079541736978 2.85209
145.098919492079 1.94772
147.114355927363 3.62909
149.128337794238 3.18277
151.075891542896 3.8842
153.089835400925 4.53101
157.100318168572 1.35484
158.962445198086 0.615078
159.076770783721 1.09929
159.117480313065 1.11682
161.131924421025 6.22089
163.151391030138 1.05413
165.128238071423 0.511061
165.172523501304 0.516616
167.080750096935 1.02677
169.096655691001 0.663493
171.111791195683 0.896318
173.131313940073 1.97689
175.146296304776 0.733829
177.168003257481 2.4117
181.098019933488 1.31948
183.116769718855 1.51272
185.100607488123 4.54667
185.174977516005 0.528977
187.147103012032 6.10643
189.162852676085 100.0
189.3184105863 1.03784
189.418695771815 0.799621
189.470866979056 0.598116
189.645832581403 0.649027
189.696106033853 0.565075
189.836625449744 0.638771
190.088938483387 0.576182
190.165902464854 1.17147
190.703712311421 0.58579
191.10487827989 1.62168
191.289488542626 0.916276
193.119217689386 0.823029
195.118110940275 1.90141
197.64153105616 0.543595
199.112155964814 4.96774
201.160852196723 2.86406
203.17534695724 2.29874
205.188933558552 2.2587
207.135356717828 1.00715
209.129798735213 3.20506
211.646732479748 0.904064
213.117912691033 2.9828
217.124127949386 3.1258
221.151166328618 1.08652
226.10655365947 0.944569
227.172421718927 1.42986
231.140453732949 1.25367
234.044772459241 1.622
235.168246655546 5.39159
237.169733624794 0.738086
239.175609056852 0.989058
241.193002317834 3.54608
244.866741632664 0.94176
251.071042053889 21.2818
251.175897726123 0.697368
251.213738594273 0.563268
251.576562867264 0.548745
253.179259867722 1.59497
255.187269857785 1.82533
259.197731535685 1.29324
265.195041426621 6.06603
273.210655093293 0.881173
283.207291100491 9.9011
283.286853239507 0.613958
283.496954817105 0.540792
301.215184193692 43.2171
301.374597528171 0.801994
301.605832450461 0.866569
301.694389763566 0.560561
301.878037513022 1.01335
302.556753359702 0.709544
319.221904654515 5.86965
392.862140812954 0.527204
481.255448983611 0.600916
551.279366179204 1.41385
569.292071988738 2.02219
569.436158127629 0.687124

>collision 40.0
41.0414762901831 2.51644
43.0186655535256 5.31929
43.0564465430375 19.0063
43.5485561469277 1.72586
45.0322744813024 4.19355
55.0186473774212 7.5633
55.0558203368236 12.902
57.07047078933 11.2445
64.9795225629568 1.95495
67.0551060979304 23.6065
69.0718934359253 13.0544
71.0491262540246 13.5467
71.0759901433775 2.86794
77.039546567012 2.32895
79.0536910843834 29.2605
81.0691382026736 17.539
83.0479305007889 3.54524
83.0868233471783 4.10253
84.0422720435223 2.06506
85.0655184016372 2.63152
85.0988864386574 2.70641
87.0459610330643 24.5722
88.0375519565841 1.93234
91.0551609080397 61.663
93.0702777269552 24.2717
95.0864003342937 14.4667
97.0634885457388 22.5818
97.3784025731342 2.49152
99.0444129676614 9.05874
105.070432834455 100.0
105.166977041967 1.6191
105.364016188867 2.16519
106.070988699485 2.97747
107.083464242484 19.9383
109.103509032929 7.7303
111.077198243765 4.53533
111.111982509209 2.46564
113.07312023938 2.12736
115.041199253542 9.19899
117.069332142136 22.3739
119.085434347401 90.1131
119.157098963438 1.99214
121.101046782348 13.1765
122.026488724201 11.5906
122.218922914625 1.54999
123.077748159446 3.6524
123.115853729732 4.28399
125.053478005711 12.8488
125.094309071928 3.11556
127.053675817912 3.05703
129.068442639579 11.5926
130.049128814635 10.9575
131.083331840642 22.2411
133.101144697028 69.8337
133.202844411936 1.78749
135.107011369992 6.95933
137.055735659464 3.99733
137.094978467556 2.21113
137.134763022574 3.61413
139.071813717512 7.93859
141.074837227215 3.76189
143.084316711052 17.181
145.100001791883 13.5993
147.116262782246 11.9977
149.132782145027 1.61515
151.06901041382 2.745
155.086589998996 6.34104
157.097633058534 11.2445
158.963584835158 2.18505
159.076406971958 4.34076
159.119898027771 3.44462
161.12410390905 5.34041
161.166082948202 2.51613
163.141340656633 1.54831
165.127445933417 4.81292
169.096925011599 3.02032
171.116939503402 18.8231
173.094106843493 4.12085
173.130797668964 6.19572
174.1329392424 2.56183
175.146593808775 3.85049
180.08777169593 3.72955
181.099630371183 10.2666
185.123354183475 12.6752
187.147881239328 7.42766
188.036673942885 1.97846
189.16370877077 84.2037
189.264442999167 2.39664
195.117847534496 11.1125
199.135124970277 9.60404
207.137342446692 1.74729
209.127468043887 2.20411
213.161516226218 1.79458
227.138463241456 2.56265
237.162595612403 2.45059
241.199276801799 11.8019
251.062695978778 5.97253
255.214367857745 1.67742
265.191631443158 5.37279
273.229996109291 1.55332
283.203637171094 3.64863
568.670496905585 1.62591

