>compound 9(S)-HpODE
>formula C18H32O4
>parentmass 295.225998962968
>charge -1

>ms1peaks
81.0716019129475 0.61646
95.0850834299248 0.654776
97.0996848663968 0.713445
125.095962844091 1.95448
151.110971984379 0.629035
155.109713346357 1.49541
158.963886871733 3.93395
161.129183932082 0.948592
171.101148762973 17.7953
179.140437617523 0.871785
211.168442420736 1.97364
241.190822976162 0.519505
249.222942676123 0.513339
253.968302588325 0.822903
259.201362810413 1.53997
277.215403714049 24.4664
294.204165957512 0.60321
294.939598792608 4.69307
295.225714240563 100.0
295.380376363269 1.50792
295.430469617532 0.936593
295.474784232263 0.907545
295.523607761459 0.672654
295.589237249432 0.536997
295.664440363956 0.51619
295.72042493638 0.674257
295.870050269529 0.70487
296.87005026953 1.0e-13

>collision 10.0
43.0181744564196 1.96487
43.0565185327084 2.4502
55.0222075709489 0.789881
55.0548277058602 5.56119
57.0731658565108 0.509128
64.977264244957 0.810784
67.0539615437748 9.18989
69.0360254628558 0.66523
69.0702465185753 3.95289
69.1004309727372 0.735191
71.0859981168286 6.89041
79.0548217582365 4.04179
81.070116182452 8.65945
83.0494435339174 3.10821
83.087021756135 5.34735
85.0684401080596 0.766458
91.0495164051132 1.32237
93.0702413883212 5.15391
95.0495334870883 0.948398
95.0862403222267 4.56159
97.0626493178166 1.52015
97.101550259345 20.137
97.9903094434031 0.511915
99.0804918705865 8.41252
99.1210412820117 0.748607
103.609741568912 0.937234
105.070813950781 3.47447
107.084368775012 7.45097
107.136712524797 0.86079
109.064327524796 1.55667
109.101043976253 8.48014
111.084840973131 0.596723
113.098381208237 0.679114
117.06612851717 1.33576
117.953633592867 1.73843
119.085592429973 4.19075
121.102118609333 4.92026
123.110855549612 2.53153
125.09530658342 44.6489
125.201408748692 0.693814
125.299077478802 0.578854
125.598426308363 0.50601
127.072046311565 1.08009
129.06911401726 1.97776
133.100150195594 2.1066
135.077284037446 3.61257
135.115553531752 9.48108
137.092110122422 1.89902
137.132399669553 0.773709
139.07263974638 1.40967
141.089457345969 1.57752
143.105640113896 2.54369
145.104838269023 0.699011
147.115414498152 2.71875
149.130773942829 7.72322
151.110069899632 8.62971
153.089923797719 11.1044
153.160247810561 0.723476
155.11043945424 4.30692
158.964459090676 20.075
159.117518922208 3.45667
161.130661478974 10.3142
163.143462053344 1.74321
165.121199160169 1.78042
165.156818721975 0.986198
171.101112252364 88.2299
171.206092543982 1.92095
171.258553800892 0.853262
171.316709218062 1.09335
171.404690863058 0.532504
171.901131168652 0.891082
172.01229141196 0.646105
172.431607960277 0.724828
173.131266461867 2.00825
175.142987536606 3.17048
177.123849387183 0.598967
179.139263174578 6.56825
181.122122876175 1.9569
185.128844151695 1.53974
189.137154296482 0.96116
191.147510337155 0.524908
193.158612494206 1.79536
195.134426853278 1.16099
199.142548221105 0.511656
201.164846948149 0.536688
205.194470087745 1.03228
207.146795228537 0.586302
211.148051243675 1.32826
212.947431919773 1.12693
213.167844704716 0.782685
213.944559278533 0.698804
217.182111513428 1.06428
221.151583780811 1.27596
231.208158716993 2.38825
235.178719351808 0.648599
241.193810806542 2.60839
249.218856570465 1.98927
252.982521514872 0.511396
253.208557319644 0.565871
253.99215416718 0.559729
259.205554219756 8.48783
277.21537373325 100.0
277.364592950401 1.67283
277.419007102254 0.832577
277.580531514868 0.83739
277.691668127444 0.750247
277.727389469096 0.781645
277.827003803939 0.598947
278.07096828504 0.820464
278.12990150393 0.515405
278.218957657542 0.898671
278.349733219529 0.612739
294.233122243583 1.17964
295.225998962968 31.6052
295.352486352109 0.707847
296.35248635211 1.0e-13

>collision 20.0
41.0383458289975 1.47486
43.0188167992652 6.98087
43.0531478704513 16.0543
45.0379917226782 1.15868
55.0176059808798 3.00157
55.0552994428769 45.4637
55.1220915507587 1.28178
57.0337238748058 5.86778
57.0705851679202 3.56483
59.0501866869614 1.65375
64.9780111257691 5.44806
67.0540753186228 54.6743
67.1096349498517 1.27996
69.0338922226273 9.02578
69.0701974716653 16.9535
70.0726663443944 1.43966
71.0852279968559 19.2395
79.0550281806705 17.6985
81.0384312842309 1.94677
81.0699415744787 27.6838
81.1522257830792 0.976996
81.6329433300773 1.05516
83.050031025338 4.85553
83.0854643823546 42.684
83.1695528611035 1.24539
83.5846708960699 1.0454
85.0629332702184 2.57594
85.0959417534895 3.1879
87.0433600432646 2.33171
91.0542502914702 6.34184
91.0876092882947 1.07757
93.0695292811033 21.1978
93.1195852303391 1.31979
95.0483977681202 4.63775
95.085820768675 20.1626
97.065371866409 7.49867
97.1007436618459 100.0
97.1898546242717 1.124
99.0804606059794 6.52294
101.054673398294 1.92596
101.096204336647 1.31369
105.067793371377 8.13648
107.086227594968 22.4705
109.100673622143 20.9206
111.083296775134 3.09901
117.067786825825 3.85917
117.959235079958 5.94444
119.08558809471 5.67339
121.09847891028 6.19358
123.10864091386 2.15182
125.096093924946 61.9962
125.199540632254 1.10495
129.067828882865 1.35417
131.082690928373 2.09305
133.098618114079 6.25459
135.11546878623 12.2984
137.095444000125 4.52182
137.126329741708 1.61037
139.11124621092 2.01025
143.103256491757 3.58797
147.116846330795 10.7696
149.13183664943 6.34835
151.114616237245 9.00906
153.089628216993 5.07521
153.128108456091 4.00965
155.107593548652 4.2998
157.101432930175 1.61243
158.963805244504 10.4903
159.011365784651 1.05019
159.121399869786 2.63575
161.129511208351 7.50609
163.107449154118 5.79244
163.146160598754 1.63236
165.126197534364 4.42521
165.166842148831 1.15978
171.104397573291 17.359
173.129709348521 1.29556
175.145276054923 1.07114
177.127618712903 2.75848
179.136807263234 3.43229
185.128303328608 1.48741
189.123088221109 1.97867
193.126275715392 2.2597
199.146477782941 2.80957
207.129831318275 1.80251
217.158192524733 1.2716
221.151637802737 2.88463
231.210817382173 1.60122
241.192272248015 4.38021
246.404639939724 2.57008
259.206293184749 3.93822
277.213824986707 22.4532
277.288143463107 1.69833
295.222739656178 2.907
296.22273965618 1.0e-13

>collision 40.0
41.0388101669406 10.7844
43.0189275472868 7.83803
43.0547295398924 17.9822
51.0229625487708 1.09919
53.0388679367355 5.77109
55.0195354821575 8.48631
55.0552621905436 100.0
55.1239990385197 2.10143
55.1614073205145 1.40761
55.2615325939514 0.759497
55.4494346829896 0.916948
57.0322400671782 3.79367
57.0702159733764 7.25548
59.0496894365548 4.54169
64.9787199818945 9.41815
65.037213142978 2.36317
67.0544827377149 33.5668
67.0924355454614 2.25586
68.0568465378684 1.93346
69.0316636831566 0.961551
69.0715362996124 18.5708
71.0510711032446 2.56067
71.0897285158416 1.38612
73.0559189703515 0.762326
77.039303379889 6.17706
79.0542736191424 24.7053
79.1206007464686 1.48105
80.0579592834182 1.09674
81.0351805117596 2.37472
81.0698394781501 26.5831
81.1154774219485 1.4437
83.0482287544002 3.3163
83.0852111025578 10.504
85.064116843759 0.937496
91.0524919542865 11.441
93.0701534328112 10.8282
95.0506861156634 1.63707
95.0841687106106 5.26622
96.963597319744 1.27599
97.0675810870345 0.92542
97.1023083504344 3.35675
99.079606864591 1.33231
103.053487116311 2.00752
105.071157350213 7.39758
107.084501122923 6.67046
109.090708788367 1.19815
117.068565949538 2.60191
117.956258358321 2.93175
117.984244130381 0.958044
118.062027816905 1.59809
118.960852136583 2.17566
119.083899304263 2.57108
121.100118359309 1.56426
123.077351342309 0.991113
125.093765000327 1.11799
129.063401768205 0.939722
133.098646283058 1.1807
134.1077336176 1.47909
135.07931203738 1.19087
147.120989401837 0.812069
187.14452901217 1.19455
286.040625740446 1.04955
287.04062574045 1.0e-13

