>compound 13-OxoODE
>formula C18H30O3
>parentmass 317.211165538071
>charge 1

>ms1peaks
79.0252073074156 0.697914
162.974240222643 0.942174
240.989856368727 16.1163
241.092396116545 0.528767
241.989666185082 0.610305
277.14916486921 0.733748
277.646819998386 0.826991
316.212078514632 4.22376
316.284123027431 1.23765
316.64038741581 0.560493
316.980372335395 0.690941
317.211165538071 100.0
317.370881327343 2.05913
317.412313203505 1.22619
317.4430842411 1.03054
317.480260504047 1.06935
317.567420860676 1.08166
317.695756426443 0.927513
317.762420585871 0.94287
317.812772488774 0.832317
317.873657495958 0.789647
317.91291712307 0.640467
317.977049899355 0.841056
318.037168367508 0.570199
318.098377350752 0.855543
347.09837735075 1.0e-13

>collision 10.0
60.0431224618691 0.556753
79.0207500647974 1.19922
84.9572381637315 0.551386
102.088456849068 0.823145
102.125909308944 0.775717
162.970910427339 13.1052
238.140982492493 0.946082
240.985062275824 18.4368
277.147697869807 1.08964
316.207739094141 3.17264
316.307742194205 0.610113
317.205794621802 100.0
317.365652692572 1.67646
317.462774221987 1.13293
317.621058153929 0.877083
317.76059428334 0.663933
317.865851357475 0.520195
317.967297642806 0.5528
318.119474368464 0.624621
347.11947436846 1.0e-13

>collision 20.0
57.072787228325 1.26624
60.0444370081451 3.92176
60.0750246813239 0.631829
67.0514488090904 0.675749
71.086040442353 1.54806
79.0217878899304 7.1241
81.0677213629256 0.633417
83.0497876901233 0.804494
84.9598898180341 14.7216
85.031106051415 0.885845
85.1030093391353 1.06789
97.1025273150868 0.716718
101.000409538229 1.89462
102.091661732413 3.01187
102.126480652122 4.14598
105.013409144511 1.74928
107.009079137999 0.699105
109.100260805982 0.585663
115.036670061149 0.543018
116.969001553403 1.3071
119.017259793162 0.710145
124.124260380809 0.503114
131.002785220876 4.36229
140.009757586541 0.522999
147.052841164908 0.72319
147.92334197271 0.519799
147.992685379723 0.72828
159.061560951995 1.20119
161.014838081291 0.603388
162.97307245437 100.0
163.05441572029 2.24381
163.08777354561 2.03364
163.149787278411 0.804205
163.235507604133 0.93844
163.334029218733 0.73597
163.497923208991 0.543852
163.566283683373 0.557032
163.979201807948 1.04472
176.090235130861 0.806082
190.132891375255 0.626632
190.966323123226 0.977753
193.034326057809 0.860509
200.129344228548 0.829776
209.014883690472 2.99621
216.121399481442 3.72805
222.028335915845 0.506517
235.105333736555 0.742405
237.966826961281 0.767535
238.139075441267 1.02859
240.990595127893 3.57224
280.265139917931 0.958519
316.213854565049 4.42694
316.275025899983 0.822752
316.318475785708 1.17116
317.211367918017 59.0816
317.372385889395 1.20986
317.452607697062 0.875121
317.825672834878 1.04654
346.82567283488 1.0e-13

>collision 40.0
53.039713646446 0.951972
55.0159367174361 0.752176
55.0573594077487 0.671569
56.9634550227257 3.20102
57.0685689394835 5.29817
58.0674418258415 0.954898
58.9863430832286 0.722543
60.044019733906 2.4098
61.007656760703 1.19356
63.9971429931417 1.03685
65.9929594533439 0.725101
67.0526304171212 3.32578
70.0621305629846 2.006
70.0794429081088 0.659222
74.0946475145941 0.608531
79.0201772751634 7.0493
79.0501820774392 2.09755
80.9236315522364 0.616485
81.0674147283864 1.29835
82.9796117259425 4.16652
84.080344466967 2.83154
84.9580690680936 100.0
85.0239305051253 1.74489
85.0438121965245 2.36965
85.0693152361197 1.09039
85.0926124046837 0.616485
85.126008193586 0.753668
85.216349076214 0.798712
85.3287041503548 0.588508
85.3706999400002 0.586331
85.7052132141776 0.535729
86.9706285014573 1.09373
88.9332343559586 0.668974
90.9849568275095 1.01001
94.947163161756 1.26642
95.0835248465916 0.503801
97.9907836567527 2.31577
98.9737674140782 2.10124
99.043693531518 1.99915
100.989000108916 0.566482
102.089996235669 8.56913
102.125294002189 4.11504
103.124786718147 0.647826
106.087187237525 0.679483
107.080355653168 0.524695
110.553186657261 0.741729
111.977011447358 1.18605
112.986638400402 4.14793
115.035400784403 0.908879
116.966671348817 3.15608
118.978674180186 1.09464
121.034287554694 0.524023
123.111799924294 0.673302
125.055566030305 1.41152
125.075531906615 0.564132
127.02205029044 0.533052
128.937268523814 0.502103
130.998873663733 10.0533
131.039231482472 0.809059
131.077617153 1.73447
133.047896029796 0.615535
133.940367284154 1.1527
134.910610397107 0.668601
134.970612028423 0.76654
142.990552772479 0.859156
144.074805272533 0.554991
145.980816252547 0.731655
147.950248680145 1.04108
148.957076022812 1.09863
159.056652785071 1.55171
161.114456443135 0.867179
162.970590969033 8.77064
163.985578660825 0.638328
178.907687211264 0.677928
183.063664731592 0.663971
199.077381501824 0.665989
205.17712545007 0.794082
206.950193950682 0.888889
235.95019395068 1.0e-13

