>compound Zeaxanthin
>formula C40H56O2
>parentmass 569.434440107278
>charge 1

>ms1peaks
109.099917443796 1.24961
133.103086972242 0.842755
149.133789438866 0.803146
173.133702876636 0.515886
175.148356593748 1.43894
193.157205538517 1.25969
195.208940349675 0.597521
201.164588935087 0.534563
209.131919868204 1.37672
219.174508069067 0.834055
256.06208050496 0.523305
272.20136087452 0.523696
285.220078095742 0.708917
295.205375150417 0.525319
297.078737569167 0.561007
307.24506692406 0.924564
319.244862711577 0.697256
369.162759309022 0.564082
395.058989824977 1.25368
397.299657659671 0.614329
415.30348612882 0.664778
474.624163909048 0.532356
476.360449823997 2.41008
477.370232980387 2.29805
551.420159093181 2.38171
568.425082631199 27.6916
568.561120491359 1.59486
568.691421872334 0.60423
568.889934148152 0.785205
569.432934974843 100.0
569.832621029392 1.47424
569.913351845415 0.960669
570.129895525135 1.05809
570.294562523422 1.0372
570.426217393181 0.897454

>collision 10.0
41.0370001532894 1.95986
93.0669255560359 1.49067
95.0880478997205 2.21272
99.037351784311 1.32651
105.064328812731 1.68674
107.082430424921 6.88985
109.099784985082 6.4472
111.077378153793 3.07753
119.085270938979 9.89841
121.100765937559 5.18915
133.099227594621 5.94332
134.103012227819 2.71124
135.114548301113 8.83517
137.125886314422 1.57253
139.112045314179 2.96153
145.101528003677 5.19154
149.135788898621 1.83401
156.090859213743 2.52253
157.097854869383 2.01635
159.116545794549 6.8662
165.092981338385 1.42004
171.117032039336 1.74418
173.139828383311 3.02215
175.148833602072 21.039
181.044646276809 1.71745
181.098118780319 1.35425
184.132367364151 1.47829
185.133087139094 3.17098
187.149448135571 2.33353
189.091577786873 1.73018
189.162672394127 2.04936
191.179756104878 1.67256
193.15913228493 2.41429
195.065002529845 3.39433
197.128360422512 6.32454
199.095380790298 1.42235
199.14191428301 2.45276
201.163563886937 4.96311
201.528074669799 1.41935
210.139401694442 3.33601
211.138880620661 1.66141
219.173343367067 5.18227
221.129439551326 4.63014
225.158668877915 1.50295
227.173360550681 1.76918
239.171487122864 1.96605
243.085761126654 2.51529
253.115248354109 1.48554
253.187195291272 1.78735
260.205910168215 1.32913
267.204837091516 1.94104
268.180209681732 2.36653
271.20200590447 1.69927
279.209970470724 2.46171
281.187933467392 1.35952
283.203987802195 3.58474
285.216627832584 3.46189
290.952817366226 2.16253
291.197096919601 1.50529
295.111815095563 2.21567
295.208399064764 2.37415
297.216823834926 2.51355
299.233890216431 2.69658
305.232191217529 1.50533
307.200990392837 3.10209
311.145951063245 1.84845
312.184617997464 1.75678
313.156898698545 2.06672
317.099490918128 1.38796
324.160328118945 1.55213
331.255011820704 1.75514
333.251144455456 1.32563
337.008763874014 1.32101
337.071926646594 1.486
337.251714934537 5.05731
343.236301754865 1.65921
345.269429687113 2.21889
357.25638251811 1.64318
367.226609320163 1.34233
368.231055852345 1.58109
371.209169933429 1.85175
374.257037064362 1.37549
376.266904347299 4.31329
394.240051003371 1.85199
395.060445571883 16.4101
395.143546398022 5.14727
411.291306007895 2.15836
413.895726406736 1.55138
415.307027642934 6.27295
416.305819637135 2.53919
429.309749769871 2.31205
453.189347069668 1.67988
455.29864472079 1.98461
459.356514655816 3.03685
461.356863414864 1.49279
463.360007954249 1.52377
465.063186690701 1.60978
469.112939559188 1.83542
476.362772455201 15.4708
477.186387151741 1.38634
477.37262154115 10.93
490.374883414274 3.71722
533.525825936406 1.54313
551.432301137653 8.82921
552.338258850202 1.68341
553.712832724615 1.58452
568.427106133966 46.3839
568.854309020732 1.34279
569.302573542767 31.5993
569.434440107278 100.0
569.610739202946 4.35971
569.715416647026 2.48168
569.784189695667 1.61946
569.874366200407 1.4213
570.05662961163 4.79898
570.168715199554 2.16312
570.311419820263 1.72762

>collision 20.0
67.0471793656043 7.98172
69.0684978444387 17.817
71.0475560702363 5.96006
72.0812902958655 8.28606
81.0727001952334 11.1117
83.0467359787476 6.5765
93.0708885734045 29.7057
95.0867200992668 30.4442
97.0660485663604 24.0529
105.068005803337 12.8632
107.086487069164 33.7015
109.099149138913 29.3645
117.076225596744 5.51606
118.119490252448 25.2022
119.085368541823 55.3788
120.092219205538 9.51163
121.10092614991 17.3882
123.035285090768 5.76813
123.114296282389 10.3002
125.013506804131 9.27642
127.074192733817 6.5819
131.078618917563 7.82728
133.103665986472 29.1202
135.115029390219 64.2201
137.057382794644 8.25327
137.133227929314 6.7276
139.06899415159 12.0506
144.088846319749 7.83534
145.099520634899 38.8795
146.106282218302 14.9071
147.112211425222 11.7877
149.125679868003 13.3603
157.097363078101 10.1076
159.116908055297 44.4046
159.1636073671 5.50536
161.1249756642 14.5078
163.131349427919 15.4866
165.119383462261 7.53013
169.099124569864 6.07984
171.11658347864 36.3693
173.129666885078 18.6037
175.14713885372 43.0963
179.10762103749 9.77848
183.115333154771 11.4421
185.130307092687 26.4207
187.150352686215 25.0232
191.12675456933 6.618
195.095174018831 9.40555
196.123055006293 6.66045
197.116746315146 43.2407
198.134254551887 6.54534
199.146161560633 19.7524
200.159469068343 9.86383
201.164902287074 35.8355
205.161046624304 6.52901
209.132344459343 13.8709
213.169380807959 11.2321
217.150604930545 6.55078
219.115230328244 11.7862
219.172567243728 10.8382
223.147921533559 17.6299
224.156732554582 5.49253
227.133537192667 7.88075
227.202926277933 6.66939
234.148248080831 6.60321
236.155285537929 5.36152
237.192399684677 7.47246
239.174586873257 8.15876
241.200905325481 6.66503
249.159778016295 16.0162
253.197575523244 7.20862
255.115030607986 5.51919
256.184853328575 6.52972
259.20114410061 9.88434
263.172027025702 13.0776
265.192354095973 12.4206
271.203454143864 10.6507
273.261324900949 5.53334
275.176942244859 14.6383
277.122177074792 9.97307
281.101149952921 6.69437
285.217567445676 22.6784
287.180363085512 10.9771
289.166334702121 8.66894
290.933034129669 9.59388
292.102544406246 5.73514
295.111429868137 10.0567
295.203216424153 8.06717
296.213107774362 8.79989
299.147401517501 9.19705
299.188138569433 5.36863
306.201407021138 13.087
311.13216740797 8.57538
319.124000321681 15.0171
319.23948633171 10.9108
323.127646745765 6.3105
323.235180582622 7.63195
332.228696268681 5.44789
337.017350778832 15.5395
337.250440170643 11.3611
348.977770863329 10.9224
353.205712224758 6.08089
363.267843625189 10.5975
371.293963945326 11.8189
375.260807232439 10.41
383.199339915917 6.92495
385.082216672966 5.6363
395.070330786069 10.3839
414.273860325236 6.39843
421.219231375059 6.01757
421.304374442647 7.77225
425.32360198446 5.48981
455.203450613856 5.52706
457.348445236102 9.17
459.342335256927 8.96903
476.369799334045 15.7434
477.367127604588 37.5701
477.834367020504 7.45167
490.378328722793 17.3888
551.455598490682 6.63565
568.420755146651 44.2269
569.305210767025 100.0
569.421427340219 53.4336

>collision 40.0
43.0175276843942 16.1275
55.0555791088698 14.9466
57.0720340802059 8.40906
67.0541247187771 19.9582
67.0726899333866 7.89565
69.072447967948 10.034
71.0817487752627 10.5627
79.05249909849 10.4733
81.0300664505227 6.15817
81.0706452597264 30.6217
83.0843817603723 17.3288
90.9737977123456 6.70189
91.053238814548 9.24449
93.0705047525505 28.5258
95.085315365495 67.7106
97.1037013098005 5.61904
101.117306932193 7.74165
105.067308688567 26.8099
107.085066112594 93.6825
109.105073425128 35.4601
113.097401791757 5.59097
117.072241552116 22.6447
118.069465030679 5.72799
119.084957928759 100.0
119.139697736816 6.31939
120.089736428065 8.65582
121.099719583286 34.8078
122.104065829779 11.1823
123.113996719323 20.8239
131.08845312654 22.1885
131.620203336208 6.95854
132.085353213755 14.3066
133.100630968163 74.1891
134.10836222579 6.14546
135.115207738023 46.2117
136.068889739873 12.13
137.098663837111 9.88193
138.064410015501 8.52512
139.066223194844 8.4825
143.079399790801 8.37621
145.098448183693 40.2089
147.079488322129 6.23943
147.11107288317 30.2058
149.093730062749 15.4391
150.096921286698 6.27078
152.073904057175 5.87731
155.084498102107 6.18743
157.104711453342 24.3881
158.108710765365 8.92078
159.115699560448 43.4032
160.120700059024 18.5523
161.091107895531 8.71691
161.136796198266 22.0757
163.102875114006 6.70097
169.100016026958 42.7765
171.113065305249 44.6886
173.130470669735 23.2756
175.147554177076 25.8548
181.091114435635 7.0315
183.113132479269 15.6241
184.120165634489 15.4983
185.130981195595 24.1581
186.137499448152 8.94393
187.144820971859 26.1371
191.136538635237 8.52745
192.08453836444 5.79645
193.100755391583 16.8957
195.115158005953 24.3338
196.115832786392 9.06128
197.119672300606 42.7545
198.111646466114 7.07706
199.14681422014 9.25792
201.147858758016 10.9494
208.125413838881 8.21497
209.12828250202 14.2999
211.15048569901 8.25406
213.1611421093 6.45287
223.145377044187 7.13529
224.147167823158 12.5732
231.173112262366 7.36803
232.12313602745 14.4049
232.886375579094 7.30502
234.145690598536 16.6643
235.146034253058 15.6821
238.163190674697 5.80751
239.181564669501 12.6865
243.116458359536 9.07423
246.140910175625 9.07423
248.161541416643 6.97212
251.093093935859 13.4533
257.18829183808 6.32499
258.135611789553 6.73036
259.199227619946 9.51895
265.138495153602 6.84057
274.178042892332 7.20915
275.170326552961 13.5728
283.118854020712 6.19956
295.111282869168 7.25938
295.205273347353 8.09279
297.085211773519 6.87477
297.151401286099 7.55936
305.191625636142 6.92994
311.141893470907 7.79559
355.277883631931 8.23661
381.254864658093 7.66333
409.22822115413 5.89127
430.452296606469 5.94155
569.313350018391 63.9404
569.40240763044 22.8873

