>compound 9(S)-HOTrE
>formula C18H30O3
>parentmass 277.215385221601
>charge -1

>ms1peaks
79.0549805859833 0.71143
81.0674040265851 0.522426
93.0689999355022 1.03544
95.0849996664294 0.508587
121.101403272535 0.619813
135.11590267744 1.7617
149.130348408616 1.01658
259.20859715374 1.36397
277.215890883242 100.0
277.363855768008 1.68529
277.410223810623 0.889535
277.445994395872 0.705031
277.505174971085 0.521473
277.64061717262 0.589223
277.73956183621 0.635495
277.960880222805 0.583939
278.125124588577 0.553058
279.12512458858 1.0e-13

>collision 10.0
43.0540259992155 2.56846
55.0544687813305 2.66494
57.0698926519515 2.15123
67.0534641198394 6.19026
69.0306214423123 0.743796
69.0701788493057 4.5947
77.0385144226292 1.79868
79.0538146132717 8.70379
81.0691620759971 3.31673
83.0500479095811 0.641767
83.0850861011163 2.52391
85.0648004948178 0.741563
91.0544345503061 2.16624
93.0690759127751 14.0185
95.0850746933872 7.25253
97.0632410610016 0.529748
97.1013335927224 1.15236
99.0815987295507 0.938984
105.069115467732 1.27843
107.085478991402 13.181
109.101755843311 5.71262
111.080312381571 0.725139
117.071329013788 1.31041
119.083710125183 1.61567
121.100537104707 18.5636
123.076573920122 0.555188
123.116278016601 2.22708
125.0960293141 0.520365
129.065576802173 1.5211
131.084824350171 2.02757
133.10148770187 5.98593
135.116402763373 23.6351
137.098400579364 0.985338
143.088181332355 0.70487
145.099882092832 2.17996
147.116240494951 5.07834
149.131304062204 10.8287
151.110458255524 1.16895
157.10153650029 0.905436
159.115330594105 3.70393
161.129313439201 3.09704
163.145864795914 5.01746
167.10605315968 0.723909
171.115523540435 2.05645
173.132249931135 2.14845
175.144685961179 2.29369
177.124288758721 1.31384
177.153661635734 0.670804
181.121232167094 0.899348
185.132658542735 2.89019
189.122678923257 0.716555
195.138578670504 1.32012
199.145521859736 0.94184
203.144059509224 0.675649
207.13618026794 1.35684
213.16268232005 1.15643
221.149981896678 1.71865
231.180419586426 1.03972
235.165808650181 2.73614
241.197285539209 2.33558
259.204941298721 3.40904
277.126000907684 1.49529
277.215385221601 100.0
277.409201203447 1.18689
277.471059937533 0.691568
277.529762250151 0.530524
277.640777010685 0.861389
277.720161085369 0.648241
277.859529423069 0.566285
277.999932527466 0.586702
278.204443358225 0.588852
279.20444335822 1.0e-13

>collision 20.0
29.0386105063631 0.736004
41.039500019449 5.8109
42.3197354873705 0.896634
43.0192458292459 1.99655
43.0551411988217 9.32231
51.0225691873212 0.558284
55.0172301575304 0.913871
55.0553844402473 18.8927
57.0709647613028 11.5777
59.0475755668661 0.88216
67.0543783807826 29.8501
67.1298463719135 0.625825
69.033029839233 1.01403
69.0702385747971 16.7365
71.0496741309069 2.86971
71.0840615375645 1.1672
77.0384554844868 6.47522
77.0662482238197 1.08579
79.0541179514779 58.4949
79.1374834065402 1.71336
79.236215614439 0.60394
79.3378643911055 1.29374
81.068790985672 30.7365
81.15225413989 0.646182
83.0492963189721 1.08913
83.0856959537458 6.50388
85.0659499664116 0.722432
87.0478881824865 1.23203
91.0542401497918 15.27
91.8012092053128 0.753441
93.0697014385504 100.0
93.1575795687505 1.49289
93.1826304859723 1.59325
93.2177858424817 0.60394
93.2528928598485 0.787198
93.306927681043 0.581115
93.3839443031123 0.634854
95.085135166975 22.5021
97.061945280189 1.11673
97.10066580408 5.98648
101.059866480723 1.61516
105.068360832564 15.2986
107.085070071884 50.4306
107.162871615843 0.85841
107.209312216889 0.655143
107.27022924254 0.791871
107.303771994574 0.72684
108.092482766626 1.23508
109.10152068893 6.8331
116.201140536145 0.749497
117.071419677283 4.41114
119.08644333934 10.6286
120.093509696489 0.558136
121.061021220909 0.963106
121.101021376335 43.3946
121.18146196668 0.735699
121.20110462278 0.773829
121.573267294684 0.666247
122.605570700111 0.98112
123.117604182685 5.31793
125.091225232627 2.97719
125.128494675825 1.02326
127.071028118781 1.54944
129.067386538305 2.66204
131.084806292155 6.60031
133.09952027694 11.2522
135.116402395482 45.6823
135.272915203372 0.746034
137.093070472771 0.90953
139.07104765814 0.78467
143.081824661606 1.2877
145.099468827806 5.23869
147.11712264747 7.64758
147.802247528553 0.851761
149.130655647211 14.2246
151.111143687489 0.692156
157.100079357723 2.84898
159.112482394086 2.52526
161.133442152283 2.10127
163.145077161399 4.63507
171.117605934246 3.06255
173.12907691185 2.09656
175.154751678488 1.86023
177.144482380469 0.563225
185.131029497063 3.72113
189.126484987594 1.7622
195.13776286733 0.884196
199.148098668574 1.60193
209.153543683376 0.666809
213.172111150209 0.592819
217.192066803399 0.611631
221.15191007419 4.29663
235.168296067872 1.94214
241.188853067951 0.557005
259.20614245499 4.54233
276.193456720307 1.08092
277.216624999612 6.74985
278.21662499961 1.0e-13

>collision 40.0
29.036131249997 1.55852
39.0217712502925 0.760924
41.0386984673238 23.248
43.0183296129344 2.4451
43.0541365585551 11.5389
43.408976417007 0.716072
51.022472453342 4.01673
53.0394674155277 1.58638
55.0185692931801 1.02559
55.0550193791816 54.0118
55.1057037853371 1.28534
55.1236905576749 1.20271
55.1765317572222 0.732308
57.0715369106556 1.12422
65.0395219674227 3.77599
66.1461763694324 1.39171
67.0545293699994 32.2892
67.1091124794834 0.880728
69.0701284119771 14.9665
71.0485785598454 3.79405
77.0384830112625 73.9962
77.1196284839474 1.30572
77.1496526722934 0.825715
77.5111582277025 0.762388
78.0463468599126 1.94912
79.0545789477502 100.0
79.1336802920287 2.74409
79.1664518399977 0.931476
79.2144435469667 0.792616
79.275107869795 0.741017
80.0572614423452 2.62905
81.0701416418803 25.2446
83.044484853423 1.79281
83.0813760751834 1.34414
85.0640673018954 1.2822
91.0544581403292 71.5114
91.1316971042651 1.40742
91.1651913134102 0.778583
91.3054400392128 1.00112
91.8016467640885 0.810155
92.0585321080368 0.964979
92.7288155787614 0.896001
93.0701192828027 76.7655
93.1600526546784 0.861826
94.0713018771189 2.43711
95.0462091089966 1.16897
95.0854318799962 11.1122
99.402589493311 0.690372
103.047766133363 0.743217
104.060371506142 0.775581
105.068617337824 19.1287
106.076589721301 2.12684
107.08562202287 11.9519
117.069002400439 2.29554
119.084743135827 4.25742
121.100592078073 3.08431
128.058615958864 1.41038
129.066508262806 0.968448
131.083917957477 1.86969
133.067667343511 1.09339
133.100462177825 1.12862
135.11707455674 0.892842
143.083069315507 0.758216
145.103469673902 0.980309
147.119411909984 1.32489
148.11941190998 1.0e-13

