>compound Betaxolol
>formula C18H29NO3
>parentmass 308.223963547529
>charge 1

>ms1peaks
308.224204849215 100.0
308.279911718575 1.16925
308.332355380325 2.71274
308.384553193065 6.05487
308.434903844053 1.91414
308.484038365984 0.638343
308.596827993927 0.634423

>collision 10.0
55.0549264592451 0.696607
72.0815028978243 1.54104
74.0605413322583 0.997225
98.0963560119775 0.961155
116.106999132114 3.35624
308.223963547529 100.0
308.279651226442 1.1216
308.331585696104 2.69155
308.384362770257 6.07947
308.434599223861 1.91254
308.483214876114 0.688073
308.515505620624 0.507277
308.596652305176 0.637594

>collision 20.0
30.0339579345128 0.880708
44.049984314811 0.931062
55.0547412971416 9.19332
56.0499688191944 5.59784
58.0658512813211 1.36444
60.081721250073 0.578076
72.0813748936316 16.6759
74.060558161693 10.5918
84.0813312150698 0.858813
86.096398064558 0.573843
91.0543679757123 0.591332
98.0964825982941 11.3814
105.069783791638 0.596663
110.096336439004 0.74441
116.106822708989 23.178
116.136001838921 0.726335
121.06455083185 4.17119
131.085518224184 0.501752
133.06448979665 2.44866
135.080162311719 0.516786
147.07989248594 0.707251
151.074554039956 0.627311
159.079842894325 2.66015
161.095436944409 4.25149
175.110870226804 0.742632
176.105767274984 0.876607
177.090374424718 4.26785
185.095574031794 0.503538
187.111389145462 0.559088
189.090285365985 0.883553
194.116475167213 0.581867
203.106137162402 0.540662
212.127365890289 1.15087
213.127025138422 0.680122
218.153020318998 0.992704
231.137471923054 1.98571
236.163823177416 0.589275
254.173912190069 0.939867
266.174218008175 1.8475
290.210980978751 0.83137
308.221615242831 100.0
308.28001314279 2.29633
308.344246461944 1.07102
308.384541362487 2.05571
308.43397088522 0.628485

>collision 40.0
28.0183742744886 0.974423
29.0385348267306 1.18026
30.0341589211763 7.06653
39.0234661284754 1.86715
41.0389509098502 5.19044
42.0342058102713 1.48443
43.0182402504139 4.39883
43.0545730903764 14.2756
44.0496500149486 4.29519
53.0387123745342 2.67585
55.0182003083908 1.90427
55.0547460049393 100.0
55.0749014531027 3.02372
55.0914554503566 0.964514
55.1249167801902 0.81096
56.0501244852131 92.9739
56.0716927944913 2.86362
56.1207686048906 0.944886
57.0339198174017 1.427
57.0707320115119 1.91558
58.065849015463 13.1354
60.0813989189215 0.912197
67.0548856067172 4.19694
70.0659327481099 0.830258
72.0813201049811 42.6437
72.1056578023218 1.27364
74.0604591133304 44.3484
74.0841831870213 1.40633
77.0391787265364 5.15855
79.0546780382247 7.49676
81.0705403044802 2.34684
84.0811231544718 5.09886
86.0598644732136 1.02685
91.0544955613193 20.4664
91.0817656565169 0.695932
93.0699185398799 4.91288
98.0963454484941 13.6333
100.111733929026 3.27801
103.054173896169 6.61125
104.061602022451 1.86762
105.069783811959 17.0611
105.097523987826 0.621558
107.048720397764 1.8299
107.085737223273 0.999429
110.095984924352 1.22342
115.054220874093 3.18583
116.061375548654 1.62695
116.106764381107 12.6584
117.069408277452 4.51977
119.048793843512 0.693333
119.085124793041 2.59372
120.056412722173 0.663848
121.064609937297 24.2996
121.099149903186 0.774419
127.053946602626 0.836606
128.062297460002 2.87585
129.069153742888 3.86357
131.049321150245 1.30485
131.085015419459 5.0644
133.064067864251 13.3201
133.100820440324 0.961614
135.079947212051 1.10151
141.068985147791 2.82511
142.077283448517 1.04598
143.085403162821 1.1722
144.056237467943 2.56425
145.063400922126 1.80878
147.079637658315 2.534
148.07555367959 2.21668
151.075648845069 0.812411
157.064586836639 0.706661
158.072230228359 0.685472
159.079391748465 4.68634
161.094696325846 1.70809
171.079720683065 0.75798
177.090814340652 1.55409

