>compound 13(S)-HOTrE
>formula C18H30O3
>parentmass 277.215955417269
>charge -1

>ms1peaks
43.0552392964284 0.732305
79.0517606604155 0.791906
109.101308660069 0.663641
121.104780292048 0.521886
135.118445960119 1.81983
149.130254063738 1.57774
173.134051022561 0.656667
259.203240462334 1.11504
277.073621609001 5.07666
277.135011826521 2.00978
277.215390698849 100.0
277.366999812518 1.67043
277.420525325399 0.864277
277.552212035759 0.620804
277.693431113433 0.773282
277.893231200893 0.708158
278.89323120089 1.0e-13

>collision 10.0
43.0174050505524 1.35025
43.0550303056072 2.74328
55.0549440486776 3.41411
57.0680363302232 1.35306
59.0533181570674 0.838862
67.0543623838117 5.79422
69.0708632073222 4.11591
71.0837169866698 0.568071
77.0381528783487 1.53654
77.0578859690728 0.771481
79.0543277523856 9.53915
81.0690772287147 6.96873
83.086475319892 3.50634
85.0663067904826 0.916866
85.104662601282 0.644222
91.0538563036894 3.34562
93.0703408532155 22.5738
93.1535577001691 0.507203
94.038375072042 0.549876
95.084703270394 7.30818
97.1002571023666 5.18668
105.068638047701 3.17171
107.084758530677 16.4767
109.101012665355 6.01328
111.079542479696 0.596676
111.117829702219 0.678505
117.06996347236 1.26954
119.083610616887 4.91113
121.101282335974 24.2034
123.114330865218 3.10334
125.095775028329 0.585234
129.051600472265 0.713254
131.084586928174 1.06209
133.100070470058 8.07123
135.116447124859 39.059
135.222337537888 0.600635
143.083941804198 1.37074
145.099593824825 2.67261
147.115970132496 5.42463
149.130768832826 15.2736
149.204289099451 0.589923
151.108712696565 1.04172
153.117233946146 1.11429
157.096290760916 0.670762
159.114788100344 3.40933
161.127616383742 2.95595
163.146482956298 5.50996
165.129184253804 0.509453
167.108762513571 0.523504
171.118487489258 1.49274
173.130459419207 2.10109
175.142744651737 1.46427
177.123487838316 1.49937
181.115560586281 1.26841
185.134005767162 2.09797
187.145142378694 0.636442
189.133746863836 1.53687
191.149173372871 0.735128
193.120277157316 1.42368
193.151539739021 0.51086
194.88430124998 0.591881
195.135444912121 1.25318
199.149783703555 1.02525
207.136582343538 1.63301
213.162498101797 3.2961
221.15413318394 1.90535
227.031029252206 0.536667
231.173938029029 0.81194
235.164784327189 6.08375
241.192569771817 2.6315
244.040026839546 0.668751
259.207486238377 4.81843
276.150820801867 0.585234
277.215955417269 100.0
277.365042512359 1.72644
277.44220767634 0.705466
277.497195640199 0.67411
277.554236060949 0.870884
277.627250197223 0.537684
277.75038035122 0.602608
277.827743592524 0.685211
277.937169281144 0.54644
278.008553668976 0.526981
278.073290205394 0.759016
279.07329020539 1.0e-13

>collision 20.0
41.0407923160813 3.65937
43.019924268929 3.17846
43.0555954540104 10.3862
53.0381936080213 2.0787
55.0180761585265 1.63191
55.0549239561375 28.8831
55.0952693048108 1.08677
55.1216651948078 0.650086
57.0348425223537 0.841421
57.0714397817846 5.00348
59.0517564989716 1.93426
65.040504035682 0.722805
67.0546117442083 23.4
67.0973658057306 1.04351
67.1309931946057 0.599028
69.0698922850756 19.1689
71.0480206004058 2.99666
75.0989857800217 1.11811
77.0387319150763 7.99602
79.0545488625299 68.1766
79.1128637924762 2.23747
79.1342765459938 1.13213
79.162488105232 0.643168
79.4918149352047 0.588202
79.5246101628664 0.976308
81.0706709794203 29.9023
81.1533043024371 0.858438
83.0482574478837 3.35624
83.0867457977885 11.2939
83.8859906930459 0.756736
85.028184293638 0.928387
85.0653575277738 2.29293
91.0545582541345 21.022
91.144926161447 0.575929
93.0699692565954 100.0
93.1552689431199 1.8979
93.1916709747356 1.11897
93.2465611576172 1.26614
93.2973650137485 0.754843
93.4976285124098 0.642622
93.6227292994318 0.722516
93.6971785641813 0.576835
94.0807353312463 0.611442
95.0854449281124 26.9816
95.1418109483376 0.893386
97.0656374216873 1.6685
97.1019225796964 5.13563
101.05884840188 1.4709
102.008214593821 0.58759
105.069358478394 12.5748
107.085467432611 45.7969
107.178495402721 0.708737
107.580511349495 0.598385
109.063301869148 1.47522
109.101305022846 8.03629
117.066505324443 5.13776
119.086382128327 10.0403
121.063773836426 1.16035
121.101695299946 41.8842
121.204329604865 1.19894
121.246283552809 0.687008
123.107562368729 1.34835
125.098148764918 1.74076
129.054065140141 0.994407
131.085975016403 3.65224
132.377323749986 0.584834
133.101265869714 7.88735
135.116969750222 33.4518
135.182260913449 1.44561
137.09083414069 0.646898
143.084912024861 3.96789
143.518254538802 0.89537
145.099213119939 1.97305
147.115989265738 3.14276
149.132184740126 10.8656
151.109291087069 1.65958
157.099308374284 3.25303
159.115450022705 2.95324
161.130822870247 3.03025
163.141368890139 0.757252
165.090708167748 0.817624
171.116465880458 2.57578
175.105668058195 2.73581
175.144521565103 1.96178
177.10135475312 1.16825
185.132099053811 1.36334
189.123538854878 2.77762
199.081203484224 0.694769
199.144447845211 2.1586
200.653236989573 0.625254
207.142495082361 0.639645
221.15203559629 1.28351
241.194987785222 0.930969
259.200298924796 0.738147
276.137529712582 0.726216
277.134724984762 0.83214
277.216914065766 6.41977
278.21691406577 1.0e-13

>collision 40.0
27.0233834522368 0.661431
29.0367780395757 1.05971
39.0247146543544 1.94609
41.0399714875227 21.1163
41.0897353768556 0.805852
43.0196493631758 3.00551
43.0559924479391 11.8377
43.118358125887 0.684808
45.0324407398273 3.50614
51.0234819274227 1.81112
53.0384845733188 3.13921
55.0172156602891 2.85532
55.0557136657153 48.0661
55.1220616570741 0.904951
57.0704784322571 1.80809
59.0494737569251 1.52599
65.0385159508998 6.23821
67.0541844733184 41.1225
67.1506295644248 0.708708
69.0316181284337 1.01883
69.0702257946938 9.82656
71.0530103088701 2.9328
77.0013043234943 0.671792
77.0387734050815 67.2958
77.0994093095744 1.1808
77.1399567676701 0.89564
77.1671920331626 0.805852
77.1866758613288 0.671543
77.2741639248175 0.686466
77.4004475231512 0.746234
79.0547419980295 100.0
79.1350577238235 2.45753
79.1643979538892 0.955182
79.2604208725465 0.597469
79.401661594987 0.827416
79.4484288957398 0.64311
79.6219001800734 0.620245
79.8323197622625 0.659203
80.0599699651625 1.32132
81.069688514462 27.2945
83.0475934576877 1.52045
83.0874089117741 0.868696
85.0665349911961 1.31026
87.0830543944155 0.866077
91.0543362393207 77.2129
91.119291627472 2.03044
91.1428537649219 0.943518
91.1667067377766 1.15278
91.3833252446687 1.02993
91.647791427378 0.603497
92.0617444637978 3.17794
93.0708813930557 64.4845
93.1599829288667 1.23865
93.1979946177781 0.651853
93.2886342463865 0.677637
94.1175247162857 0.648338
95.08595622498 9.37276
97.062938010421 1.48737
103.04827754346 0.673941
105.069455051849 17.8585
105.371861546343 0.604855
105.462822799824 0.65662
107.08543841706 13.6823
109.064948694943 0.793727
109.100188191026 2.72031
115.048099913386 0.777153
117.072388273385 3.4397
118.07311426855 1.2247
119.084492698722 3.23833
121.101175728224 1.56699
128.064924576761 0.916283
129.067230934851 0.597008
131.083709849621 1.46579
133.104046374741 1.38621
135.11425076156 1.56696
142.074076089587 0.781926
145.101894734758 1.60693
148.085131876865 0.69808
149.08513187687 1.0e-13

