>compound 13(S)-HpOTrE
>formula C18H30O4
>parentmass 293.21096578174
>charge -1

>ms1peaks
55.0570934729701 0.541418
67.05424991759 0.685112
79.0544247485483 1.02425
95.0849235767648 0.55661
105.070315915679 0.759655
119.083339430629 0.580147
133.103705689901 1.13337
147.115750979949 0.707133
149.095563266044 1.21196
159.11902096173 0.677901
193.123677191856 0.850437
195.138246740568 2.35224
215.178080812668 0.582633
239.174869773089 1.85337
257.190458552325 2.08256
275.199560442427 38.1031
275.315324386903 1.02102
292.188722447042 0.518618
293.210687007517 100.0
293.362229746603 1.5213
293.413107825591 0.84853
293.472068520849 0.703509
293.526507858753 0.737723
293.567307252576 0.505591
293.617748752924 0.782404
293.7716243002 0.612096
293.905790802026 0.539628
294.175628802965 0.641524
295.17562880296 1.0e-13

>collision 10.0
41.0378898024689 1.23451
51.0243389322072 0.860643
55.0194693634387 0.500268
55.0542912300283 1.75172
57.0337426467323 0.573356
67.0556391743334 3.78555
69.0693184486417 7.94735
79.0545748372327 3.65483
81.0338932225362 1.07624
81.0692345045987 13.0842
83.0491157709925 1.43883
83.0862961570653 4.30755
85.0655351267123 0.555448
91.0514024925463 0.788694
93.0697651393965 5.20498
95.0495317174506 2.1792
95.08386294402 5.62068
97.0648133662856 3.30332
97.100912159264 2.86491
99.078523308146 1.58679
105.068649071247 4.30411
107.084180189521 7.86714
109.063522399552 7.44822
109.098626643343 3.3236
111.081685257145 2.03849
117.068771233551 1.00113
119.084859164045 9.34314
121.100786454463 6.96872
123.096252574819 3.52715
125.094237419585 1.5211
127.073950283762 1.1022
131.08453028917 4.78117
133.10085056497 8.66216
135.115950651142 5.29362
137.095303675995 1.84471
137.130990614407 0.899222
139.107402421962 1.51996
141.087742417387 0.595123
143.088599273036 1.78762
145.102826307147 4.26921
147.115860833329 12.6899
147.178696184984 0.534383
149.095144303049 6.3664
149.128147777114 3.2784
151.143847980696 0.69342
155.08270542978 0.596747
157.098547858795 4.40935
159.117009616562 4.44084
160.134877652278 1.54478
161.131063360613 3.80059
163.11105364412 5.99686
165.085889400757 0.755451
165.125591863148 3.42298
167.1065990116 1.23986
171.111866387671 4.20464
173.130870111414 4.81643
175.112213403392 1.47228
175.143992691143 0.821077
177.128051041027 2.01699
179.134583863178 1.66985
181.117542362752 0.570343
183.116078022559 1.29552
185.130973704325 0.67311
187.129334445517 1.54335
193.11948570649 2.44642
193.164791936503 0.525834
195.137762426875 5.33856
197.138105702435 0.505001
199.142814740239 0.559407
201.137516759555 1.67422
203.138021466461 0.689032
203.175001323877 0.851822
205.121903023365 0.970504
207.13791714827 1.11007
209.165006627014 0.550915
211.145061603648 0.728913
213.164760627251 0.661321
215.174393823927 0.52226
219.143037944927 0.727757
221.149902200975 0.700651
223.131138394514 1.99074
229.192295183635 2.97698
231.17176687505 0.593086
235.170367065776 1.5516
237.153377194448 1.08034
239.179550295195 4.3354
246.191042926736 0.669005
247.202647373945 3.08336
249.190512905479 0.838119
257.190228385839 11.7827
265.218563359673 1.06127
272.660405110799 0.690354
275.200117522197 100.0
275.350376909212 1.90344
275.415568023817 0.730767
275.610546676945 0.957542
275.682630176768 0.612707
275.772023192408 1.08669
275.823449780023 0.568821
275.995773119526 0.62984
276.198045686281 0.721028
292.186733493407 1.07841
293.21096578174 37.8676
293.366637430663 0.568773
293.591954203828 0.612405
294.59195420383 1.0e-13

>collision 20.0
38.9622550057966 3.39747
41.0398608627774 5.7507
43.0187391672686 5.68235
43.0558798927716 12.0202
55.0164739442459 5.63649
55.0544524840545 26.5545
55.0917528418192 1.33826
57.0318472809049 6.82339
57.0677488189192 2.72199
59.0477463178757 2.2029
59.0659695706043 1.28408
63.0398378762632 1.09065
65.0380579615474 4.52167
67.0550640895101 41.0432
67.1114807776974 1.15924
69.0715370088939 29.269
71.0478027325237 6.18419
71.0834000466539 2.09333
77.0386827576117 8.96241
79.0545530286507 29.6455
81.036176722687 8.50709
81.069545853778 100.0
81.1531195737773 2.2005
83.0519776986686 6.67651
83.085901378103 24.371
85.0650210258983 4.26885
91.0526768068524 33.895
91.3195830506328 1.16531
93.0694682257722 44.7505
93.1256493854408 1.36485
95.0494116754207 10.56
95.0863535040222 32.8545
95.162279800683 1.1173
97.0635979245744 13.8426
97.1033662263593 3.99696
99.9847308658377 1.17747
101.064960936467 2.12091
105.069250768537 43.9819
107.01313939263 1.38361
107.050308022751 6.01628
107.085256474154 41.0437
108.543780230895 1.23881
109.065773550534 18.487
109.098145255138 16.8192
109.165463241082 1.71708
111.082099750544 8.06735
113.058694588579 2.0982
117.06786332801 8.81608
119.085189692674 45.0093
121.065036529233 8.2597
121.099584481768 20.8324
123.114385345077 20.6318
125.099111564577 1.20439
127.073309554832 3.06491
129.06716456666 3.85586
131.085465259033 18.1847
133.099576281162 44.2488
133.175706725405 1.27327
134.06403998593 1.53901
135.106267183733 13.7841
137.096289205935 3.23235
137.135206605622 4.78373
139.109298600358 2.19167
141.066775246924 1.12431
143.087483649495 3.62574
145.059103115759 1.45388
145.098132218492 25.9157
146.10696886769 3.47666
147.114634360596 32.3258
147.198617927072 1.32018
149.113004594103 13.2508
150.138643868362 1.90567
151.109268220007 5.62453
155.09519988657 2.83932
157.097557829715 3.4046
159.11491989687 15.1802
160.128735887623 5.46447
161.091176891989 1.79245
161.132699261362 6.85623
162.857643432763 1.17411
163.110975377779 12.0542
165.114702600622 2.50217
167.121375867529 1.22473
169.091254605066 3.18072
171.114145131644 4.41443
172.077935235116 2.22708
173.127787873416 5.43806
175.150588423719 2.8362
177.126587930417 3.87953
183.11189025894 2.79081
185.121703326445 2.03862
187.11449855373 5.12116
189.146408790604 1.12357
191.139132554901 1.31175
195.144641255396 2.5738
199.143671604711 2.9565
201.157756422473 2.32848
203.145238327076 1.74747
205.157720088244 1.63714
207.139293792084 1.97441
211.122653709745 1.13618
219.13573608134 1.89836
222.087691496564 1.38619
223.17032767047 1.71806
229.193655944554 3.22243
233.156763587229 1.73359
237.151030089005 1.98473
239.179289453782 3.78785
240.144836543185 1.63186
247.20164568952 6.28973
257.188739482104 7.01297
275.19835779134 47.4926
275.327160070822 1.42676
275.496661892585 1.33166
275.727691564349 1.63503
293.209526199784 1.8764
294.20952619978 1.0e-13

>collision 40.0
39.0213840224906 1.79019
41.0393665404514 49.0504
41.0866674279348 1.3264
43.0177407297128 6.4058
43.0555933377041 12.6933
45.0354312630416 1.63085
53.0403445572707 8.09273
55.0171248787782 21.0007
55.0553296203902 53.6064
55.1041658905916 2.21385
55.2791706254481 1.20955
55.3101097096093 1.58628
57.0327467513314 8.50832
57.0699670745115 3.89208
59.0512136991512 2.417
65.03901393287 8.92539
67.0545239724611 80.1522
67.1335869888264 1.27335
69.069056560872 17.4619
71.0494951435646 3.15829
77.038095524546 29.3841
79.0540009902913 96.0268
79.1551495885343 2.25857
81.0328484646999 2.90069
81.069942581757 100.0
81.732057599891 1.32367
83.0484114178236 12.5045
83.0858241340609 1.68026
85.0605209172784 2.37148
91.0544913849117 48.965
93.0711392559728 14.3316
95.0477578062681 6.49252
95.0837752103626 27.153
97.066609644384 5.30581
97.0979027568573 1.59242
103.052125863254 4.63525
105.070388990197 41.2585
106.076867085642 1.66809
107.047741233087 8.27067
107.084795632043 19.0896
109.059539529502 2.06592
109.099426344049 7.49997
111.077628948637 2.2215
115.057194602838 1.29236
116.066730343619 1.21692
117.068644258783 7.44051
118.074243526906 1.47289
119.049126377221 1.43694
119.08615906968 14.6355
120.087350289952 1.83836
121.061796162607 2.59533
121.099795952171 7.44314
123.099791547553 1.6836
127.050517908513 1.51799
128.054016973172 1.82912
129.068577758149 5.91153
130.075531375749 1.62796
131.083927130268 12.6316
133.100763007557 5.34629
137.093590683792 2.12893
142.080512746991 2.63868
145.098357028948 6.62073
147.108975219059 3.07216
155.087700507233 1.74416
155.753888771236 1.25358
157.10686904669 2.39662
160.226225145918 1.38814
169.098024808252 1.23994
173.129689399103 2.5057
177.128013808457 1.21922
178.12801380846 1.0e-13

