>compound 15-deoxy-&#38;delta;-12,14-PGJ2
>formula C20H28O3
>parentmass 317.213593859255
>charge 1

>ms1peaks
109.102907998359 0.583145
189.126100019018 0.644923
215.133134977582 0.629922
238.643959474661 0.574738
253.196755809953 0.648913
271.203764601401 0.647749
277.155133220493 0.749546
277.650618215817 3.18082
278.153250528117 0.948187
281.198189104425 0.92614
299.203114981062 8.07285
316.661315349836 2.69037
317.213593859255 100.0
317.480084765229 1.03766
317.624551103876 0.906316
317.787482180404 0.84462
317.85807820281 0.692539
317.986349217657 0.545162
318.204229087616 0.644058

>collision 10.0
43.05304706867 0.516323
55.0174043791879 0.853584
55.0552308415544 1.34455
57.0702221972694 0.721079
67.0575653758732 0.627614
69.0698941788825 0.721185
71.0877137260348 0.560741
81.0668262437589 0.61721
83.0846684808523 0.638996
91.0532606705433 0.73147
93.0685562931343 0.597353
95.0841559826257 2.27519
97.0629073527119 0.845174
97.1016308780875 1.40625
102.126872474248 0.743315
105.067226988219 1.01924
107.080154486155 1.62657
109.064026821349 0.842324
109.101370096868 3.68317
111.077896155922 0.935387
113.096770703867 0.614653
115.049914022957 0.636827
117.068910803809 1.60481
119.084923430146 0.754493
121.066197187396 0.868094
129.067754709095 1.45675
131.083275709371 1.49566
133.063622813578 3.66413
133.098811643817 1.55147
135.078589462804 1.81433
141.067366287007 0.739823
143.081941846919 0.716311
145.092925299412 2.26083
147.077870495599 2.18481
149.095697681357 0.92728
155.083176410755 0.577015
157.094831774374 1.31283
159.083597795441 1.03164
161.097301775244 0.577698
163.095064986202 0.878036
169.098844502469 2.35199
171.112899947791 1.77995
173.092811929284 1.46497
173.129105580014 0.945778
175.123583347611 0.644722
181.099205428019 0.614276
183.115379260265 2.64192
185.094309013236 5.4427
187.106169148411 1.6459
187.144516022954 0.916451
189.125222125663 8.4307
191.132355578328 1.24831
197.12177939646 3.63182
199.122331426605 0.809617
201.109840837721 2.83057
203.121281203997 2.88967
205.127610768376 0.800832
207.113028978112 0.544447
209.013590742496 0.663635
211.120349282211 1.80575
213.128193434461 1.17015
215.138257372715 9.14874
217.143056097474 0.818741
219.139294677968 0.545878
225.127313283459 1.66598
227.171955915319 0.831727
229.12750741368 1.05959
233.146912361786 1.29742
238.139479436742 2.2915
238.642675623024 3.78131
239.175194742176 4.05158
241.156228919673 0.619328
243.139028788462 1.01465
253.193844314835 5.52646
255.173006810309 0.933334
257.18733498621 1.83767
263.178998422879 2.46755
271.20364456566 5.48333
277.148431521557 1.28492
277.651095120696 3.40438
278.148761104367 0.650101
281.188314633032 16.2301
289.217764639109 0.530982
299.198149779371 66.7797
299.360339949431 0.787347
299.417475729533 0.565797
299.512424972133 0.529242
299.830860140854 0.504152
317.208987140653 100.0
317.369933773025 1.60852
317.418584773028 0.775236
317.537877329506 0.813376
317.647146618522 0.717805
317.791053780401 0.644568
317.884741760322 0.578449

>collision 20.0
30.382302358745 1.02318
41.039619471957 8.28148
43.0148357833473 0.847568
43.0550331907324 20.8346
45.032524234976 0.822231
53.044063296724 0.844814
55.0194070587708 38.8503
55.05504893662 47.8025
55.1226379668356 0.935843
55.28675028557 0.731071
55.3971011587343 0.859671
56.0577756316487 1.59178
56.9652863668295 1.93849
57.0374783696019 1.87608
57.0705398322805 18.5018
61.3263168729859 0.809167
62.9490275609943 0.781044
65.0388765479496 3.3311
67.0545384284662 54.2155
67.1275675710543 1.10512
67.153072315824 0.771201
67.284081824294 1.06488
69.0325810499346 1.97317
69.0708059871722 36.9382
69.1423400837305 0.919512
71.0476302468569 3.78228
71.0857238410558 12.3567
72.0908978567894 1.70319
73.0679481136347 1.55306
77.0400569433225 1.1842
78.0435821617353 1.1562
79.0549089623905 21.4608
81.032469208016 4.10703
81.0703797008499 35.2774
81.1505867723529 1.05989
81.3320586834129 1.00485
83.0504395576086 5.48801
83.0857209931595 14.0882
85.0645136675371 8.98702
85.0960208826106 5.78086
88.2604142114284 0.909914
91.0544873161704 23.2632
91.555253320889 0.786069
93.0296036855923 1.27281
93.070524395008 26.336
95.0492569004679 13.7728
95.085685971822 34.3041
95.1604783444875 0.974956
96.0839955799525 0.905382
97.068487497221 8.82626
97.1015515852652 7.83799
99.0762098495895 3.20272
101.055222946652 0.771558
102.093208425756 1.30326
102.13171849661 2.291
103.004272218567 1.06074
103.05290762631 1.46447
104.07486442655 0.738958
105.021430385673 4.08013
105.070452088424 33.7274
105.387844732898 0.750733
105.711179644662 0.789471
106.008838673462 1.44605
106.960844779527 1.18972
107.049481346484 21.7786
107.08427148543 17.537
107.144331013771 0.841183
108.056446818968 2.05137
109.024936559622 0.950775
109.099826120741 63.1347
109.311639257769 1.00485
110.102874072995 0.879531
111.079308354583 2.75593
113.092578542551 1.04505
114.941637699527 1.28786
115.0552339735 8.10843
116.071831976646 1.07801
116.439801277697 0.806623
117.06965914847 26.5803
118.081853391648 1.09737
119.049158196821 11.4944
119.085541000022 20.5208
119.441793539503 1.38935
120.062775326273 1.58014
121.022364311251 1.58954
121.064131480475 29.6428
121.100038988275 11.5353
121.148204743098 0.895232
121.166883119539 0.822457
122.075042686189 1.17157
123.109967589243 7.62616
127.068452065962 3.14668
128.059320071923 1.32458
129.069859311366 25.6119
129.346352399803 0.776858
129.635572015461 1.91868
131.001358197061 12.1685
131.08379248834 41.8246
131.144273797489 1.22425
131.163123577869 1.12986
131.296256963131 1.01074
131.460967329987 0.73202
131.998513139497 1.02408
132.052841303822 0.826263
133.064932256315 65.9556
133.274047665659 1.03938
133.365629928746 1.92789
134.073709519419 3.87139
134.974537908174 1.1364
135.079303996895 21.1738
136.175759755925 0.753937
137.119174658454 2.48659
141.070803039007 10.6964
142.078672321266 0.891172
142.98223989304 0.765327
143.085640849506 28.1565
143.172805213987 0.744504
144.065251252089 3.63999
144.98391400036 0.964014
145.063762980252 49.0515
145.099341831003 26.8024
145.175992351794 1.59592
145.206165629031 0.762774
145.264989421468 0.93198
145.382153826763 0.938489
145.479246427501 0.785721
146.075385819426 2.22766
147.082081141001 43.1319
147.31809401979 1.01591
148.086586066025 2.10121
149.096127892083 6.18371
149.143290110834 1.30124
149.418034927471 0.731106
151.107209456088 6.03546
152.057192079096 1.68888
153.072133348078 4.92507
154.083853604571 3.25248
155.084425528963 30.4041
155.164658921488 0.840691
155.268618437684 1.13164
156.096779225533 1.51055
157.098877886108 35.0276
157.162214094466 1.41698
158.070094661058 3.59412
159.080288313476 36.3155
159.114923919319 16.5412
159.180004562333 1.1948
159.371572151786 0.969074
159.666161062599 1.35459
160.084552281744 3.66269
160.88386483648 0.733822
161.015888736363 1.3615
161.098850529474 19.4854
163.104240372476 9.66564
163.825036030818 1.50223
165.09325009195 1.45528
166.076278929603 1.19393
167.089537576398 7.7703
168.095373692493 3.69065
169.099539619268 45.0688
169.176604459169 1.42711
169.226242001456 1.07996
169.428280425462 0.891317
169.61196675309 1.17294
169.981228959308 0.993728
170.102484987316 1.08844
171.11199850192 22.3933
171.208036087142 0.920354
171.538092178635 0.97692
171.78513162558 1.00197
172.083178259715 1.36648
172.130688264957 0.862803
173.098933741622 33.1971
173.188551285302 1.59406
173.216223844457 0.902692
173.30630574701 0.825998
175.012120184431 0.933077
175.114722813042 12.7119
175.198598811255 1.19398
176.123848968967 0.858692
176.665324946447 1.02317
177.092951747894 1.23901
178.077715529066 0.879246
179.087719278349 5.53475
181.101790837257 7.62297
182.105645257544 5.63639
183.113938601513 37.7527
183.236381412042 1.25607
183.298896265531 0.801598
183.862231821218 1.13312
184.084142318339 0.929969
184.126006909166 1.29815
184.952461301613 0.854717
185.097218911888 37.2316
185.195319280767 0.895689
185.571885884947 1.11219
185.752299372758 0.734227
187.115059155823 26.605
187.215465683944 1.09775
187.340322645868 1.12399
187.491540564937 0.807308
188.11307547188 1.40755
188.480951288863 0.739106
188.964724741186 2.11163
189.128119609249 34.1226
190.135648393448 1.23124
190.458070261141 1.02573
191.129136879508 7.17894
192.09327543005 1.81512
193.100659140531 7.25808
195.119613796713 3.65036
195.934060931512 0.740317
196.113717143822 0.815897
197.110280673374 26.112
197.224672703568 0.901105
197.933036313651 0.862498
198.139088686517 3.15363
199.117491191065 11.9558
199.478552303202 0.826451
201.118048921235 23.8482
201.225710189295 1.11159
203.110520019983 23.7342
203.551135398916 0.851841
204.150929309212 1.69977
205.127210455257 4.64155
206.102979612651 1.40679
207.115878817221 10.8369
209.011143878249 10.4556
209.138322375473 2.98469
209.323411048648 0.735235
210.013902973159 1.36112
210.096238957272 2.67041
211.013878547746 1.23222
211.121106309992 19.249
211.224751278739 0.826585
213.131524918558 10.889
213.298529412038 0.801598
214.093493820572 0.766647
214.885956483787 1.04668
215.141136519984 67.545
215.299759658097 0.838138
215.342459352822 0.863435
215.702652535313 1.04804
215.798232004467 0.882101
216.112849896367 2.63966
216.148237643782 1.81239
216.185259104355 1.16942
217.141831765629 7.51384
217.209884022868 1.1437
219.107617346355 2.94434
221.133518387607 6.07208
223.151483679376 1.33632
224.142786779228 0.936644
225.135429446682 7.45306
226.150620602522 0.804796
227.172609499088 3.95446
228.115734500961 0.804187
229.12518188883 18.8316
229.19361498593 2.38604
230.178833563648 2.35987
231.138521248921 10.3728
233.116866874763 5.26858
234.122421281116 2.92271
235.156180903832 1.24572
237.163197340784 1.98708
238.138960781786 3.87959
238.646010412432 3.10257
239.012102171339 2.17201
239.047551622076 1.17548
239.174678224835 9.87387
239.240459424498 1.42552
241.192258625548 1.55554
243.164400661079 2.9269
244.124621256892 0.737384
245.150289080089 1.13307
247.136464950781 7.27431
248.155252604883 0.731056
249.158627564738 1.02132
251.161849242494 2.15151
253.195524049999 28.5811
253.27890759839 1.59754
253.338064793731 0.804034
255.170022984095 5.11561
255.212571486259 1.60781
255.331453765629 0.752077
257.183575812729 4.98214
261.152350161721 2.46972
263.185943603565 6.71741
271.20907624778 21.9121
271.319492236333 0.962375
275.157305418384 1.64513
281.191443798087 29.7841
282.081221617375 0.78582
289.215379237548 0.860736
299.199443717617 100.0
299.355146029208 1.5022
299.468401989966 1.64065
299.545136891148 0.862438
299.614329762655 1.04312
299.823610809144 1.29728
300.009648128386 0.840748
300.113557679063 1.11457
301.504551103155 0.763427
303.155411275342 0.829003
317.210828350313 84.3864
317.361797782862 1.80947
317.400430649075 0.752008
317.527496413525 1.24358
317.669374691421 0.915786
317.85174545273 1.09417
317.97910002839 1.29813
318.117958997849 0.806927
318.204218634132 0.767342

>collision 40.0
29.0387275317403 2.8944
36.1656377913026 0.592934
39.0245156470315 1.41248
40.975889236322 0.957728
41.0395712354552 25.8316
41.0790048671436 0.672176
41.0964012980013 0.837643
41.1733850977535 0.614649
43.0191944137513 14.2952
43.0550888319861 24.1189
43.1007796447961 0.790132
44.0574599280185 0.632372
53.0406130604395 3.27093
55.0190350786212 66.4863
55.0553897653733 59.0522
55.1232711006042 1.12273
55.1412439060416 1.08313
55.1699299957674 0.638715
55.1894190701413 1.06186
55.2352525053266 1.46095
55.4292969100844 0.607741
55.5359749489158 0.594274
56.0263209542083 2.63205
56.9654473726949 1.86614
57.0342514920177 3.60903
57.0706262392415 18.8804
57.1236177490642 0.606331
58.0706912371838 0.741201
61.0097714702985 2.57386
63.0313751688912 0.583582
63.99873273708 1.69533
65.0412423506035 7.77629
67.0545084499642 86.0118
67.1299593122001 1.40604
67.1511629399583 0.834739
67.17837670651 0.689931
67.2799133115676 0.648732
67.3239927074242 0.662486
67.4623749026977 0.61035
68.0900130351499 0.592864
69.0348361645365 1.25756
69.0691130786851 12.7178
69.1103195116116 0.631081
71.049353356896 6.06761
71.0873476941701 1.37841
73.0646050195746 0.707604
77.0400471949726 23.4567
77.1120197769237 0.793226
78.0491716584036 1.8911
79.0551388989011 64.5683
79.1329127274868 1.35833
79.1613846016187 0.648706
79.204452618234 0.634236
80.0663354778988 1.90212
81.0320502107712 2.93082
81.070128691594 45.0285
81.1539888381504 0.787771
81.3453761688792 0.580403
82.0419327982978 0.617919
82.9819159238925 1.13318
83.0470186731517 5.11247
83.0842635148835 1.90941
85.0681083978233 1.75299
87.0474005393146 0.613994
88.0733518202841 0.703449
91.0547866986456 100.0
91.164715898444 1.46193
91.3491232430517 1.49109
91.4092205023256 0.722206
91.611381521415 0.553743
91.81514741789 0.803912
92.067381898866 0.924425
92.0901316590586 0.627941
93.0343570101113 3.66026
93.0686457591666 24.8405
93.1133706422515 1.60554
93.2060089162444 0.663705
94.0391516896964 1.35695
95.0516420458498 9.96728
95.084552350824 6.59468
95.134723666521 0.840634
97.065963379728 4.30146
99.0451541542814 0.925
102.089709640919 2.02756
102.13317113253 0.644658
103.05356395956 15.0862
104.063766499867 0.606596
104.129352982339 0.613518
105.069885219313 79.9254
105.204945184233 1.12998
105.288598401697 0.958667
105.398058312268 0.929402
105.617163723433 0.640155
106.038849010301 0.828014
106.077311003786 1.39483
106.102131387285 0.611007
107.047548649923 21.6185
107.085433817306 11.8223
107.185757117368 1.1042
107.207494240724 0.552071
108.054008225759 1.36062
109.065773011392 3.84877
109.101855994167 9.68269
111.078065439828 2.36331
113.984905451774 0.662133
115.053799476001 23.4555
115.142688686225 0.621162
116.060774250557 6.9795
116.343949887317 0.56393
116.968919674387 1.01672
117.070538709052 44.8379
117.264603183133 0.587833
117.579392627956 0.758129
117.641168487395 0.55121
118.074042141596 1.85709
119.049279916412 19.9526
119.085682373902 21.8688
119.30437248091 0.841457
120.056080697433 5.61995
121.065560829215 17.2049
122.072596648481 0.890549
122.128732360557 0.603644
122.980229136461 0.803495
123.043797424948 2.5218
123.079998171902 0.968063
125.721561636812 0.726136
127.054173241132 12.1998
128.062919024518 18.5532
128.378462451534 0.675232
128.47854411454 0.841038
129.070080457444 44.5032
129.169579146152 0.675907
129.487392385562 0.609644
129.782393822133 0.568091
130.080254887718 6.6972
131.000676727827 5.90128
131.084647442865 44.6615
131.150317530904 1.82429
131.214030080907 0.741078
131.977544496911 0.815593
132.05865755207 7.91121
133.000854176083 1.09346
133.066652763649 31.2285
133.161439395319 0.755778
133.204023647234 0.553768
133.295340949462 0.66798
133.775369192354 1.14032
134.077412160536 8.12928
134.964815842602 1.36778
135.072089932129 6.91511
139.014112051344 0.592896
141.069930334535 34.3412
141.175558330739 0.704844
142.075037930425 15.2381
142.421329471576 0.682553
142.997622432379 1.35251
143.08720009438 17.0748
143.144318666725 1.2725
144.05684984285 10.3822
144.084896820162 4.19654
144.992043249428 0.810021
145.074474990469 22.3466
145.498137430696 0.584837
146.068654378596 2.33679
146.940756600648 0.56078
147.081158147011 19.0574
147.199041316976 0.782787
148.107585378577 0.863754
148.958891040009 1.03029
149.05463505573 0.661944
149.12772821265 0.978589
151.053749975426 1.19212
152.061932418742 1.41689
153.068937081758 13.5897
154.075583101636 10.9631
155.044504158756 1.21495
155.085039244399 28.8967
156.093749282521 1.85133
157.09897817886 10.5932
158.074856825565 8.49208
159.078293470757 16.9919
159.112478942983 7.44355
159.188077710901 0.704762
159.552295442198 0.704762
160.103548365886 1.61229
161.090376215031 7.50865
163.141441978998 1.54773
165.071723768712 2.91839
165.656704221045 0.911293
166.075801499046 2.62209
167.088435196382 9.87128
168.089048528657 4.76865
169.099840989037 9.23502
169.338588007568 0.579
169.903415545334 0.580493
170.070861223763 5.71562
171.080365083391 4.24581
172.087566567236 3.69331
173.096266907485 8.1885
173.219203399089 0.778072
174.102642146371 1.63989
175.112827614711 6.0519
178.079729447522 3.11791
179.084426999345 3.9555
180.098936384126 0.944809
181.086480947617 3.42882
182.104118195122 1.96786
183.113938573276 6.01983
185.103139761002 5.22732
187.11289345266 5.59479
188.121322507315 1.16431
189.121813695617 0.662133
191.086986350169 1.07993
193.110896590365 0.994229
195.078006974041 2.15006
195.113932580344 0.644442
196.094424555228 1.35414
197.102277496076 2.81577
199.106758904541 2.1733
199.146663115628 0.691736
201.098944769239 1.57603
203.097585329492 0.881988
206.113267386339 1.03199
209.098769537278 1.30947
211.103885835421 1.3305
211.155513601273 0.718407
215.145756297025 1.21271
226.166267175699 0.675998
231.139193598266 0.689013
245.11048000721 1.00101
255.172364836968 0.692874
257.180275587151 1.4475
259.13114530083 0.703285
315.091289429433 1.05943

