>compound 11&#38;beta;-PGF2&#38;alpha;
>formula C20H34O5
>parentmass 377.231438896691
>charge 1

>ms1peaks
170.477804959924 0.810248
198.901282461064 1.18714
229.646765964339 0.854522
259.928817851526 0.798229
298.931818578025 1.10806
298.963770980599 1.70492
299.003490735202 1.70409
359.220691907385 1.56558
376.216448247509 0.990975
376.28662378064 1.90888
376.348492211883 1.22248
376.572863001136 1.69666
377.227127458515 100.0
377.340322049659 2.74809
377.40776207653 2.88743
377.445614005848 2.56059
377.474834507521 1.26957
377.506121374084 0.89195
377.559864746934 1.36407
377.593817531161 1.5259
377.619525321101 1.7321
377.690753431862 1.03286
377.729672955225 1.66227
377.791791592514 1.50547
377.890143874545 2.54206
377.957683741513 1.33633
378.004764356942 0.995101
378.085737705778 2.56593
378.111343884927 1.19924
378.201835200838 0.916767
407.20183520084 1.0e-13

>collision 10.0
203.815549134225 1.34726
298.31194738058 2.459
299.206027190053 1.69129
341.180191539849 1.38574
359.222208469631 6.19336
359.679153970178 1.33648
376.278314152621 3.36656
377.231438896691 100.0
377.310575074914 9.7355
377.341900621878 4.45747
377.392759182589 3.45489
377.476972493765 3.08489
377.54355485554 2.24134
377.608324667535 1.34019
377.648656273564 1.30894
377.705300788489 2.33351
377.780953143454 1.35037
377.968807984571 2.71484
378.081522190224 1.52843
378.164070198573 1.42417
407.16407019857 1.0e-13

>collision 20.0
58.0647262832606 5.79931
94.0454435494546 3.7672
134.960853466485 6.76124
134.974750616581 2.75302
176.978903188449 3.48542
177.003447418839 7.53867
315.188325582946 2.87231
359.223114988477 19.7885
377.229010379224 100.0
377.275513065766 10.0576
377.356067118953 3.15351
406.35606711895 1.0e-13

>collision 40.0
58.070277053474 47.2886
83.4001880819852 44.6293
122.061418672133 100.0
130.965958317415 43.4641
222.638810062003 42.0496
308.635683660128 34.5997
337.63568366013 1.0e-13

