>compound 15-keto-PGE1
>formula C20H32O5
>parentmass 353.232090986261
>charge 1

>ms1peaks
99.0805071218303 0.591293
201.127261624469 0.603258
219.138238985869 1.31824
299.199460245482 1.26531
317.211091666326 10.1242
335.221634884539 37.8538
335.389352351115 0.613599
353.232090986261 100.0
353.396964838727 1.8836
353.456452127533 0.97827
353.541473663451 0.547264
353.587057771554 0.53155
353.633413062554 0.577057
353.926115856829 0.509302

>collision 10.0
43.0557109958231 1.26025
67.0551495934794 0.594982
71.0859623247551 3.54329
93.0707877729952 0.607033
99.080354152355 4.72825
105.068887649578 0.666004
107.085071731618 0.631829
121.093621883172 0.510988
147.115146298446 0.563147
151.111498572579 0.578997
157.100168002799 0.631195
159.116200265211 1.1002
173.132892794159 1.51359
175.111480058342 1.13371
183.116915761879 1.31381
185.123593109283 0.517595
191.140768772895 1.06453
193.122308701325 1.10847
201.126668536494 9.17879
203.105752653568 3.28886
205.124179462132 1.05212
217.120484857241 0.740122
219.137347490545 12.3115
221.114943266337 1.57871
237.148363852948 0.613459
263.199096139253 1.23405
271.204230621652 2.43865
275.197604810788 0.516203
281.189630946018 2.47811
289.214209278452 5.05211
291.198149175171 1.53848
299.200060653288 11.2798
307.224795077588 0.973117
317.210418615821 58.4599
317.369766739644 0.986813
317.421022314727 0.549787
335.221264478443 100.0
335.383876921687 1.77568
335.443437283476 0.94898
335.551736051999 0.585084
335.695657440038 0.557793
335.810783053745 0.520869
335.934164976207 0.500089
353.231889776312 7.48726

>collision 20.0
41.0400992225102 1.34707
43.0175109513888 1.46406
43.0551887104645 23.4682
45.0329533430568 0.801084
49.9842570363345 0.743599
55.0195737076815 1.4593
55.0559357679836 2.34964
57.0366377831729 1.33791
57.0724741676637 1.20501
67.0539917029926 4.75263
69.0315983308468 0.586831
69.0695655064049 2.55252
71.0502817440537 1.71591
71.0862020021054 48.0909
71.1420106777538 1.03601
71.1639525272607 1.15346
71.1866601642868 0.684848
77.039976800083 1.05178
79.0548190698736 4.08151
81.0351882189148 0.646227
81.0703831329956 8.44852
83.0487667976016 1.14306
83.0859699132734 3.18033
85.0654824173528 1.78423
91.0545861913472 6.21447
93.0707303177306 8.79816
95.0480439031314 2.0676
95.085542783163 8.23183
97.065420318768 2.36895
97.0984635350988 1.05675
99.0802596502008 47.4589
99.1691354645399 0.660459
105.069815483648 7.25325
107.049947048202 3.97967
107.08444304675 5.53658
109.029912201583 0.783227
109.064475572747 3.95623
109.100547170692 4.77351
111.078088508674 2.69235
117.069815483906 3.88382
119.085066648469 6.44503
121.082725295234 5.47251
123.043121828602 3.40003
123.076937210585 2.7955
123.114112897709 1.21126
127.108566083384 1.95166
129.073261644215 1.569
131.045853499279 0.838284
131.086553212945 5.26597
133.062926844 5.36225
133.098577145816 6.70806
135.101925121328 3.04323
137.083698472654 1.18955
137.131002340207 0.740725
139.108756421558 1.20824
141.077130953591 2.16174
143.087410582446 1.66561
145.061863311799 2.60093
145.098807077588 3.82498
147.115345621145 10.0229
149.117188965847 3.04577
151.111809131551 11.9034
153.124313477906 0.826124
154.08153858557 0.570405
155.086205492522 1.80054
157.100841279978 7.97113
159.115021295623 11.8885
161.110353864939 2.40571
163.110951669117 4.41377
163.143214572208 2.00992
165.127196756879 7.73042
167.103199765189 0.70968
169.101165622364 1.47039
171.115417689346 4.26092
173.132221894278 12.0805
175.111631807122 13.3032
177.126029825414 5.53721
179.136307402528 3.92126
181.111063169882 0.844413
183.11605518084 8.17816
185.100685747156 5.89139
187.127098959816 1.78838
189.125506178225 3.41865
189.157041298102 1.45223
191.142424256282 10.3887
193.12229308095 4.5597
195.131594595019 1.32963
197.130785674822 2.70755
199.12434937313 1.68467
201.126787320791 51.1108
201.257808791583 0.950441
203.107248525915 16.9669
205.123658930844 7.11925
207.136788512735 3.46988
209.152251349282 1.37592
211.117440039763 1.06848
213.128167723508 0.562955
215.14566670193 2.76806
217.121784390372 3.82093
219.137545617761 45.029
219.273337504214 0.798807
219.513312103203 0.513429
221.118176761957 3.68701
225.13649686809 1.24005
227.182236550759 0.683604
229.168179813208 1.15023
231.138813260082 0.686427
233.156976057435 0.843016
237.148533934632 3.35711
239.157394083731 0.787819
243.132481189439 0.815124
243.20937948676 1.97008
245.183598425994 1.53149
247.202744331705 1.64245
253.193100936978 5.37218
255.197370063876 0.932844
257.181847725795 3.68942
261.20857834409 1.35934
263.200177393955 7.68319
271.205291574128 13.065
273.183830118502 2.37129
275.198955699529 5.36252
281.190306130077 13.5961
289.215173509277 24.242
291.198811833453 2.47934
293.211354843009 3.94203
299.199845248463 34.908
299.356605696242 0.600269
307.225997785398 7.04422
317.210536325084 100.0
317.37312513376 1.57779
317.422072636087 0.88554
317.482922734666 0.901523
317.523495358933 0.52912
317.768624001471 0.787556
317.939214335611 0.686432
318.172436434152 0.546997
335.221718745118 35.4017

>collision 40.0
41.039356333804 8.27155
43.0184850396333 3.41923
43.0551025390258 100.0
43.1161133995404 1.98429
43.1337910657361 0.784184
43.1579593962554 0.605553
45.0342982165523 0.559188
51.0255409589845 0.726557
53.0404078733251 1.3902
55.0191593705002 5.65627
55.0548680009257 23.8114
57.0324646730916 4.02016
57.0707037895607 4.68976
63.9981127168013 0.531182
65.0416382736582 0.7988
67.0547462205062 23.7953
69.0328889059838 0.91387
69.0702449603502 10.8827
71.0129235032897 0.881717
71.0513105639212 1.79362
71.0859191245656 47.0936
71.1635262765743 1.05045
77.0390821745768 4.61777
79.0546394727804 22.4885
81.0329251228626 3.42514
81.0703454338905 23.0513
81.1519159843135 0.505118
83.0494100132793 5.72085
83.0852511904963 5.41737
85.0282326090909 0.680349
85.064658858356 2.64665
91.054622443073 22.3236
93.0706489426265 22.0581
95.048295258544 6.25889
95.0860590690744 12.4867
97.0646084816084 4.26699
97.0975770017962 1.40111
99.080324274766 8.18155
103.054622409887 0.865208
105.070020008696 22.5621
107.048841816201 9.60068
107.084314775439 7.0971
109.064108586697 6.50064
109.100116588702 4.76622
111.067113890778 1.17908
115.054498321214 1.27098
117.06932766749 11.2923
119.084720423267 10.2316
121.02518600413 1.4294
121.064401504055 6.85057
121.100276706545 4.19105
123.042773055236 4.42875
123.077213646465 2.96999
123.111954495374 1.36401
125.072490089343 0.911496
127.049823977697 0.566966
127.111213580589 0.927246
128.06409911508 1.5788
129.070638594797 6.1538
130.076886865383 1.10605
131.085637340626 10.2962
132.054734420651 0.722436
133.064167886083 6.53921
133.09941692654 4.29602
135.041447682782 1.30964
135.080355478739 3.95036
135.113661582239 1.79411
137.073009326201 0.941028
141.074078752831 2.26551
142.078084907529 2.52611
143.085777176794 4.81562
144.083236359653 0.504089
145.064217785948 7.66087
145.098542596126 5.56142
146.069212836032 0.633448
147.095482181096 4.98655
149.097869935573 2.51188
151.111163365851 8.73236
153.067899674482 0.535751
154.074190441463 0.959109
155.086721345654 3.13016
156.093564049715 0.514554
157.098235822528 5.12197
159.105180996291 4.30382
160.090411823955 0.621673
161.090466921423 0.894617
161.129638000361 0.847417
163.106000881425 1.46407
163.14680589646 0.595684
165.127066140383 2.10401
167.093607854176 0.847851
168.092693608086 1.98115
169.09962639599 1.31417
171.113225593716 1.72692
173.130364669469 1.94462
175.11163975498 2.92152
177.126737149914 3.35354
179.090954645061 0.596324
179.140484551178 2.65926
183.116516970929 3.15868
185.098002221842 1.93558
187.138506219495 0.626186
189.124314909246 1.24848
191.14257057758 3.82415
193.121421534667 0.882838
197.136617287249 0.559895
201.127273480787 5.66606
202.138258001711 0.612818
203.138654249929 2.01347
205.12189886112 2.21384
207.131810587557 0.6796
217.127927217503 0.759454
219.139318514937 2.96859
289.213488143122 0.918955
299.194597076976 0.681312
317.212658665517 1.01196

