>compound 2,3-dinor-11b-PGF2&#38;alpha;
>formula C18H30O5
>parentmass 309.205085011771
>charge -1

>ms1peaks
71.0854980294794 0.656078
91.0559387174252 0.638666
99.0822852285028 1.16074
109.101097470251 0.548016
115.112592545617 1.71301
117.067811766769 1.29583
119.083673519257 0.98736
131.084243041609 2.64922
133.101489289406 3.34301
147.116082298288 1.33929
157.098819175233 0.933978
173.130147118744 0.577233
175.109348602141 12.1921
177.090560852445 1.55556
185.095764479685 1.25033
189.099457611801 0.71117
191.112223807159 0.603305
193.120543642649 2.07626
201.162016538724 0.56558
203.110536497258 0.835017
211.145057720879 0.840418
213.164774980035 1.69091
227.184945882408 1.45855
231.173555993899 4.96487
237.178265100262 1.36282
245.188883544358 2.68007
247.16915693305 1.11332
255.174809291269 4.31365
263.20560112024 0.583518
273.184523386239 46.121
273.324812468656 0.66316
274.044376294024 0.608285
291.194808758233 61.3531
291.400856134693 0.622305
291.456316381083 0.589978
291.564982959108 0.628894
291.919683447475 0.571571
292.130373697218 0.62656
308.214055881182 1.39818
308.74820876581 0.544367
309.044119196019 5.01774
309.205085011771 100.0
309.353968541388 1.91563
309.412860084529 1.07277
309.462837581215 0.818589
309.574024773668 0.753235
309.763890198314 0.894663
309.893548401187 0.50476
310.025973710927 0.571386
310.188276847694 0.952646
311.18827684769 1.0e-13

>collision 10.0
43.0557533951438 1.4864
55.0544953030005 0.63423
57.0717856707757 0.639706
67.0558986848846 0.976979
69.0708587630738 1.2739
71.0477197734435 0.504193
71.0866987665759 2.99335
79.056022270934 1.89153
81.0705290331952 1.35687
83.0505002603952 1.09967
83.084043469236 1.0383
85.0669447795797 0.632825
85.1007872983554 0.723188
91.0540483824773 2.30819
93.0692841008902 2.11266
95.0871554315895 1.32725
97.1010167245297 1.54284
99.0807517149428 4.37613
105.067370978294 2.07095
107.084863468125 1.3612
109.100514076291 2.18689
115.112232509806 1.92861
117.069812648358 3.43487
119.08454583504 2.06529
121.093703391613 1.27494
129.070007792821 3.5466
131.084808049031 12.5972
133.101074355038 15.5952
135.078344680441 1.13278
135.115981819762 1.42913
137.055343310828 0.743295
139.071898938272 0.861813
143.084367812921 2.48888
145.063374653566 0.632311
145.105073951842 1.99178
147.111849212846 5.32195
149.096040446452 1.3323
149.131140336922 1.63501
151.079479543529 0.533387
155.078862957911 0.93875
157.059335989047 0.646631
157.101946621796 3.93997
159.077744650169 1.63413
159.117993637322 2.16146
161.095384416722 2.05082
163.080999145137 1.2949
163.147287488349 1.86968
167.085521961863 0.687015
169.097141366274 0.838533
171.111385221919 2.00536
173.130467490082 2.99073
175.111495244646 17.3636
177.092958071981 3.00317
177.163223669463 0.584236
181.098445518739 0.897477
183.115172640032 0.905643
185.10087038469 2.77555
187.143391832359 3.00975
189.103923142532 2.93712
191.124586292542 2.73305
192.148663712202 0.5394
193.119776670397 4.43458
195.111563461553 0.968625
197.129368718522 1.12538
199.112833395879 3.22648
201.140323216708 1.89445
203.104791674397 4.51235
203.178530356844 1.0579
205.121384870205 1.7614
205.164425911549 0.540962
209.139394801625 0.836936
211.148112879512 3.79236
213.162306333064 12.7196
215.145600755661 0.800382
217.120505253032 2.75367
219.139406583567 1.02039
227.178258140007 7.84741
229.163530307796 2.57749
231.174135825389 9.41664
235.165314071428 0.637296
237.169109458983 3.6306
245.189384816174 11.0409
247.17068999569 3.82341
255.174022323579 17.1248
263.195967327059 1.11697
268.016630422394 3.08788
273.183677182425 100.0
273.331020622566 1.53668
273.388044934173 0.977388
273.45887618489 0.702974
273.527184428159 0.631565
273.600681045027 0.556646
273.731848270597 0.72121
273.834463720154 0.692722
273.985826735656 0.823654
291.195327996171 32.3408
308.128616310207 1.03468
308.200603238791 0.805803
309.044200356567 2.53652
309.198923836941 10.6751
310.19892383694 1.0e-13

>collision 20.0
29.0378158559033 1.32797
41.0408120023947 9.18292
43.0187077384074 3.6803
43.0548201591376 47.8954
43.3423657509054 1.57524
51.0248854347301 3.2963
55.0189787253257 9.44336
55.0555806857908 28.2216
57.0346512761276 4.16547
57.0703611613324 23.7831
57.1246262502581 1.08576
59.0492392266197 3.80806
67.0548453918126 59.817
69.0705230857974 20.6496
69.3768600404936 0.950641
71.0119768545899 1.16012
71.0858962096019 69.2368
71.1652755434181 2.21293
71.4092277806464 1.34031
72.081675093504 1.59429
73.0639550686594 1.67999
74.0935689945848 1.68408
77.0400401137813 4.1638
79.055398299793 35.022
80.0601077401395 1.28005
81.0344320998223 6.35286
81.0705298032391 23.5873
83.0513011903878 9.2453
83.0855763744459 11.0664
85.0644857526933 6.85934
85.1002375072083 2.16852
85.2402360871999 1.08559
87.0448743244992 2.50187
89.0430317719578 4.04611
90.976377485697 2.61573
91.0548431327739 52.2967
91.1097185740522 1.58113
91.1376142964703 1.02206
93.0286766615742 1.92486
93.0700627022595 36.0189
95.0469914128765 3.95204
95.0847400629167 17.5162
97.0664835934103 7.06273
97.1028853134881 7.89204
99.043610967713 7.5645
99.07989401491 20.2924
99.134151454746 1.48581
99.367679270797 1.88315
103.053233586424 3.15037
105.069705859442 45.9382
105.138502563263 1.60625
107.083018198625 15.5879
109.029335230277 2.35231
109.063564564939 17.2478
109.100135817633 36.4007
109.235653857212 1.00052
111.044967115423 1.75858
111.079021027587 1.33659
115.053671557772 2.99333
115.079176254054 0.971262
117.070000384164 48.903
117.15193006137 0.982
117.457765133542 1.12558
117.49715415126 1.48231
117.877769641977 0.924595
118.067227963822 1.84008
119.085262527819 40.5075
121.06431319219 10.9907
121.098757305135 9.63362
121.143670957764 1.28786
123.078407559255 6.00473
123.114083787144 6.34582
125.092640386694 2.53339
127.032675457267 1.37709
127.074262241925 0.929328
128.062738982588 7.23007
129.070203217327 76.3492
129.161466079819 1.52387
130.079500094384 1.82422
130.514726061256 1.32836
131.085280489221 91.3167
131.179799251204 2.08909
131.237148311327 1.31423
131.282588588116 1.05297
131.340992309017 1.13535
131.433137743708 1.29308
132.089946203221 0.946645
133.099622540093 91.7094
133.203787806253 1.82495
133.276908909042 1.45546
135.090691673963 8.26908
135.210142794572 0.970971
137.054779521662 2.0356
137.09365402844 1.55015
137.132229345121 1.08528
139.082272468683 2.01939
141.070649372962 7.15302
142.078976743324 3.84041
143.085420550826 59.0316
143.292963517935 1.15618
144.090709903438 1.34081
145.064376677881 16.5261
145.100428523142 23.8028
146.099153667283 1.94387
147.07953749336 39.4785
147.115228969244 31.3519
147.181566674361 2.38094
147.343959182612 1.1249
147.699434073629 1.20678
147.996981143357 1.0446
148.046083053756 2.74758
149.091725319808 7.68582
149.133487245288 5.42694
151.098469972691 2.74977
153.135589346507 1.04271
155.089852227712 6.5785
156.09390322726 2.97862
157.100723907748 76.2504
157.215625381254 1.48399
157.307363126133 1.27987
159.100416766208 21.0071
159.195640239485 1.01681
161.096816706433 34.0892
161.1315280146 20.4529
163.077878442671 7.34416
163.14916271735 4.46454
165.1146087107 9.07478
166.071734152257 1.39255
167.087089368751 5.69359
167.136472107224 2.91937
169.04511815653 1.8702
169.100432771106 6.62815
170.106275908254 4.10563
171.114327702053 36.2735
171.806533081687 0.993304
173.119382753001 19.1222
174.091624844695 2.58602
174.140837893087 4.27856
175.107419952798 32.5467
177.092680371473 9.66624
177.196459719207 1.24103
179.108487880087 3.46245
180.076354209641 1.10181
180.867590151929 0.956919
181.098902887447 7.36689
183.076933069482 1.0915
183.114450356163 3.63057
185.110519295903 30.7148
187.145155170429 28.1884
187.216642790441 1.93953
187.710346448729 1.44003
188.152125549787 2.2858
189.092976085054 23.7317
189.159456101351 11.3828
191.114158314857 14.2243
192.145040819947 1.53916
193.082551709861 8.22462
193.121497891403 7.6199
195.063859304904 1.62047
195.117731306904 3.63029
196.120814797468 1.78506
197.040806982837 1.35427
197.130137763645 3.49189
198.098582544586 1.01639
199.120989516836 18.4806
199.202887026284 1.55364
201.162511115985 26.095
201.260970198011 0.978071
201.766834618871 1.08068
202.17126879568 1.11206
203.106486929068 35.3589
203.175279483897 16.2503
203.271229423615 1.3167
204.087000778393 6.43063
205.149393641328 3.95851
205.18800536242 1.27085
209.131605768423 2.78734
211.147796178863 28.1501
211.209472684806 2.51979
213.162909376225 70.3531
213.304593533403 1.09247
213.669845808453 0.971262
213.790906384106 1.13272
213.922550242222 1.27041
214.065468767493 0.947469
215.13920593634 3.51253
217.125882028785 11.9617
217.190755077321 4.34289
217.225084545307 1.69063
217.355867880936 1.02795
219.173700289123 3.52544
221.13506042887 2.5528
227.1791144777 39.4313
227.319554154901 1.26077
229.159174533837 9.16465
230.162214242503 1.45749
231.172149015453 34.0039
233.152343657304 1.53682
235.166696060217 0.932214
237.164162944303 14.6284
245.188550054809 34.4036
245.325837867768 0.948184
245.368955971969 1.13783
247.164410493903 12.2702
249.184074308076 2.04387
255.1729387418 33.2584
255.254935980145 1.75743
256.516905474894 0.940873
261.190074216041 1.2545
262.181325155069 2.23602
265.18431832954 1.85255
268.020959201449 6.79375
268.121364210708 1.24547
268.444257788328 1.3188
272.191220217243 1.40107
273.184412954053 100.0
273.334816058191 1.4657
273.440574376897 1.43458
275.092957085091 0.976293
277.128117864513 1.02221
289.178243881662 1.91638
291.050153520748 0.957777
291.196414929863 13.0452
291.286147299576 0.978753
308.139887858855 1.64546
309.1726210859 7.02463
309.314404466942 1.69351
309.981556830668 1.90253
310.98155683067 1.0e-13

>collision 40.0
39.0234004134605 1.92325
41.039537358531 19.5267
41.0844335343788 0.621147
43.0192772919216 5.07428
43.0552467501118 61.8271
43.1164028031782 0.995537
43.1363598999867 0.747169
43.2038612562348 0.655408
44.9970722779371 0.665733
48.8528079861364 0.601754
53.0401291205719 5.65196
55.0181623785895 17.5288
55.0549214772873 48.7605
55.107860460273 1.26071
55.1423098106036 0.65507
57.0340672716397 4.53492
57.0706864510429 8.80665
63.0214734900816 0.615544
65.0400554371421 6.44684
67.0551390949809 67.4269
67.1276400392819 1.10325
67.160364834567 0.605178
69.0700876636583 9.32064
71.0482406810324 4.53297
71.0864463573178 6.35607
72.4838380612457 0.571692
77.0396428239922 23.4446
78.0454082538717 1.54583
79.0550318092577 49.0322
79.1369040258508 0.853858
81.0322867760771 5.85034
81.0702032165825 22.1264
83.048686910877 11.897
83.0841993446604 2.62223
84.9588274977388 1.44112
85.0683199502856 0.787465
89.0412578045599 1.07845
91.054437994729 100.0
91.1723703736732 0.71586
91.1967508159496 0.621539
91.2678179266726 0.563033
91.3071636918137 0.604812
92.6688195515568 0.52277
93.0707655277146 30.6857
93.1402922328042 0.945677
93.5869674886697 0.509133
95.0477611981908 4.82417
95.085047576159 8.75451
97.0668295522543 0.664124
98.9802609969887 0.527695
99.085127650889 1.12737
103.054615308538 5.70483
104.064752174048 1.17645
105.069873040666 84.1966
105.152596153025 1.52934
105.188578726817 0.792645
105.227421011754 0.523262
105.329938549732 0.524719
105.462052040015 0.51323
107.047301571677 7.28639
107.085550420007 11.8805
107.138115642954 0.703997
109.061167045154 3.85222
109.10082920356 2.38825
115.053365686431 20.9006
115.180974813318 0.572714
116.060503845265 5.40844
117.069568447028 56.4961
117.167570152902 0.90055
118.078620486331 0.744791
118.459570198017 0.721093
119.086309788885 31.7351
121.066111548778 5.46943
121.101061831673 4.42972
123.04278583723 1.11914
123.080431649928 1.1424
123.109583952189 0.667227
125.054800142134 0.672332
127.054660845168 5.80696
127.32507953241 0.593988
128.061561793802 31.2934
129.070089767603 50.1051
129.152870784677 1.30314
129.222020407055 0.757405
129.404503215146 0.506495
130.075639822564 5.87584
131.084546998639 49.5646
131.179789416374 1.14009
131.741360228336 0.642694
132.05494446382 1.59594
132.087496991173 1.23521
133.064013681097 10.9206
133.100232516003 20.2201
133.682523939825 0.6065
134.09074922765 0.523249
135.079925831158 6.72874
137.093299514029 1.10856
138.530111598053 0.703457
139.067004382984 0.517066
141.070324204396 10.3894
141.177198263507 0.540295
142.076704491358 9.45337
143.084153035075 33.0566
144.054660437081 0.509133
144.08867933726 2.04828
144.913428252769 0.604812
145.096556517257 10.7936
145.169391964133 0.739515
147.092026212714 6.66991
148.022947495838 1.27422
148.089342417917 0.594089
149.11447075942 0.926243
151.072440972706 0.521695
152.060687988026 1.04413
153.076188631258 0.626651
154.076407969703 1.73499
155.083786606878 7.8356
156.093538975448 2.71774
157.100854913872 19.7116
158.108174302635 0.597885
159.080658304419 4.04946
159.115981777317 2.57294
161.094508741297 1.68101
161.133954327619 1.30104
163.074839772399 0.811295
164.07827872448 0.900037
165.071783717111 1.57422
165.118850800867 0.775922
166.072754192775 0.727385
167.087443310246 1.16373
168.093584912748 0.907875
169.100191126277 2.96487
170.112625495113 1.52891
171.114811855151 6.43671
173.110036050662 1.57931
174.102302747903 0.814882
175.106967235256 1.68948
175.148922022143 0.952217
177.081199026226 0.630355
180.088988669837 0.613871
181.104825116998 1.02099
183.11467146879 1.00645
185.092436876447 2.84645
185.126822903671 1.73105
187.144713341455 2.4817
187.18396904664 0.539691
189.1624519723 0.595504
189.690763257534 0.503928
201.159326341539 0.959859
203.107968638288 0.582169
213.161865879668 2.08629
255.172704426723 0.523815
262.121986981808 0.622779
264.112553229156 0.521801
309.31589762548 0.636238
310.31589762548 1.0e-13

