>compound N-acetyl-LTE4
>formula C25H39NO6S
>parentmass 504.240951221275
>charge 1

>ms1peaks
55.253020457291 0.557738
60.2911633918052 0.516787
90.0896612094766 0.774144
133.106458093825 0.506286
143.682759004854 0.82907
186.017624103874 3.07178
240.867941899387 0.655492
341.202930982695 1.84032
409.146843431572 0.750811
426.223324286254 0.796368
426.304098106518 0.730411
465.149069991691 0.801533
499.995837973708 0.511444
503.267319984239 0.753072
503.350341890438 20.2676
503.409059752741 2.79674
503.443000484334 1.09924
503.476555176219 0.776747
503.552207295693 0.54995
503.646508653796 0.76768
503.696243752349 0.521735
503.778716423983 1.34332
503.861023624594 0.566865
503.919132713286 0.681441
504.127667179112 0.911385
504.234387632695 100.0
504.355578059184 11.6443
504.449321036338 3.17371
504.491072947848 1.74685
504.514399998193 1.59642
504.541626700954 1.54309
504.579185562032 1.37786
504.664793120474 1.37211
504.743134672722 0.710582
504.773045497397 1.1759
504.850295745862 1.93185
504.894262184988 0.989977
504.92921272125 1.10503
504.954221400615 1.27128
505.029273059219 1.63824
505.080562942501 0.92768
505.141081737266 0.906827
505.237733502853 1.35971
534.23773350285 1.0e-13

>collision 10.0
90.0893252436394 0.929965
108.036739367124 0.956959
133.086621099931 0.596801
133.987166473691 1.28254
139.019789572222 0.743683
152.026957879949 0.787575
186.023078493323 14.9076
186.057533886575 3.18127
186.11654167971 0.645855
189.156408196631 0.947686
189.174098729086 0.686439
230.028256249876 0.641311
232.587896054292 0.717719
333.952385312337 0.741829
341.206245014204 16.7201
341.291047983342 0.870824
341.316822406193 0.862962
341.347532957161 0.814422
342.215884423261 0.876642
342.247631502509 0.64127
426.132353429729 1.2778
426.231280388545 0.699527
465.388727351782 0.59439
486.23651267121 1.02204
503.362132145422 19.2064
503.460987493844 2.22549
503.494440079779 0.892049
504.097568373845 0.775211
504.240951221275 100.0
504.36556184097 11.109
504.451718459962 4.10509
504.505307468648 2.84865
504.565103625785 2.61302
504.604037546097 1.89729
504.640323754754 2.19666
504.667837641765 0.682853
504.756081606834 2.34111
504.916593770322 2.22893
505.037317527715 1.35106
505.123903063676 2.13858
534.12390306368 1.0e-13

>collision 20.0
77.0400803177816 1.35284
81.0720240980345 3.60396
87.0421617331615 4.74936
90.0895917497932 3.03075
91.0533665541214 1.62228
93.0704852291887 1.6338
95.0900253564195 1.68095
105.065316506898 4.25731
117.072446733624 2.52378
119.081713389411 2.08793
133.098662831844 3.48332
157.087810988749 3.72428
157.103722549018 1.54913
167.089423919394 1.44036
173.091369704098 1.34238
183.997387158837 1.50827
186.018082053606 65.3575
186.125858063609 1.61377
186.614048449918 2.37809
186.869873060644 2.1955
189.165520452965 6.5251
189.220451912041 1.45209
196.172301264692 1.66266
225.978450711447 1.79324
228.457525083893 2.04541
231.166804912931 1.4709
235.155020414718 1.44036
255.205864972083 1.27445
278.961727764845 3.15203
301.208559426648 1.78083
323.189431540277 1.65885
324.214610809123 1.65641
332.130769923257 1.86528
341.205797342269 60.0214
341.243481167498 7.6979
341.273342136697 4.37445
341.346498228215 1.54632
341.414554142998 1.35659
341.777815832775 1.51704
348.146080626518 1.51037
374.815778335944 1.50412
415.196804678697 1.23281
425.326858702305 1.29959
426.170181635109 1.2103
486.229892983732 3.53258
503.353818308628 50.6666
503.441155965032 6.54696
503.480766233845 2.53063
503.539720886703 1.30446
503.584166757004 1.65791
503.624669319706 1.62094
503.653846050474 1.8608
503.835902282999 1.34712
504.236425815214 100.0
504.351333717329 27.4342
504.433775486919 6.98179
504.470301086874 3.5739
504.51782867459 2.68507
504.581118213304 2.76551
504.646448242452 2.5292
504.676498308248 2.22316
504.738270916571 2.2147
504.805751270547 3.84839
504.849125384054 2.16429
504.894877122892 1.92079
504.93660750265 1.88331
505.152649473198 1.47787
505.225037438493 1.76432
534.22503743849 1.0e-13

>collision 40.0
55.0528212170666 15.4443
67.0542734040406 38.2353
69.0682970623373 6.92193
71.0852105677051 7.21844
77.041434686117 12.7489
81.066194949628 10.6752
87.0439786864073 19.02
90.095548380558 7.55461
91.057367615863 39.1311
93.069790049039 15.9308
99.0475614982243 14.4421
105.070085455852 42.758
105.084047581845 10.4257
107.087651202444 19.7548
108.044086140897 43.5256
109.065845554115 10.7306
109.097447121604 6.41453
113.068603162005 7.69744
117.067118709334 10.3787
117.497107206507 6.10759
119.084639253306 40.477
121.103387601149 7.36937
131.087363930678 14.7917
133.073036066205 6.80291
139.025209705211 33.1792
147.083517663484 6.16605
147.112118301029 7.18346
161.132028132322 10.2532
164.038101700604 9.30232
173.089519999697 6.17649
185.125691631333 7.53851
186.026260929223 51.4739
186.070121880956 7.51792
189.053577488219 9.93785
189.163071454494 8.74982
203.177093481468 8.59179
228.93299736395 6.33847
235.142899402988 10.4165
282.913194450976 14.7334
332.579403458546 12.7943
353.167929959606 19.4315
503.353193792094 100.0
503.52416064714 6.91692
503.713608718469 6.01362
504.368031210268 35.9347
504.426430984236 12.9505
504.470290538197 11.5958
504.507084647121 9.78153
533.50708464712 1.0e-13

