>compound 20-carboxy-LTB4
>formula C20H30O6
>parentmass 389.195332599002
>charge 1

>ms1peaks
55.0188744995138 0.532099
79.0242417417414 0.765271
105.071003898474 1.14143
121.064033259451 0.644791
138.962643442077 1.23116
146.054528652116 0.580753
230.958029161534 0.803295
231.97230757483 0.595062
232.11450669728 0.550916
233.037267763128 1.01857
256.955154438196 0.798658
308.953234936587 1.45123
309.974563569192 3.38967
310.942830204209 3.85496
311.964505619026 0.82246
312.967691389797 1.25518
313.063763668224 0.50191
313.960769199255 0.60385
334.042204538549 0.502399
350.261522910803 0.586868
350.757437912377 0.525992
351.625510614068 0.527464
352.141512404125 0.602039
353.055149009545 0.531177
353.173381063009 2.17541
371.187737688925 7.57392
372.194141431456 1.11163
372.911337058583 0.557783
382.405189182774 0.536938
388.003161579917 2.60447
388.076372508063 0.601559
388.252513023856 5.71467
388.400157708749 0.516471
388.58950191444 0.621263
388.96919920276 3.22118
389.192311214178 100.0
389.366602094671 1.77616
389.438453798706 1.17484
389.506620549308 0.876461
389.588216222576 1.39582
389.641504484866 0.820386
389.715037280962 1.17593
389.790659788279 0.677981
389.833265584906 0.589941
389.978169209788 1.26292
390.096019285234 0.557678
419.09601928523 1.0e-13

>collision 10.0
62.0179575110473 0.530938
69.0358327356495 0.825788
73.0666710274569 0.742378
80.0524850905424 0.516737
89.063737316855 1.91067
96.0499623670266 0.609732
105.068265064304 1.74069
106.073282456347 2.38041
119.046566671439 0.737832
121.065466792161 0.564302
122.063651110284 0.941324
128.022278057724 0.589056
133.086859979941 1.32493
136.972311100779 0.988186
139.130655128933 0.509074
148.073468002451 0.720233
150.941861940438 0.641547
177.115995291836 0.579725
206.951290811849 0.661469
211.956384184696 0.702262
214.993719899402 0.997168
215.993990747681 0.775688
216.981649121077 1.80769
218.034126053964 0.875989
221.134249063321 0.786795
230.961600251587 2.6995
231.946114073317 0.964829
232.114437840116 4.9246
232.958482729066 2.37823
233.001587954171 0.597416
233.0525216248 0.731801
233.962965579157 0.629124
234.989729050252 0.780551
246.023940541654 1.36001
249.999513231549 0.620891
256.965351603325 1.34725
257.046206590965 0.595035
267.943135355686 0.784394
272.056541214593 0.881186
272.125616461651 0.922705
275.1195753028 1.22209
280.131142218487 0.516367
284.848031702331 0.605533
285.560226488012 1.15265
289.107064938845 0.539239
305.920125535334 0.78779
308.97464237342 2.87119
309.979595721348 5.44268
310.218080131412 0.594422
310.96176471423 5.82635
311.062300039334 1.39657
311.098127202203 0.744389
311.214294953567 0.522909
311.610061535611 1.23526
312.028730584917 0.713202
312.988195703414 1.12686
313.757337678238 0.518486
313.986818279166 1.03799
316.389646843597 0.577071
322.399052056747 0.56365
350.776134471363 0.748471
353.172759126068 26.8542
354.17868694148 5.42219
354.930347936237 1.13931
355.185137620164 0.841009
355.283029379402 1.42953
355.603276937478 0.999386
356.284243391848 0.916829
371.184661827311 53.2795
371.324957354845 1.80026
371.43258887403 0.516241
371.570849298843 0.768544
371.730622764216 1.2113
371.842142308263 0.64324
371.974163252498 1.00886
372.079535094359 0.604313
372.191875065617 10.1323
372.298445853698 0.80705
373.200459142626 1.67069
374.069917289148 0.569754
376.800020789013 0.56423
387.975968564226 0.817194
388.245451960618 2.48777
388.911516975605 0.560333
389.195332599002 100.0
389.368149497555 2.18865
389.425364967539 1.40445
389.523864635794 1.07036
389.570279351649 0.886409
389.608823867726 0.80248
389.657718208887 1.08828
389.698429841378 0.876612
389.737714959441 0.719757
389.907338912825 2.05003
390.051849705622 1.21017
419.05184970562 1.0e-13

>collision 20.0
57.0300712432365 1.26251
57.0695763060031 3.35073
58.9604140468871 1.20986
61.0096818361084 4.33057
63.0213693226811 0.835157
71.0850932553093 1.54971
79.022800736318 3.40289
81.0719601926358 1.77383
83.0872058723771 2.38156
87.0425768349901 1.28886
89.0587521867225 10.0692
90.0913557476062 0.93744
93.0677772780802 0.814569
102.003418115673 0.793382
102.0901218225 2.44909
105.067064069598 9.14441
106.070919960454 1.62571
116.958659142213 1.6984
121.06535394879 1.64553
122.06512453852 2.06258
122.844263740255 1.18706
123.115560628647 0.892982
126.85790231955 0.794019
128.01586376162 1.92876
133.083395249696 11.0048
134.955366751414 2.8018
136.972931737231 15.9526
137.9820104628 0.813207
138.969252478593 5.39709
140.969815097919 1.68766
143.036431198313 0.911982
145.02392614346 1.28867
149.008424351497 1.8651
150.951429941847 1.44845
151.073266286436 1.17535
151.950251761375 0.912973
152.112529744747 0.87357
152.944617223908 3.99157
152.970305265789 1.06425
154.946594302646 1.78431
158.9401256685 1.25398
163.004732669291 0.857461
172.077201353059 1.09124
172.953928102218 1.39672
176.053189100249 1.50999
176.944277529611 3.17249
177.110264355321 0.815332
178.931632356777 1.19202
179.121649471169 1.19103
182.004902797067 2.05827
187.987633020599 1.4671
190.155681027924 0.984676
194.998102413963 1.01139
204.958263453237 2.00251
205.926845884652 0.976415
210.953670517534 1.86692
211.16627504273 0.87233
212.076968171763 1.05076
212.959388569858 1.3531
214.989842314586 3.05642
215.988516635699 0.863544
216.985113790368 5.6513
218.022239342563 3.53613
218.97451703238 1.81405
228.958683666336 1.28938
229.06611560673 1.8086
229.960373459772 1.09438
230.088495003465 0.796993
230.956890620447 7.21753
231.083209081241 0.814093
231.960642156292 2.41935
232.115967100077 11.4381
232.923947183782 9.96638
233.027376873037 2.81921
233.06910717343 1.07183
233.108136302045 2.49249
233.318695212358 1.1142
233.905091933684 1.13721
234.117907728754 1.48941
234.90473356243 2.4797
234.956199377696 3.355
235.043435664002 0.874809
246.02055615911 1.41451
246.919584213881 1.01111
249.995415495584 2.45442
266.965746169204 1.2961
275.122871550683 2.96989
276.894699728864 1.60836
285.161356806437 1.23122
286.200942911485 1.17302
291.186456951607 1.48841
291.86603993761 1.34877
293.032223983606 1.94929
293.462244441606 0.916112
299.199273689702 1.10157
308.046799616063 1.43141
309.97937843624 1.78448
310.943461617405 0.877963
311.17542922647 1.23811
311.245939685288 0.813079
313.052026403946 1.83512
314.241507360939 0.973487
320.541266992401 0.892864
330.883534727921 0.861356
349.895918752986 0.905649
353.16997577056 99.3035
353.277120689412 2.92213
353.305924067745 1.56623
353.339278102114 1.72495
353.408554436571 1.28124
353.528127822544 1.15315
353.604357545587 0.920833
353.685165485613 1.29264
353.802322394859 0.881181
354.081119365256 1.2054
354.172916906074 23.0527
354.272262667698 0.858081
354.315718201844 1.25383
355.165019021498 2.37548
355.308730579546 0.79468
371.180549807573 100.0
371.349725993775 2.64171
371.400534157186 1.19004
371.446265001791 0.953836
371.541909413163 1.08163
371.63110066483 1.03176
371.685680201608 0.81781
371.78234982099 1.3682
372.039474783232 0.793647
372.181127287209 17.095
372.315227790364 0.954466
372.925374860691 0.878939
373.080869254641 2.20313
373.187268514409 3.15866
373.252964770807 0.793028
375.530179700246 1.52713
384.73653897945 0.859113
389.191209542217 28.9908
389.309373697971 1.42993
389.471569155699 0.793303
418.4715691557 1.0e-13

>collision 40.0
57.0363771394275 8.58699
57.0678191165998 20.4417
58.9595382934134 17.8422
60.9599393730093 7.61473
61.011214239577 39.468
62.0190013087662 19.26
62.9558269310826 6.19686
63.9994472041143 4.8444
67.0574314888252 14.7034
69.0425761587675 5.3436
70.0658339012013 5.77487
71.0887304366597 6.1631
72.0665506066587 6.03186
72.938432198482 9.27894
76.9254984066836 8.44815
77.0336221628955 4.92481
83.0463602939935 9.29001
83.0804743230631 8.15769
83.6535175475016 4.75578
84.9412621902998 7.4586
89.0577745167705 8.62539
89.8934880605714 5.59272
90.0634085330924 14.4032
91.0570807413244 8.24479
93.0319400717425 8.03625
93.0704704413708 33.2103
97.0671669266973 13.8275
101.057360144578 7.55032
102.124075710874 8.36544
105.068368256025 40.9436
106.06874609704 11.6174
107.044591523868 12.2931
107.078792736249 11.9682
109.039717636218 5.94137
112.898745467409 5.19886
112.995225850807 5.20379
115.005975982054 8.98084
116.968533652653 7.39213
117.061879238431 7.24108
119.995664650288 26.5112
121.916429521842 9.74446
123.11265956802 12.7756
123.967093560937 5.81623
126.016625917825 10.2796
127.569389479465 8.98478
127.959668152386 7.94008
128.029080778663 16.6629
128.076399553036 4.88378
132.941529532612 12.6837
133.950885134002 8.16015
134.957823204454 47.8546
135.074155168521 8.98872
136.975150927402 100.0
137.971035855838 25.6182
138.014814692963 4.97464
138.966592209872 35.7558
139.022973042151 8.1544
140.009777563104 11.5941
140.970110040792 14.8286
143.016244874784 11.0805
143.851631972152 6.73489
145.048598401826 5.81918
148.953748999471 7.23115
149.016190110755 13.1892
150.9547722074 24.8317
151.953070164746 15.0136
152.947735848198 41.0353
153.999809840973 4.72624
155.034347238267 16.4521
155.952002743642 6.15888
159.9987433002 12.2038
165.981497092846 4.97732
169.966907315634 5.43517
170.023980030213 4.73116
171.295568515885 11.3696
171.991635201394 9.9251
176.055401510777 17.5155
189.007199570058 4.75282
204.008977944341 5.02163
204.79424891835 6.36565
211.907169073102 5.70103
214.915716080925 5.87006
216.894970551993 6.14525
230.953150839661 6.0998
231.944897722001 10.0433
232.1229825292 9.69013
232.878696770539 7.00496
233.129688706943 5.90944
233.932028617769 7.3109
281.006212580642 5.27271
312.937670155229 5.06594
331.738249726681 4.89714
360.73824972668 1.0e-13

