>compound Loperamide
>formula C29H33ClN2O2
>parentmass 477.230633820691
>charge 1

>ms1peaks
266.15340984689 4.03866
477.229787474754 100.0
477.50036504557 3.75284
478.222200821585 0.707475

>collision 10.0
210.127443838782 0.541581
266.153992040949 39.2663
266.361120925574 1.0367
477.230633820691 100.0
477.502389216068 4.39253
478.213906605591 0.58577

>collision 20.0
210.127006617781 1.82711
266.153543828636 100.0
266.358697773733 6.86317
267.155921976942 0.50574
477.228541472541 21.4128

>collision 40.0
72.0447108387102 6.92982
115.053596793371 1.21357
167.084511676185 0.523145
193.099988094159 0.661669
210.126964003183 37.7268
210.310914519348 1.27966
238.121702175582 4.44377
266.153675752114 100.0
266.359201273891 6.40562

