>compound 20-hydroxy LTB4
>formula C20H32O5
>parentmass 375.212355720883
>charge 1

>ms1peaks
234.214388666938 1.24995
326.367516549574 1.18281
339.193017435177 2.00271
357.200507552374 9.55514
357.267066008928 1.25989
374.209968644635 3.84362
374.249909650619 4.06711
374.268217947773 2.17911
374.323092947468 1.4593
374.995348639186 1.9095
375.058839790058 1.60769
375.221053354691 100.0
375.363007688438 2.72231
375.393192385748 2.28943
375.43157321579 1.74739
375.475508268979 3.00608
375.535768707718 3.23385
375.663518938953 2.36184
375.762548202205 1.59563
375.810196831419 1.71882
375.864884459711 1.40643
375.901260225159 1.60317
376.012824746548 1.57369
376.096234919834 1.71831
376.126152044735 1.21141
405.12615204474 1.0e-13

>collision 10.0
70.9734476787644 2.16755
139.036327914626 2.99445
140.953292811194 1.71208
339.194660828652 26.0505
357.199130127873 77.3852
357.258998818272 8.38461
357.292298929049 3.89889
357.347649779915 1.69944
357.389275054252 1.61771
374.227324082107 4.44904
374.296778735454 2.09171
375.212355720883 100.0
375.252928615373 21.0757
375.318880318832 4.55666
375.35929974251 1.74915
375.387905049395 2.33304
375.451116690031 2.57864
375.513239606418 1.86687
375.632793098669 3.03345
375.694646475961 2.21171
375.910700298035 1.81839
404.91070029804 1.0e-13

>collision 20.0
79.0259173237102 7.59179
230.085146783761 8.74788
295.198123640354 15.0338
314.212048693901 9.16445
339.192763425934 83.5607
339.253283059319 9.17895
340.628164162983 7.71338
357.201576100518 100.0
357.273941271118 8.07441
374.217176228634 31.8818
375.182938551918 10.9052
375.214767953837 37.2242
375.252198173735 15.7352
375.293038318661 12.605
375.817225677055 8.09625
404.81722567705 1.0e-13

>collision 40.0
123.001086326721 100.0
152.00108632672 1.0e-13

