>compound 12-oxo-LTB4
>formula C20H30O4
>parentmass 317.210273647463
>charge -1

>ms1peaks
74.0930181713966 0.689539
102.128057886622 100.0
102.221094655874 1.62013
102.248408995426 0.856878
102.277015135125 0.782444
102.375868904302 0.986187
102.511680270047 0.682338
102.644405831194 0.569797
102.784686956712 0.61728
193.972329595393 2.29114
234.999269507916 8.82725
276.026749697811 3.75934
316.885917976679 0.501312
317.238466742208 54.4958
317.391314976008 0.895924
317.445131885792 0.529048
317.797961408593 0.534671
317.897745784364 0.657544
318.89774578436 1.0e-13

>collision 10.0
55.0539141421819 0.855216
57.0704257659029 0.502092
69.0707243395946 3.42836
79.055328639293 0.506001
81.0364518361919 0.569029
93.0691525143761 0.793545
95.0495165494702 1.08438
95.0862784710852 0.861029
97.0639525704616 0.530956
102.127669422678 100.0
102.21911003016 1.76169
102.260388452665 0.742821
102.352727246031 0.564573
102.392783955044 0.550865
102.60849371752 0.504927
105.06921347732 0.707973
107.04926668998 1.12385
109.102187928132 0.891659
117.068978747123 0.983413
121.062753542182 1.36085
121.098468687306 0.810253
129.070052633165 0.754704
131.085521197191 0.859599
145.064724289521 2.37838
147.081565138174 1.27294
159.080491498392 5.42595
161.096896667425 1.69871
169.095941235472 0.592242
173.120874935985 0.855115
177.091383135555 0.61634
181.122661070134 0.511598
183.109397605576 0.54434
187.074686877159 3.41994
193.972346090246 5.75342
197.102069144818 0.519715
201.090758214864 1.31034
205.084220750223 1.86681
207.097082678167 0.642641
211.106273934128 0.546956
215.109374066193 1.20191
217.158176978826 1.02007
219.101417034904 1.22797
235.00019807428 2.64642
257.185156992386 0.787098
271.2052191555 0.827482
281.18955130453 1.96167
299.200230229994 3.37892
316.201390293063 0.718887
317.210273647463 48.5701
317.373661176078 0.931101
317.415658001047 0.538101
318.41565800105 1.0e-13

>collision 20.0
41.0387763465784 7.3288
43.0180061306081 1.34664
43.0548506991639 5.76735
45.0371119708565 0.6514
53.0387602668389 0.529214
55.0188336679264 5.96064
55.0548950273339 18.4274
57.0329882986755 0.623125
57.0723676359795 1.95626
58.0688384793435 0.804473
67.0550002884549 10.7506
67.0972067599324 0.54159
69.0344472130438 0.909421
69.070414951767 68.2409
69.1275619389097 1.45725
69.1475097292994 0.894963
69.1819702545235 0.521196
71.0484605528347 5.43023
71.0841611810377 1.18132
74.0939355825112 1.18695
77.038045144544 0.99847
79.054710157679 13.0407
81.0337953718423 9.07973
81.0701216398122 7.09642
83.0486947091228 3.04263
83.086893942082 1.78276
85.0278922737063 2.7961
85.0621007400736 0.596959
85.0974858376004 0.652351
87.044814347425 2.03116
91.0541768750805 14.6315
93.069309844997 13.8374
95.0499483773112 2.79744
95.0849767571901 7.22702
97.0273053447246 0.543444
97.0643174230317 2.68109
97.0996202256904 1.77505
99.0381188980335 0.653136
99.0762936798942 0.533211
99.985526211794 2.62839
102.127682002909 100.0
102.212567449902 1.4597
102.254894630156 0.699576
102.575937103786 0.528567
103.05489545827 1.70539
105.069997941693 12.9367
106.042415034356 0.693122
107.049118922827 11.5336
107.082454760348 3.8731
108.056707985478 0.590608
109.063139915011 0.982342
109.101156827651 1.82161
111.042911645205 1.33807
111.076642964162 0.616155
111.11640836284 0.590614
115.05261277455 1.51425
117.069661106064 23.7318
119.083837017313 10.9504
121.063767756061 12.8737
121.098041406263 5.58867
123.078742786204 1.45375
123.116530756277 0.923976
125.057957100846 0.758482
125.100787113451 0.643498
127.060771107272 1.11764
128.058788950948 2.23355
129.068995563473 7.54579
131.084189375407 14.6175
133.064194059615 8.43318
133.098434043241 7.52062
134.074298202417 0.504511
135.078015321418 3.00538
135.115940913638 4.32653
137.093562585475 0.962273
137.131921343678 0.672265
139.11128349591 2.24164
141.068541921243 8.70457
142.073520431291 0.510359
143.084378373258 8.37429
144.059178170111 1.46342
145.065685983221 35.097
145.17024318899 0.736775
146.071354116845 1.73529
147.079486693046 17.1643
149.065974822571 2.18176
149.132497650382 0.641045
151.076883114849 0.842585
152.947210359066 1.61395
154.072774523248 0.893181
155.084863263682 4.56415
157.094593192769 2.92963
158.071867032979 0.660965
159.080311381519 68.0687
159.198041092619 1.2142
159.232391891343 0.563323
159.344986747561 0.534502
160.091557047167 1.33499
161.095758823949 10.4953
161.344763836685 0.527798
163.071106735215 2.18045
163.10635920201 1.19242
163.142817605097 0.82583
164.024958153447 0.821218
165.086037647863 2.14511
165.122230185896 1.93125
167.081499868105 1.18616
167.140344161383 0.526203
168.091051973289 0.544632
169.097659642988 6.98876
170.073698586141 0.711098
171.091941807511 3.53689
173.098526598886 4.20144
175.07542949946 2.05695
175.109021866497 1.11244
175.146711311434 0.910904
177.091164552165 2.35435
179.102829436344 0.945735
181.118199664744 1.81747
183.109621833079 2.62724
185.096956485495 1.48063
187.076061536429 20.5334
187.187036947522 0.642953
189.08839320882 2.73525
189.126896126271 2.21232
191.142904734225 4.13733
193.092201834773 1.44028
193.973705321477 1.71368
197.10589730208 3.06951
199.139089280661 1.53282
200.119878915828 0.535042
201.0975744684 4.64719
203.141772357967 1.1802
205.08498801077 6.66162
205.159440051953 1.46319
206.092242650848 1.83027
207.106302691878 2.41946
209.131842039629 0.502362
211.11296693911 1.92689
213.162605507639 1.14735
215.119709599171 2.82143
217.158467830781 7.56038
219.106653225836 3.74016
221.12722479557 1.01252
225.132916445012 1.47363
227.17912348734 0.776133
229.192231677838 0.743563
233.130905342219 0.811838
235.167697674065 0.683032
239.177950358936 1.62523
247.132881466889 0.701113
253.190229779995 1.40167
255.171325109867 0.862396
257.188451919165 3.33392
271.207555947448 2.27313
281.190217984799 1.86808
289.21466339241 1.47823
299.199083261308 4.01891
316.190100823608 0.658166
317.209417015119 15.4753
318.20941701512 1.0e-13

>collision 40.0
29.0370881813162 0.524211
39.0238411687264 1.47041
41.0394242832428 41.0897
41.0972141398719 0.991141
43.0188176674859 8.58286
43.0550131930404 9.78444
44.0495715026841 0.805759
45.0346386606152 1.57092
46.0653368476452 1.66077
51.0239324210517 1.2406
53.0397129732369 5.26829
55.0186169597246 26.9361
55.0548041299329 56.79
55.1211447353156 1.18813
55.1443532634123 0.743464
57.0345070228363 2.17515
57.0697720661197 4.36253
58.065771608787 4.60139
58.9609857927294 5.39067
59.0522474735173 1.01066
65.0389248528092 4.31392
67.0549148126804 25.1676
67.1002139142391 0.751401
68.9962854707649 1.14479
69.0340463118479 1.91554
69.0702962277599 57.19
69.1471427558958 1.04036
69.1689205082326 0.568752
70.0636323753064 0.533369
71.0492967752963 8.81699
71.0799092562737 1.52383
72.0807528170738 1.83034
74.0976335945499 5.36777
77.0388542391692 27.6674
78.0467424670854 2.2177
79.0544147656512 54.4629
79.13527816658 0.928403
81.034047739691 10.6225
81.0699962672013 13.7747
82.0447340226146 0.543262
83.0497451924504 4.23216
83.0845252625784 0.697824
85.029281307848 2.86048
85.062663854096 1.06749
87.0423089509317 0.546933
91.0542395668621 100.0
91.1383734398567 1.82636
91.1716503350664 0.879977
93.0698527348448 22.4469
93.1355422673771 0.559359
94.0412079000664 1.19744
95.0493765208767 4.29533
95.0848134746993 5.22846
97.0634803670874 2.63236
97.0980564114027 0.664199
99.9874732675165 1.37969
102.127422284291 62.5604
102.221460123823 1.13678
102.24671377755 0.591294
103.053880488947 10.3224
104.062828561258 1.62949
105.030226132577 1.66847
105.069509581322 56.5434
105.159516007939 0.88752
106.081212752283 0.696782
107.049317568954 25.5243
109.066351173715 1.23131
115.053806878579 31.8592
116.061500104871 7.28001
117.069871837269 82.256
117.16750115426 1.42932
117.211364902611 0.687133
118.074506752364 1.73579
119.047857627469 7.25896
119.084513901692 15.3309
120.057183784383 1.9915
121.06305992626 8.86717
127.054514783447 13.3055
128.061881362447 11.9905
129.069788832014 21.4751
130.077269232864 3.68022
131.083126412024 31.3737
132.056872351135 1.79686
132.092817868778 0.697568
133.064498373485 10.7277
133.097207489299 3.41069
134.070176600739 0.720987
135.080826536098 0.905366
141.068764363268 20.4421
142.075420718893 2.50137
143.083201943583 6.65313
144.056331618431 9.61465
145.065367024642 17.6526
145.096363240592 7.59662
146.07361792668 2.70107
147.079853700248 5.79861
149.05775297436 0.758762
149.093820798481 0.670278
152.061218094204 0.609206
153.06935927201 3.77293
154.077429945161 2.69369
155.084858490476 9.61999
156.089079442771 0.502283
157.063933942274 2.0652
157.102377445195 1.07332
158.070875490544 1.54014
158.105869157081 0.750161
159.079638092608 26.6939
159.177720659192 0.730442
161.090632127513 0.575847
165.069810903278 1.23327
167.085277461014 1.61146
168.094992498706 0.745863
169.100272475947 3.18401
173.100507785982 1.61314
178.07646599031 0.958475
182.104071818848 0.726655
185.092423433336 0.642139
186.09913090808 0.588489
187.074272803303 1.1489
187.113198963735 0.719123
187.145886548977 0.616936
197.09288232412 0.564318
198.09288232412 1.0e-13

