>compound 11-dehydro TXB2
>formula C20H32O6
>parentmass 369.227435015389
>charge 1

>ms1peaks
27.3923487567067 0.993515
42.2885606102914 1.04528
43.3750705347734 1.04083
56.7831831839725 1.37974
79.0235898336476 1.07461
95.0498689010338 1.61065
99.082691359726 1.53838
105.063986511127 1.26415
111.746395481027 1.04197
117.903818773351 1.14106
133.070527260596 2.33332
139.114974179875 1.44728
142.956539544407 1.43446
149.101881613803 1.85844
154.501006622986 1.04984
155.089759618163 1.95756
165.953965829998 1.01595
171.10940363833 2.35445
174.292721830507 1.00531
174.561602641836 0.994653
178.606365501921 1.04338
180.307851233049 1.00009
187.148718141711 1.29139
194.980956407993 1.40143
199.10684115061 2.22187
203.109696444273 1.02394
203.185482277525 1.5364
212.965731673582 1.1004
217.123816364234 4.25013
219.104532754848 1.44029
227.176966695949 1.22096
229.69421168749 1.041
235.133309831504 3.47529
242.801848051841 1.02318
243.091183373417 2.56648
253.137946435286 3.22362
263.204585815265 5.952
264.314942433766 1.04101
269.197499734099 2.57131
270.477952344674 1.2531
273.190329102164 1.90813
290.592313770551 1.01
291.004688102092 3.32971
291.110680391662 1.46321
291.15985020715 2.52782
294.487493657309 1.11541
297.187900831017 4.59597
310.823398549121 1.14679
312.192263711328 1.04545
315.198557305829 4.38592
315.336605492174 1.18178
315.769754369341 1.04471
322.912113062717 2.23323
329.402564523154 1.9551
329.680899777821 1.96903
330.084303965037 1.16969
333.205689161113 27.7813
333.314472143643 1.48402
333.536800325043 2.67411
340.012907936206 1.0784
351.217227153719 31.2134
351.349494224241 1.20132
351.739780464403 1.06956
352.23220076271 1.13675
360.191365183169 1.01905
366.642365301011 0.99506
368.423824528354 5.7043
368.984883671685 3.43085
369.043003115638 1.83458
369.227435015389 100.0
369.422483417556 4.40907
369.522949739654 1.31853
369.604377029729 1.02111
369.69610766989 1.62385
369.826247155735 2.05675
369.907999037344 1.97274

>collision 10.0
69.045476985793 7.0608
71.0871354792704 3.47043
91.050128708048 4.50959
93.0722545819542 3.88306
95.0881306545067 2.40198
99.0833288217423 15.8293
111.11353549802 2.21461
121.059834488592 6.39811
131.093617379969 2.60038
133.0680759812 9.09994
137.058202288363 3.09991
139.077075713586 2.2699
139.129200035285 3.35825
151.07263913196 4.71622
157.09919038274 2.48114
159.078212467856 5.12647
161.061415377554 2.42238
161.132787639292 7.31123
162.434857266342 3.06012
165.070082769899 2.78887
171.117445834931 14.8594
175.095496373461 5.89754
177.090531507019 4.73985
189.12526977409 9.19668
191.138148672224 2.49839
195.139399176359 4.6692
199.111971608958 12.1735
200.933655791589 2.51158
201.113703723854 5.03016
203.153872950027 3.54471
205.135020382569 3.17136
212.960768803747 5.33502
217.121567287112 27.687
219.119438066407 6.27644
221.080381078243 3.58472
227.108948247398 8.42455
231.138461051222 2.3489
235.136944905933 19.2953
236.143277188325 4.05436
237.153958450936 3.90202
248.047436907853 2.53159
249.143615910757 12.3856
253.184793023471 3.1599
255.165393761392 6.37507
261.623603061749 2.29463
263.197603562654 9.36855
269.179582277601 2.79136
271.195025737709 2.59562
273.190959919038 4.39423
279.160323811289 3.76387
281.204634940875 4.63738
290.971129746625 12.4075
291.19749413015 11.5683
291.831681308788 2.21831
297.185565553677 15.4112
309.20585696644 7.44077
315.198796636591 44.8356
315.283878218046 2.53434
319.173673092696 3.04754
333.208289699183 100.0
333.974007744816 2.85304
337.216967278811 2.43057
351.219032538818 38.5065
351.387101162873 2.32497
358.044193097965 3.3926
368.425269647876 11.8785
369.212668466352 16.0463
369.28986614149 4.07943

>collision 20.0
43.0133160564174 11.3855
43.0545564357453 43.8733
55.0151013964567 14.6483
55.0536400453958 12.3829
64.0023625068949 10.8635
67.0607349194473 11.5206
69.0346558236818 13.6027
69.0725645703431 39.7843
71.0872603062456 48.8595
79.0201488034331 24.1549
79.04952008558 25.9822
79.900408884101 22.7404
83.0494461039083 15.9345
85.031971207912 15.0385
85.061747976353 10.6645
87.0405630047762 14.3658
93.0734837440458 15.1751
95.0491862676536 24.9587
95.087273648682 12.0844
97.061166424133 13.4375
99.080648153001 88.3099
105.069817783919 60.1865
107.047549186886 15.0612
109.06573281825 18.788
117.079513465257 12.9326
119.046088322052 19.7013
119.084087656266 9.94282
121.059657816395 19.2858
121.094899495162 22.034
123.075065881851 63.9009
125.57221344026 16.7836
127.067736667988 11.7113
128.058832399914 9.08663
129.068133541901 30.0508
131.081037385529 43.1036
133.0621064551 99.6528
133.098653107051 39.5997
135.077175949885 32.5836
139.074312460622 48.3389
139.109091068001 31.6568
143.08565561986 17.9774
145.100871856713 26.7973
147.117443990401 19.2338
149.095773024986 25.1889
151.072165857129 23.6915
153.065875255726 11.8117
155.083828111036 30.29
157.057341145464 11.7251
157.097865836874 34.0321
159.077490653363 50.0857
161.095884253326 45.2963
161.134876026028 17.563
163.074287909873 18.392
163.121163356446 8.88409
165.124308976019 14.8191
169.096416375106 11.333
171.114954304222 46.1392
173.091630323713 26.0999
175.109105031539 70.1972
177.090890713237 51.2726
179.135618158952 9.54611
179.963650965314 11.7646
181.101036213689 11.7678
185.090817027676 23.2997
186.964344997905 16.2994
187.11130108864 16.7844
189.124937189379 23.8628
191.101891909926 56.4964
193.118117084383 11.7381
195.110627256944 19.6117
199.110271441579 74.3463
201.088347523281 46.2508
201.124336659074 22.8311
203.070427330193 18.4804
203.176276142327 22.575
207.1406853608 26.3196
212.956833071176 96.8227
213.002480602802 20.0979
213.163561959676 17.4828
217.119891410953 85.0909
219.093342968829 29.0066
221.080346858709 12.8378
223.146166101336 9.25806
225.156763079053 9.06822
227.177733858232 17.1606
231.123511454429 14.8921
235.123157292049 19.1013
245.182319103547 22.3621
249.149306917874 46.0547
251.181396168444 16.9702
255.166362105094 12.2388
262.28588004707 10.2052
263.204729650455 11.3667
269.188782143171 38.7921
273.176036852192 40.1694
285.485603949547 10.1649
290.928392373974 10.1164
291.187481236832 28.4355
295.661655600866 12.0847
297.177271524421 69.235
315.192934683019 100.0
333.206825656795 73.8275
347.151741301162 10.9271
368.41482738063 15.567
369.439769028222 10.6071

>collision 40.0
41.0361151434896 19.0955
43.0186863931037 10.2311
43.0547863297338 100.0
55.018424132877 32.3321
55.0543032421174 28.1675
57.0367725562332 6.46056
60.0830596503185 16.9526
61.0072279305806 8.53256
67.0545087555888 28.0936
69.0309003603304 11.9507
69.0683845540887 36.6527
71.0892013797952 48.1044
77.0370316250625 14.4142
79.0202246459025 15.9586
79.0535850165395 44.4557
81.0703213567554 8.82154
85.0677972513932 10.0951
91.0551893797215 61.1822
93.0335396415291 14.9849
93.0703227421532 46.6598
95.0907917045779 10.4822
97.0665025070482 20.974
99.0783198320131 46.4132
99.1116691788372 6.71457
103.055938526351 5.88905
105.069425164632 49.2855
107.043152326971 7.89824
109.057270800646 12.5543
111.076766478035 6.32776
113.936383010354 7.01913
117.069224334643 34.4921
117.09713921408 8.56623
119.087706061627 9.64571
121.063028905211 13.4151
123.08234130276 12.79
127.054538143358 18.8127
128.055701570069 12.8121
128.558910478486 7.31651
129.066732904168 32.8102
131.084238213505 37.2852
133.098057908581 36.4864
134.942249116586 19.3415
135.045247888422 14.5449
141.071925806084 9.01114
142.068978687524 6.97741
143.088956292875 13.9997
149.084700659646 8.7756
153.042988121139 11.3632
157.102441395303 16.0078
159.081349049869 7.0017
161.095558558388 12.4027
165.067602694916 6.3657
171.109510140883 8.28678
175.067184288371 6.61609
177.083985603888 10.8155
181.063814520844 8.39075
183.086601057273 11.4522
185.082890760969 6.37083
185.124011063909 17.1367
188.987354211617 8.00392
191.100618710665 6.44527
193.081656590688 7.44759
203.067449596709 5.81167
208.056726685089 7.0642
217.132398168242 13.9692
227.172463622639 6.52445
237.137250610154 6.9382
247.048099619083 8.32844
263.468922389651 9.08292
320.939554265046 9.65304

