>compound 5(S),14(R)-Lipoxin B4
>formula C20H32O5
>parentmass 375.21319355399
>charge 1

>ms1peaks
357.203752608978 5.28437
374.306114264253 1.38687
375.213484681662 100.0
375.382372024008 1.75728
375.441393254781 1.04379
375.492814897541 0.80154
375.625290835394 0.704788
375.932863575133 0.743142
404.93286357513 1.0e-13

>collision 10.0
257.116894324368 0.687425
279.149457724032 0.732028
339.192830520077 2.32427
357.202133157597 43.9061
375.21319355399 100.0
375.446328927768 0.86879
375.530776906058 0.688344
375.65155197319 0.723064
375.743561894575 0.539093
375.913722709342 0.564185
404.91372270934 1.0e-13

>collision 20.0
213.142589223662 0.562541
257.115740659255 1.49627
279.155005635163 3.45788
339.191948846146 9.37984
357.202042621335 100.0
357.367566680864 1.49954
357.468712473908 0.768032
357.565613833201 0.777679
357.644678225798 0.733929
358.026947929723 0.504593
358.246048648063 0.590819
358.326674942433 0.562312
375.214967942813 34.7191
404.21496794281 1.0e-13

>collision 40.0
67.0534418073359 100.0
69.0684738355831 51.0204
77.0355073528616 26.6928
81.0678377091803 21.8133
91.0551068800761 27.9014
93.0719984825381 50.006
105.07169229696 54.5486
105.099889148586 18.7803
117.067575721822 30.5549
119.086259175421 45.8802
121.048848660884 31.8646
130.649106294531 21.2259
154.67598833454 28.1369
183.67598833454 1.0e-13

