>compound 5(S)-HpETE
>formula C20H32O4
>parentmass 319.226865371123
>charge -1

>ms1peaks
87.0438909451151 0.636549
93.0685107180782 0.616406
101.058300205602 0.625383
102.128784221192 5.29309
103.131213794647 6.99085
117.069460747255 0.585516
119.086452958896 1.18555
123.117226117113 0.510879
125.059980375239 0.91534
129.057697925324 0.97286
133.101948984785 0.563716
139.075349691447 1.4133
151.082078786337 0.779393
155.071013518368 0.818362
187.147918476484 0.847699
189.160555908142 5.52199
201.164907155342 0.512419
203.178767364127 6.65495
205.193325884681 0.917989
217.146005854526 0.75899
219.141205034955 0.651329
221.186439592939 1.83924
227.142052665326 0.557714
241.196075509999 0.84562
245.158767107944 0.508777
253.179607938442 0.58678
255.203877802298 1.76023
259.164915635875 0.792974
265.194482183851 2.77587
283.202026296177 6.68422
301.215412505821 29.4669
318.24396373459 6.32803
319.225612913999 100.0
319.382501084513 1.46667
319.438253071675 1.19934
319.516213853001 0.670068
319.67912999813 0.568168
319.798367884828 0.649101
319.979982849899 0.61683
320.119208241782 0.505645
320.219117485494 0.578086
321.21911748549 1.0e-13

>collision 10.0
43.0530949011755 1.02959
55.0264187577939 1.09993
55.0524623566065 1.58473
57.0698801265458 1.33878
57.0867585485354 0.736914
67.0537276214014 3.32445
69.0348542410445 1.08146
69.070044384293 2.01449
71.0472561958114 3.59861
71.0825196365286 3.2779
73.0628626824525 1.18466
79.053359078746 0.738204
81.0698849605385 3.9847
83.086709344386 3.07258
85.0585318436068 2.05377
85.100051715299 4.50418
87.0442303060496 6.65217
91.0563058073087 5.64264
93.0686054156629 1.48984
95.0865464925773 3.52095
97.0985300093977 3.82531
97.127870945155 1.04755
99.04326297942 4.00164
99.0808610303324 2.93583
101.0602339767 1.85937
102.127178929542 30.4272
103.131575284481 32.5889
103.1860847079 1.13239
104.148298936243 0.818707
105.03313775797 1.1945
105.071839583159 5.39594
107.043523592454 0.720507
107.085320025492 1.8334
109.066781905177 1.32426
109.099401186519 5.07023
111.045241570393 4.03543
111.079517161273 2.30917
113.058248208919 6.92624
113.089085426514 3.19452
115.039604485274 4.65555
117.069117358662 7.03321
119.084311312768 8.42947
121.100802516923 5.20222
123.077872602381 0.813022
123.117651452275 2.71162
125.057830664354 4.09096
125.095705201534 1.94127
127.070924743527 0.982449
128.065044625677 0.703577
129.057598510983 5.32793
131.08387166617 8.00119
133.100743165379 4.00574
135.11802251981 4.22617
137.057591035395 3.70314
137.09153917132 1.73108
137.141888709308 0.896679
139.07669302165 9.9548
143.083319148846 3.51454
145.096037806196 1.4034
147.080647841675 1.40204
147.117158949228 3.61765
149.10040184427 1.05911
151.077062178429 2.76497
151.142234518391 1.54329
153.12640798223 1.0952
155.069943239719 5.64069
157.090626930087 2.90226
159.116004422886 3.07573
159.142545706715 1.08343
161.129791262141 6.59879
163.147399354109 2.94424
163.742863645201 0.785429
165.162642812078 2.10195
169.097761106045 1.57656
171.117733607139 3.04655
173.135230016005 8.70461
173.185063021366 0.843955
174.11970444408 1.02393
175.143960304188 5.81033
177.093233229457 2.18393
177.159357867871 1.97719
179.118704717751 1.76082
181.098777995246 4.18166
183.114716484911 3.47116
185.132229563806 2.5377
187.14624063476 4.18703
189.163318862539 46.6581
189.265132292535 0.921655
190.194538157622 0.771677
191.162244998128 1.51162
193.116669877204 0.99183
195.115270308423 2.45855
199.140401144223 4.30166
201.149800681854 4.73488
203.17883175594 28.627
203.277559491538 0.790077
205.191743271225 3.88898
205.933553118121 0.874851
207.109027181979 1.26832
209.127383801462 2.98855
213.133412193389 4.65375
215.174853396843 1.27479
217.124736249415 4.23878
219.139458126046 3.98972
221.188397748548 4.3102
223.138866754992 1.82509
231.134522788019 2.63806
235.171388584348 5.1856
239.174431919178 4.42942
241.19282061269 5.22723
253.190968589522 3.05033
255.210060418022 14.1973
259.205061773881 1.64472
265.194702370487 14.9806
273.156438426177 0.972956
273.217345056798 5.59985
275.204504125506 1.23626
277.154046774898 0.854099
283.203606237477 34.5466
283.317015414997 0.958655
289.215148138656 1.00887
291.230413284476 1.92183
301.214919180742 100.0
301.369280384519 2.57683
301.495275043681 0.972264
301.619852266875 1.25905
301.678098499301 0.892809
301.815116884817 0.95526
301.885824441988 0.974347
301.967945959792 0.784758
302.72880694043 0.739111
302.912811940841 0.710277
304.096891390517 0.708402
304.772370398378 0.790861
318.661173898255 0.770279
319.226865371123 73.9267
319.388406164303 1.0635
319.429697113035 0.838162
319.478189016531 1.4505
319.887724587655 0.756167
319.938607719659 0.851129
320.93860771966 1.0e-13

>collision 20.0
41.0386963013253 3.16579
43.0179093980415 9.95766
43.05476615527 32.5055
45.0346120746101 4.45604
55.0562272646801 13.9833
57.0326028365015 3.17632
57.0699109820534 15.2569
58.0651512259423 2.60084
59.0630629954946 4.109
65.0377942148148 1.77274
67.0549261404068 23.719
69.070625792969 7.82338
71.0490083298809 32.8624
71.0856744884938 6.80645
73.0616756883192 5.36546
74.097966411518 4.78166
77.0382301282158 4.87773
79.0532280448596 21.2279
81.0323720153856 5.42391
81.0694260126317 24.2476
83.0474287823138 8.41473
83.084175369215 5.10075
85.0646219731275 10.6246
85.1003618418664 7.68054
87.044174362047 32.44
91.0531118115485 55.2532
93.0695480295275 24.568
93.114432311432 1.86824
95.0508061618622 2.31297
95.0851221810423 21.83
97.0628244386035 13.0889
97.1000879992928 4.20474
99.0440300406932 18.6507
101.060912779235 16.2008
102.127407445346 100.0
102.189400881299 3.50063
102.221168428527 2.80313
102.255627887156 2.06349
102.626025002129 2.25083
103.131358663599 60.4087
103.209366081691 1.9696
104.136671346067 5.43645
105.069806503877 46.3026
105.125141676322 2.03155
107.044947237258 5.2519
107.084202639065 12.8843
109.101431521515 21.5774
111.04453339302 17.2305
111.079706999504 16.9219
113.057975008663 14.9785
115.038046980648 22.9811
117.069963906923 55.9187
119.085444473575 58.2141
119.134947861004 2.76697
121.066198193041 4.04684
121.099982996019 13.8267
123.113264918215 15.1285
125.057016991293 5.49299
127.05769473111 2.0353
129.067415222186 26.1758
131.084343890345 39.5048
131.148772214556 1.65885
131.267131149086 1.7634
133.100889455775 37.6666
133.54001437401 1.78221
133.941808502356 1.73644
135.077921048369 8.19145
135.116811049621 16.9056
137.060495509254 5.97998
137.136141342439 8.49982
139.07572846644 28.6323
140.143189164497 1.85509
143.084730017584 15.2966
145.100624834413 8.23459
146.108976065122 2.76315
147.072887858827 1.81373
147.115992518403 24.7537
148.126088870477 1.82055
149.09167287435 11.6118
149.130402378714 3.64808
151.076822326586 4.33691
151.111024565758 3.38167
153.095796210477 1.78242
155.084788969768 8.89501
156.085673590756 3.21594
157.102686332898 12.5905
157.14718926354 1.73644
159.11401812354 7.46935
161.127658160527 12.2327
163.071229511015 3.96754
163.109571778525 3.50483
163.146864551608 5.53841
167.076910398233 5.53627
169.101393068161 10.6224
171.113438072887 23.4661
173.132091084735 12.2069
175.138342684793 8.96099
177.089973800919 8.45433
177.12570967743 2.57241
181.097531435275 11.915
183.115200453967 7.23102
185.130268496486 21.4009
187.140403466935 9.56669
189.161914588763 69.9493
191.131507987941 2.78372
194.342917521572 2.14424
195.115745841035 26.4736
197.135794373667 2.44073
199.119814146523 12.0051
201.145094719652 7.65149
203.17637170743 19.0374
203.229624650344 1.64909
205.189633006237 5.52025
207.13760926229 6.05958
209.132204155661 4.68412
210.375010404159 1.65803
213.15014806771 9.96441
217.142009748571 6.15155
218.170146277089 2.2472
219.135051938454 8.78369
219.175487003941 3.84107
221.153223138545 1.95069
223.14907414976 3.62257
227.17497166334 6.3081
231.164875461141 3.26747
233.150413886831 2.20307
237.154284825899 3.10999
239.183104122665 9.04691
241.194219255943 19.4065
241.405807730493 1.75326
241.461601120842 1.8157
243.171808969413 2.65428
245.169829016831 2.34045
255.206792139005 24.2684
259.196098930855 6.47209
265.190337856527 33.3509
270.438699366981 1.79604
273.214376997164 3.84841
277.174708367082 2.9164
283.204559418024 26.1759
301.212057513209 46.6395
319.106424417625 2.04326
319.231875591633 10.3811
320.23187559163 1.0e-13

>collision 40.0
41.039617819903 19.9647
43.0185655284512 11.023
43.0548763286161 35.4356
45.0354820671967 7.9048
46.0665045808053 3.98779
53.0396316347117 2.0794
55.0179458210987 20.2551
55.0550576498936 44.6941
55.1092550256758 1.55942
57.0699388624786 16.762
58.0666816906749 1.4569
59.0482694169625 1.84265
65.0385417802865 1.83727
67.0555441542117 38.2935
69.0343767876162 6.69951
69.0701971803282 10.1332
71.0508739997759 15.7828
73.0647426358193 4.09686
74.0887935902633 2.2102
75.098638763386 4.59706
77.0388297285216 17.7437
78.045920968518 2.0453
79.0543944614782 47.9714
79.1223040853928 1.48318
81.034659669256 5.63318
81.0705598915035 38.4141
83.0483462431906 9.4393
83.0787717129301 3.02198
85.0934032359881 2.54388
87.0428424935184 16.9307
91.0541073965403 100.0
91.1199196492783 2.47991
93.0704736117503 31.4526
95.0489238165048 8.39822
95.0848427862055 26.8577
97.0647034094412 15.3368
97.1109793349478 1.49733
101.061149541053 9.27014
102.128158980644 51.5841
103.05243896922 6.46139
103.129221140454 44.2176
103.184318076958 1.54695
103.34446315563 2.04891
103.647832060936 1.63306
104.133429534875 1.66072
105.069020082547 61.0162
107.049463405681 8.43402
107.084393741973 8.36409
109.096098825711 4.22784
111.045362655022 1.68307
111.081285694273 1.71052
113.06546344409 4.2427
115.05291158658 6.14998
117.069141945963 37.1465
117.684623261761 1.58021
119.086102652689 31.6341
121.064590305965 3.92145
121.090861240554 1.41214
123.085014075419 4.1599
123.115563479182 1.60707
125.036990026404 1.91112
127.054448487716 5.12118
128.06362347321 8.88673
129.07001751759 21.5504
129.113292469256 2.18962
130.073929376185 2.52058
131.085351783234 25.7203
131.161625740916 1.46112
133.100183358055 15.8915
135.080044057121 6.09265
135.114318623575 4.88791
137.057000550419 1.42468
137.095339911096 2.02985
139.073475044637 4.71297
141.067380252786 8.39394
142.077598806213 5.69328
143.083023122796 20.0851
144.093587407189 2.30348
145.099866995483 4.92456
145.135571427518 1.41698
147.077788377547 3.29601
147.108065669757 3.84786
151.110844136802 1.49011
153.065021149072 1.88933
155.082240730417 7.56042
156.095428442333 2.49138
157.099206645837 7.99814
159.112336179217 2.80706
161.094823255938 1.67514
165.069766790139 7.5171
166.074952432731 5.72672
167.086661187418 4.45889
169.093815545625 1.92919
170.105691472412 1.61487
171.113336313513 8.21749
172.075409269363 1.9414
175.140595621006 3.25039
178.165585067569 1.39135
179.08606825419 2.66834
181.098046590323 5.03268
183.107030015823 5.15192
185.144973215767 1.63653
195.114609675205 4.02188
197.097714612616 1.49581
199.11903044464 1.77947
227.171873185154 1.83727
241.189382122626 1.45336
252.688787928929 1.60681
300.054258095711 1.52878
319.316444962201 1.71753
320.3164449622 1.0e-13

