>compound 12-oxo-ETE
>formula C20H30O3
>parentmass 319.226524499585
>charge 1

>ms1peaks
67.0538854965771 0.505039
69.070260374874 2.10156
81.0687302616448 0.592364
83.0856719675651 0.790641
93.0711726067548 0.704122
95.086452787871 0.707543
107.050146713122 0.836186
111.118320135512 1.24138
119.083745649561 0.919919
121.102621243342 1.28452
135.115460948264 1.72884
137.133605667745 1.04904
139.111579630314 2.82308
143.085765604018 0.87998
145.101618686305 1.41239
147.080702679469 2.38511
155.142675067831 1.81838
161.095179965815 2.52074
163.111903501365 10.7499
165.090215099838 12.6661
167.141750439252 0.567882
175.146537302122 1.04293
179.10618151226 0.814198
181.11991026653 0.931778
183.112140363612 0.52731
189.090898771569 2.43449
189.160394918703 0.708303
191.143057697869 0.694938
207.101723469223 3.98722
217.157313584993 3.93477
253.179029576646 1.52802
265.196033148602 0.894623
283.205333595378 3.70575
301.216264122013 24.4156
318.190854117754 5.91671
319.227098925907 100.0
319.385428609225 1.63385
319.488821682208 0.781264
319.53475381385 0.822214
319.609294713051 0.55282
319.666886180234 0.67815
319.739791251917 0.61043
319.833335819418 0.604959
320.006228627344 0.531567
320.225030828077 0.509405

>collision 10.0
41.0402302222303 0.83744
43.019016473109 7.07886
43.0527934109546 0.798195
43.2239865018597 0.633295
55.0204006269674 2.40288
55.0550228979965 3.66604
57.0329676134131 1.50751
57.0692772161668 2.58967
59.04725716896 0.824108
67.054553555532 13.8672
69.0322107917144 1.05931
69.0701422210338 51.4021
69.1661742059712 0.644122
69.1976515548535 0.755016
71.0505730654353 3.88978
71.088609760384 1.05319
74.0956829365029 0.875449
77.0383835472379 1.61613
79.0542164481209 7.20607
80.6773873392837 0.98786
81.0316184307305 1.15573
81.0694755065056 8.75614
83.048071434913 0.847917
83.0857069850477 1.31684
85.0632598818257 2.3714
85.0989360021771 0.937533
87.04348866101 0.547448
91.0548996566743 5.74153
93.0320788468316 1.05647
93.0684957066408 8.93799
95.0491947558495 2.74079
95.0850367440334 4.2913
95.1459367503448 0.507384
97.0290278688332 1.00663
97.0637136509495 6.35574
97.0990832194484 4.86611
99.0460195174994 0.988406
99.079315574183 2.14532
101.059437200029 1.78052
105.03304685795 7.51738
105.069692077568 8.65706
107.049174496878 24.1519
107.083688095263 6.09046
107.144128527257 0.68797
109.101539043673 1.54009
109.13167452758 0.737317
111.042768206744 2.05047
111.076538775732 0.65472
111.116841580306 16.7495
111.168095104403 0.676634
113.060530486 4.15525
115.072175720997 0.791866
117.068713398268 5.09411
117.343957973994 0.697832
119.047078812585 1.90256
119.0849643457 15.3778
121.098295894822 12.8927
123.06907571883 3.35141
123.114330019356 2.16815
125.059515498188 1.99943
125.092820703688 0.851871
128.059261646822 1.1861
129.069115506579 3.91122
131.085353097275 3.53197
133.100021377221 11.1702
135.077659132567 2.73885
135.116643047814 16.093
135.209437342403 0.525923
137.121512128799 3.13259
138.100999534138 0.602652
139.111646741515 34.5076
139.217240418262 0.591037
140.11469155967 0.601055
141.052878098295 1.51339
141.084731826746 0.821308
141.121166846183 1.00894
143.08446306877 9.03633
145.100940613439 18.528
145.249498503178 0.644268
147.079483287455 44.5881
147.18896576088 0.835395
147.215805086968 0.706269
149.109070792073 1.37872
151.075499813077 1.76164
153.085568122445 1.34468
153.124501875754 1.00993
155.139105886566 1.06829
157.09122047246 2.65928
160.987243091141 0.78557
161.095238876116 55.1077
161.211834983486 1.34513
161.624177120628 0.575564
162.229769508835 0.620413
163.111397639338 100.0
163.279609323727 0.887127
163.46928312317 0.665937
163.53458672849 0.823451
163.621464044082 0.500879
163.682820939853 0.544019
163.856267236249 0.646671
163.991935804988 0.579642
165.090602527633 40.7599
165.212032005152 0.773791
166.133198516997 0.629421
167.138216465339 2.32725
169.09350045219 1.80325
170.083468411223 0.703154
170.565389683192 0.85973
171.080071584041 8.92582
171.162521310619 0.521898
173.103270662849 2.81099
175.147566319599 8.53149
177.151388256684 0.987694
179.104645166052 20.8018
181.120709313654 5.78274
181.483124152239 0.507384
183.104826123837 2.7954
185.116054888152 2.59659
187.106689201629 3.52753
187.147066583647 3.49662
189.090587767972 20.6909
189.161884215194 6.05517
191.141896363118 13.1599
193.125596128793 1.09052
195.113545819727 1.96651
197.412621887939 0.519364
199.126481734441 4.71143
201.125429905088 2.3014
201.158849441691 0.885276
203.105786816212 3.61493
203.14186698499 1.26944
205.15491643218 4.06192
207.100463238481 20.2021
207.462136182562 0.519215
209.126564600872 0.517311
211.144963040317 0.649148
213.123958961975 2.79777
213.161411585345 0.749226
215.139533088186 0.754002
217.00909843239 0.656372
217.157482200285 31.0833
217.28238462192 0.621462
217.68815566457 0.751989
219.158406387882 0.933782
221.148036386089 1.23506
225.106660023749 0.907559
225.169185904122 0.513097
227.137535867026 0.988044
231.21641821085 0.816101
235.169029972149 0.967323
239.159432581195 0.594347
241.129586940737 0.51138
241.193367826366 1.31421
243.176262020884 1.1165
245.16912448241 0.617155
253.179526698829 5.14268
255.211704732514 3.94607
259.206052282836 0.940802
265.191741906367 3.75835
265.234819134696 0.802611
266.152786622732 0.642844
273.219378684335 4.76826
277.173716168348 0.714372
277.996538905804 0.812363
278.206510507346 0.790673
283.145878860333 1.72067
283.20530001184 18.246
283.304899677752 0.802636
284.148341015624 0.553522
301.215512481461 54.3027
301.329784519853 1.65882
301.381121993827 0.794561
301.420365586265 0.594615
301.522678082016 0.779225
301.652588690988 0.839618
301.816479801126 0.607533
302.167595869858 0.981874
318.189971518578 7.35085
318.277044814647 2.13775
319.226524499585 35.2114
319.386467725279 0.770259
319.48260487684 0.626052

>collision 20.0
41.0387757267346 2.33418
43.0192301821777 10.6609
43.0542753878459 4.86996
55.0183030394015 11.9732
55.0552507279337 21.2628
57.0317137525323 2.23766
57.0704084487684 3.66194
59.0473692201845 1.75268
65.0388917437186 1.02671
67.0552696309888 18.0855
69.0328872640386 1.73512
69.0704903846255 100.0
69.1269092959688 1.97164
69.1487830874582 1.61681
69.1726375091048 1.15539
69.2041126666152 0.51565
69.2717706397946 0.777608
69.7927494789567 0.560174
71.0493989253907 16.4476
71.0829703838146 2.46299
74.0960234252105 1.91872
77.0362300929411 1.20741
79.0549199657436 27.9421
79.1068538080447 0.704031
81.03656720147 1.92517
81.0699224858749 15.0731
83.0501238040231 7.894
83.0857511828418 2.44985
85.0302758519315 1.81149
85.0651904472162 5.35052
85.1499013010558 0.61329
87.0433567493726 0.733901
91.0541639205362 35.0215
91.1232985130275 0.650877
93.0700880959289 22.3603
93.144518780916 0.504998
95.0475068439409 7.79052
95.0847770668003 16.1379
95.8072919280676 0.517165
96.0536725574564 0.636562
97.0643533783814 10.6918
97.0963662923994 2.17209
97.139930309105 0.679104
99.0438533300996 2.86425
99.076446015391 0.843469
100.046656247261 0.637383
101.058425298061 3.68308
105.032668393377 15.735
105.069015129521 38.7812
105.167061493767 0.757303
105.184821464878 0.51545
105.209901123365 0.51259
105.341651360575 0.598899
107.048814590993 62.5271
107.081083815672 11.4622
107.172176689294 0.758636
107.270073114755 0.574643
108.474988378496 0.624926
109.027769511519 1.57754
109.062672164274 3.12682
109.100281379264 2.5655
111.043421814413 2.63092
111.080488890719 3.46821
111.116661285117 6.00238
113.060051441305 4.94879
115.071747437217 1.12426
117.069172839938 15.8492
119.047637265918 3.204
119.085985179411 44.0122
119.178397630488 0.764422
119.380368511642 0.507424
119.718819755121 0.554881
119.890299185765 0.624372
121.06336953938 11.1186
121.10000361965 15.7697
123.043878067944 1.16851
123.079711417938 5.02063
123.114086017729 3.38409
125.06373716143 1.08823
127.047998540653 1.65721
128.061540516338 5.49431
129.068983181412 6.37771
131.04871964814 1.6087
131.085697323646 8.60996
133.097415290832 24.4953
133.161431819411 1.10611
134.240960441016 0.569483
135.114229241528 11.9496
137.09685195617 1.34964
137.13923051713 0.765719
139.111398386736 8.23632
141.065019027349 1.57938
143.08513743745 26.034
145.090914610186 18.4444
146.07403391692 0.974692
147.079879403756 35.4587
147.166718485614 0.96711
147.569129931048 0.710641
147.990753458192 0.547717
149.097938132287 2.01579
149.126247432757 0.88235
151.109058449888 0.741339
153.07279489196 1.88705
155.083687597869 2.1217
155.151125688684 0.810555
157.097179748579 3.14892
157.542480740145 0.514063
158.097542707255 1.02339
159.11400146235 1.47385
160.690674536457 0.647022
161.095124792244 47.0862
161.213897865544 0.759867
161.243688332077 0.569711
161.33091898726 0.909526
162.146227032621 0.573955
163.11070597006 45.9741
163.190831816694 1.44607
163.230073326215 0.936476
163.594503056909 0.59709
164.465611769221 0.527306
165.090518732591 7.55394
166.573160734669 0.506683
167.074663415101 1.56001
169.083234830945 2.32429
171.079963841456 12.5933
173.094512993868 3.22065
173.129648222716 1.87989
174.076477730897 0.704014
175.146927422243 2.74533
177.088212213425 1.69666
177.161417026671 0.85857
179.105136345559 5.96327
180.312231333574 0.622008
181.115973386822 3.79021
183.119289366612 0.678999
185.093274161528 1.14389
185.127621676288 2.11804
187.108459256704 0.691711
187.1475650684 1.37364
189.090146890698 7.26166
189.162697683337 2.16196
191.01416023845 0.595664
191.142843439522 5.34341
191.65600607232 0.520978
193.150663243863 0.857605
195.143342030406 0.973885
197.090484790103 0.817126
197.131003234223 0.56725
199.113403300486 2.75222
201.124138365875 1.27111
201.159853626235 0.528334
203.101661513764 1.48112
203.135315592201 0.838932
205.057475333057 1.02775
205.156989639108 1.13897
207.103059144247 2.49569
211.151643176804 1.52235
213.137569443244 2.14045
215.147086995014 0.558956
217.158727906085 12.2941
218.174912759014 0.742313
221.13143490674 0.841588
223.142884534523 0.797086
225.111790914562 0.922511
233.158394528145 0.621894
237.178332088401 1.04577
241.19544228254 1.52989
247.163340073247 1.06244
255.212595270432 2.48383
257.186445760237 1.37276
265.194970854582 1.43498
268.121562414336 0.783816
273.211052774754 1.50207
283.203022289257 2.37443
301.216734613644 2.38477
302.167293854229 0.766647
319.076039811827 0.525677
319.164497127295 1.80105
319.224184349735 1.80313

>collision 40.0
34.1339648671939 0.940514
39.0236171840432 5.90173
41.0396801079459 37.3069
41.0991298765167 0.922667
41.1783041166398 0.594772
43.0187417213074 15.4625
43.0545245338997 10.736
45.0341524230434 3.11149
51.0232708529662 1.00178
53.0392831655149 5.5024
55.0183212700239 17.2274
55.054847646675 65.0879
55.1071667685777 1.24597
55.2642312254234 1.05264
55.3227321985265 0.72569
55.3465864495799 0.619784
55.5439982985908 0.649001
56.0575072425055 1.08184
57.0356415765402 3.33485
57.0719901488436 1.89631
65.0389083801476 6.11213
67.0545102989803 41.5406
67.1308466391672 0.831746
67.314936363008 0.805839
67.9289201088954 0.643253
68.996449196388 0.839524
69.0325372691188 1.24931
69.0701176241746 61.1834
69.1277935795821 1.40353
69.2307309151814 0.525707
70.0907422687067 0.896847
71.049954051658 18.7582
71.9292261903115 0.547101
73.0634899638065 1.0742
77.0386567544614 37.4834
77.119506559931 0.812913
77.3610488430349 0.571846
79.0541612073197 67.3641
79.1367657178626 0.851049
79.1610612387342 0.538597
79.2052866919848 0.629876
81.0333148843457 6.71717
81.0702341106631 12.3772
81.1146218411494 0.715368
82.0037825984464 0.674955
83.050421397131 7.58042
83.0808102626007 1.79862
85.0303563101804 2.23492
85.0654851167472 2.10529
91.0543877360032 100.0
91.1210270063603 1.77079
91.1458410635212 1.7683
91.2544758906343 0.747213
91.4927773477874 0.810564
91.5348369157042 0.571858
92.0579420897603 1.08014
92.1743375199447 0.928986
93.0355053308974 3.66202
93.0706184064131 21.3555
93.1401324908405 0.839261
95.050140881322 6.6748
95.0856208340824 6.11695
96.0545709272773 0.851336
97.0644855688538 8.05373
97.700313465869 0.542948
98.104158395501 0.547244
99.0450741494414 0.818903
99.905807118986 0.557503
100.966338955083 0.714207
102.044172610345 0.837529
103.056745787435 4.60035
105.033501167925 13.8795
105.069782867004 53.7617
105.153134193842 1.55012
105.266089361753 0.610969
105.392998168907 0.679285
105.589682286395 0.520667
107.048735984495 83.2185
107.140574323878 1.30958
107.172614143183 0.655599
107.217421180914 0.595408
107.247126031482 0.539721
107.368872940604 0.624483
107.499234014679 0.63838
107.555204854327 0.554109
109.064605970907 2.08702
109.102864270069 0.558291
111.049161179899 1.4228
115.054066951884 9.74438
116.060250825199 3.8112
117.068903293004 24.1295
117.170402687872 0.562034
118.079977251918 1.65424
119.085818750277 37.7481
119.155605959391 1.18341
119.183349250407 0.653443
120.057769243532 1.12745
121.064563531606 9.26537
123.082119597702 2.04065
125.097061347388 0.706604
127.053197647109 9.30812
127.113621008783 0.651255
127.370738074183 0.593154
127.641340849853 0.618075
128.0614578358 16.8722
129.070851237582 10.1184
129.134245657469 0.661746
129.267165459248 0.663107
130.078251975591 2.70729
131.047777150055 2.13359
131.083980636185 6.42617
132.057322343524 0.733569
133.063349046843 4.80268
133.098835998174 7.63305
135.041676517239 0.89389
135.080776530551 1.99402
135.113985651816 1.05436
141.078366172342 0.909698
142.078950138191 3.40108
143.084660877799 11.0398
144.055889596856 1.22524
145.064638282041 5.73422
145.10200666113 2.23809
147.077688117853 5.42665
152.060336112679 1.1441
152.146097492558 0.540593
153.069788197304 1.87708
154.07609728599 0.799735
156.083483864076 0.642557
156.449200426487 0.938859
157.102665248598 1.68712
161.093477473507 2.66398
163.114171364445 1.11349
165.068691977089 1.29695
169.098697112635 0.795588
170.111508663035 0.871532
171.076160266816 0.689777
174.529674404832 0.64153
177.955316838368 0.651599
183.079505161173 0.806619
187.068072853861 0.605196
200.120680339435 0.763177

