>compound 8(R)-HETE
>formula C20H32O3
>parentmass 303.230419595815
>charge -1

>ms1peaks
105.070062080421 0.928149
145.099813993924 0.551272
175.148071176458 0.727786
183.114849334288 0.832663
197.129551378142 0.567173
201.141029525279 0.972995
237.187928251785 0.534281
241.193908500749 0.61694
267.209921455306 2.92868
285.220015550828 4.14354
303.231420199085 100.0
303.385440712302 1.6121
303.439913876192 0.854451
303.513294147476 0.597249
303.617555688137 0.702391
303.810879665006 0.613075
304.81087966501 1.0e-13

>collision 10.0
41.0379994990012 0.514474
43.0548492614484 1.80647
55.0546771263977 2.64647
57.0706984140958 2.74462
67.0553332418378 3.42722
69.070890330337 4.68051
71.0842966081536 1.12132
79.0547872545293 2.43725
81.0694827838201 5.50832
83.05009960144 0.868686
83.0860074096085 1.1758
85.0646755045238 1.62424
85.10166441099 1.65151
91.0549089470833 6.9546
93.0693983485195 3.50326
95.084916028017 4.88301
97.066563054951 0.615393
101.0611597623 1.05001
103.053814588015 0.530216
105.069822808993 11.9595
107.085288165935 2.57858
109.063327596838 0.680472
109.099359677953 1.45007
111.117805959194 0.531861
117.068785238198 2.99143
119.085141876668 4.76352
121.101705902508 2.16875
123.088814203928 1.34676
129.065924312205 3.08013
131.084048143026 7.75724
133.101061798784 2.05437
135.079593823764 1.7458
135.115094296432 1.10362
137.132153032488 1.79494
141.07075076338 2.10645
143.083396124792 0.909982
145.100468184036 4.55105
147.113914815888 1.52776
149.100888428884 2.48976
151.148101585367 0.551354
153.084082512094 0.671966
155.088259800632 0.757317
157.100595950403 3.17387
159.112243221935 1.3674
161.123833786094 2.89824
163.149154108293 0.876014
167.105491629299 1.16231
169.100491693876 2.32138
171.113593976898 2.54118
173.124330930442 2.28234
175.145986956333 6.53487
177.093047168065 0.620792
179.105236388712 0.7284
181.11952975098 0.681058
183.115325270396 12.2864
185.132846066241 0.718514
187.125365672287 2.60437
189.161388514249 3.15449
191.107468083649 1.02623
193.124522816696 0.500743
197.13194671238 3.27116
199.147562904795 0.678838
201.15074279994 6.59906
203.178154566654 1.89385
205.12523455169 1.93095
215.148607859578 2.19751
217.159506509307 0.78648
219.1356010675 5.55821
225.157785259759 0.622281
233.151681891617 2.86266
237.18358440678 1.04311
239.176891145694 1.57061
241.193789880337 2.85316
243.209787946483 1.45323
247.165767664784 0.576302
257.199852478533 1.28746
261.18625207337 0.836948
267.209286295768 17.2303
285.220316789934 11.6389
302.983090379062 1.31951
303.230419595815 100.0
303.38317890338 1.66295
303.448367460299 0.856027
303.530553075176 0.780009
303.791747031532 0.645478
304.79174703153 1.0e-13

>collision 20.0
39.0223359564686 1.78704
41.0388720095316 7.65251
41.111833701036 0.829258
43.0206353115232 6.08184
43.0546168918489 29.6876
44.1013667262403 0.833725
45.0331225124587 3.22731
53.769405153883 0.917612
55.0190991194757 5.73387
55.0549940892922 43.8398
55.0976088740183 1.51683
55.1180536443281 0.972382
57.0342790321099 2.15438
57.0716299385149 12.0132
59.0495052509494 3.37756
67.0552351430894 51.1814
67.1013165211918 1.77981
67.1624994342038 0.871762
67.257130669993 0.930757
69.0335565938729 2.18154
69.0707448212379 47.0135
71.0507333464362 5.38151
71.0844800704619 4.613
73.0256562440605 0.99211
73.0636667274247 1.36201
77.0360844985605 6.06461
79.053990042768 36.8073
81.070079049214 56.3219
81.1558460227652 1.19687
83.0476564585975 6.03055
83.0834377528553 10.1596
85.0315489560223 2.96181
85.064958891326 3.70986
85.1009914554348 5.29117
86.0969347362828 2.8719
86.5021877563978 1.22121
87.0427038638324 3.0363
91.0543149818223 90.8011
91.1419907760419 1.51224
91.3154429570316 0.91011
91.3963869116715 1.48705
92.0592650349136 1.80907
92.4559470711004 0.864527
93.070085809234 63.4376
93.1600882042737 0.938019
93.1868641882615 0.882529
95.0488664450814 1.70763
95.08630494693 43.0254
97.0635865283156 1.7684
97.0973351483353 2.20307
99.0466562437403 1.06086
99.0817938890046 3.99289
101.058241056551 2.06898
102.044982459938 1.10508
102.447875861159 0.84982
103.053822380897 1.79103
105.026488379708 0.856382
105.069270225735 100.0
105.160081294024 1.70504
105.215653419845 1.0522
105.318272700616 1.16242
105.521390208076 0.82047
105.88388876698 0.86301
106.123187556244 0.889893
107.084122031931 23.2495
107.131598065343 0.951317
109.065894221281 1.96162
109.101622295563 12.1675
109.445566564472 1.23359
116.062922483146 1.11961
117.069394765476 37.2695
117.148642337729 1.46507
117.544659125696 1.01122
118.078841041995 1.52089
119.08599228448 67.272
119.226007959574 1.15555
119.460321660102 0.873122
121.064068655083 2.04286
121.101167843395 15.4738
121.936721252916 0.937086
123.089116414902 3.84904
127.06998023034 1.06732
129.070174721326 26.9307
129.171800186603 0.85055
130.077286172645 5.44083
131.085559351735 72.0416
131.183875620796 1.49649
131.218513908752 0.84936
132.090203582553 1.20832
133.100272909445 39.0535
133.191052375312 0.817105
134.111213381391 1.05781
135.079587008609 14.1944
135.115870157668 7.74543
137.132343127733 3.8224
141.070411253476 25.4462
141.179876059022 0.836721
141.665196632358 0.89664
142.073566321366 0.961007
143.084826900351 11.0834
145.100725433178 37.142
145.270277370029 0.897389
145.465550174511 1.03235
147.077197553946 5.38753
147.115109311206 10.58
149.093985734536 8.29364
149.129508062034 3.52414
151.150231786513 0.829258
154.07466962983 1.41322
155.085578663608 7.26794
156.100038023503 0.908006
156.241679888652 0.82029
157.099916101228 35.1768
157.437068404531 0.865458
159.116519424785 25.2826
159.412167854266 0.867055
161.128478619865 18.3941
163.080148246531 2.77403
165.113733690413 1.64803
165.981642871221 1.13549
167.105342745251 2.34737
168.089490068992 1.3736
169.100769060007 10.5124
171.116562582109 11.6054
173.115792247584 20.8286
175.145482496749 32.2027
176.001635677569 0.965846
177.091206506817 4.01637
177.160454561859 2.80315
179.095634542683 1.02277
183.116130701302 30.6556
183.751162353972 0.947263
185.134139034004 2.99409
187.109197819641 13.9363
187.145786791187 10.0859
189.163034667663 18.0982
189.287616729807 1.23826
191.106974092898 7.10474
191.158558255894 0.876324
197.133943706413 13.5102
199.143541704875 1.02724
201.138567911241 19.2774
201.245920327779 0.859471
202.171857228309 2.37012
203.180355552094 8.12152
204.071086518545 1.16811
204.11000904295 1.0924
205.118718394252 8.96006
205.154267340393 2.93254
209.129751599596 1.01317
211.147979008753 3.15503
213.161040472657 2.92885
215.136786363487 3.30662
217.156863794434 1.68225
219.142172777349 9.27211
223.172372226773 1.27443
225.168438188827 2.29369
229.15077246265 1.10012
231.170186236079 1.20073
232.14087290879 1.15462
233.155519365485 6.14785
234.215747680736 0.917089
237.179522638293 1.15277
239.174952222235 1.35655
241.195357903122 4.06491
243.112635428331 0.808914
243.209264130904 3.25219
247.17075171612 1.05664
257.223753485745 3.89781
261.1814824353 0.850203
267.208820054725 6.95994
275.199206859181 1.93937
285.219395843576 6.69452
302.991305662741 1.80098
303.229543255851 49.4572
303.385574268852 1.25635
304.38557426885 1.0e-13

>collision 40.0
29.0376476285998 0.962735
39.0244917931894 1.20479
41.0391945818967 23.6631
41.0990418561957 0.856987
43.0187344226712 2.6512
43.0553791301722 9.9181
45.0323111886607 1.83678
51.0218073038561 0.672364
53.0396595599603 0.886368
55.0185628223925 2.16146
55.0550045647585 28.6483
55.1105010436851 0.690896
57.0366454506646 1.76239
57.0710368759015 4.75775
59.0494591003715 2.02718
65.0396992003358 3.84572
67.0542745038184 34.8645
67.1076637878087 0.913509
67.1282271543099 0.623278
67.206269574045 0.501875
69.0703110866305 14.9032
71.0491498113763 3.43124
71.081266905547 0.989442
73.063741309124 1.42776
77.039576970702 19.3577
79.0544728598486 49.5582
79.1364528992654 0.975533
81.0694206125686 28.0231
81.131882401899 0.57657
83.0482897678531 2.46465
83.0881861154502 1.0155
85.0259149596548 1.89894
85.0651956565729 3.3491
86.1009120187562 0.552452
91.0544259114766 100.0
91.1374328502586 1.83119
91.1635161401714 1.06974
91.2082012752346 0.564244
91.2592610161755 0.532918
91.364169481844 0.750085
91.9900751494863 0.622272
92.0593461354698 0.865113
93.0699072579898 24.4638
93.1562225730914 0.644023
95.0846943785125 11.3162
97.0639576114175 0.921684
98.0593548196753 0.640008
102.131078285666 0.663772
103.05439873482 5.26245
104.062804333949 1.93861
105.069449803447 51.029
105.169376076518 0.911055
105.265780800109 0.541186
105.310016663225 0.53135
105.501576490138 0.530553
107.047267189696 0.567983
107.084562075502 5.25545
109.099820390318 0.578046
115.053551692211 5.24654
116.063057799163 2.85357
117.06898135462 28.0155
117.171484685923 0.730381
117.416301452392 0.555416
118.07798432446 1.40945
119.085392586913 17.1311
119.384035138205 0.661648
121.061658233761 0.652996
121.102889281688 2.56149
122.066693988139 0.612482
127.056649894522 1.54533
128.061672846348 3.83044
129.070641049882 9.7408
129.124962310015 0.732117
130.076717746004 2.57552
131.084456292945 21.2813
131.733447341628 0.54595
132.093748801464 0.895395
133.101708640995 5.1504
134.108061557945 0.640945
141.069493921762 5.1111
142.076787320233 1.50361
143.084998354305 4.83926
144.092166106214 0.709163
145.100193611677 11.0362
146.108817067451 0.536435
147.072294439603 0.50313
147.112121728895 1.31222
149.099576666688 1.23559
153.066081796793 1.00446
154.078588698087 0.937323
155.081436791437 6.06664
157.102840768528 1.55495
157.13566419373 0.609726
159.115618767222 5.4594
161.135073096689 1.03823
165.067354990989 0.691355
166.983921614338 0.619897
167.084560181113 1.09757
167.978962734685 0.728173
169.110460590036 0.925488
171.119781889693 0.50581
173.112073923155 0.995216
183.115814274706 1.18868
190.050682763813 0.7629
201.126517143343 1.23345
202.12651714334 1.0e-13

