>compound 16R-HETE
>formula C20H32O3
>parentmass 303.23128898371
>charge -1

>ms1peaks
175.147130820056 0.762354
189.162329743689 1.1656
201.134138052137 0.850984
247.170118269441 0.508351
257.18746866399 0.739705
267.209752477407 1.46953
285.221631025207 5.61449
303.23160513991 100.0
303.385469574251 1.7969
303.43484048088 0.970846
303.48234931122 0.617199
303.566880706442 0.577545
303.642288341945 0.566693
303.736508287099 0.56934
304.7365082871 1.0e-13

>collision 10.0
55.0556533095069 0.524191
67.0547741580349 1.54683
69.0699516914521 0.592285
79.0556661703198 1.05911
81.0708025882533 2.38754
83.0851501314489 0.632067
91.0539419818694 3.12084
93.069372420594 1.22484
95.086235190333 2.0744
105.069122796321 2.65823
107.084873800743 0.995851
109.102120851438 1.21996
117.069905223595 1.30595
119.085680202608 3.05786
121.101192255516 1.81454
123.115844843219 1.62504
129.069338548664 0.599659
131.084870744328 2.03451
133.100590710813 3.11297
135.114694199098 1.56188
137.129359158929 0.999352
141.072032902063 0.663037
143.087258430073 0.56777
145.100495702077 1.30394
147.115993320891 2.21305
149.126602318743 1.192
153.089254929177 0.737633
159.113359388811 1.12292
161.130026384126 2.16251
163.144904086772 1.06067
167.105473356514 1.08991
169.101093415708 1.25784
171.116681544966 0.920414
173.126094470258 1.05144
175.148174267406 4.01921
179.104274411636 0.844923
181.122383518713 0.761898
183.117359515383 2.58745
185.133594789997 0.569988
187.128176633053 1.54356
189.163497668846 5.3506
191.11054581611 0.700083
193.123274128491 0.511973
195.138916011619 0.552125
197.130442056112 1.08947
199.147732181301 0.594605
201.136269678046 4.96118
203.169830257876 0.655728
205.124467818726 0.997175
207.137882841045 1.00096
209.153576936573 0.815383
211.14961251699 0.902899
215.143010332752 1.76976
217.158489868729 0.936084
219.13544727739 1.51178
221.152219228905 1.56372
223.168167640473 1.31107
225.009509032877 0.549276
229.160781687475 0.905811
233.153756418056 2.11533
237.186558542598 0.761974
239.178896857051 1.28098
243.207941164859 2.07331
247.168512131111 2.62625
257.190057943775 3.60751
261.184282373316 1.33919
267.209527048256 4.60403
285.220139540079 11.8767
303.23128898371 100.0
303.386982645392 1.88632
303.429141632745 0.873102
303.491038520795 0.598697
303.588455149995 0.645777
303.731425635723 0.617582
304.029983988507 0.506788
305.02998398851 1.0e-13

>collision 20.0
39.0236131278998 1.20492
41.0401007068867 4.87147
43.0552981205194 5.85028
53.0373683746052 1.34781
55.0551992872288 20.0848
57.0712577324341 9.57219
65.0376445669066 0.541352
67.0550340859518 44.2336
67.1313312106422 1.01932
69.0347549572842 1.72594
69.0696688919196 25.2194
71.0493657555627 4.37302
71.0842127638266 3.95147
73.0279955553588 0.804555
73.0648263944622 1.19761
74.0550934050307 1.10362
77.0389515494687 4.37744
79.0545077422773 23.5938
81.0704092526241 48.2012
81.1520192417673 0.592263
81.3652070734693 0.754933
81.5151919244968 0.523467
83.0492756503202 2.36341
83.0855761312565 8.81877
85.0315233308128 0.585826
85.0653675699374 7.43268
85.0986663552513 2.60866
87.0426332917752 0.904079
91.0546975144028 78.7819
91.1378907469799 1.29362
91.1848624706305 1.18053
91.3705874941384 0.524215
91.4742900564442 0.78318
93.0700426559924 36.3384
93.1573864415419 0.51818
93.4692179364457 0.592206
95.0474255266786 0.986621
95.085865195783 40.8624
95.164686052012 0.926988
95.2002954100412 0.556386
97.0639524475247 5.13087
97.1002897009284 4.85074
99.0439083631012 0.911899
99.0728398776798 0.668581
101.059480848462 1.9376
105.06996075692 45.9509
105.158396290263 0.837126
105.196556535411 0.50351
107.085180716894 27.1567
109.101290630478 22.2589
111.080047046086 1.6757
111.114818480269 1.39104
113.061937757334 0.900846
115.074996424377 1.13619
117.069969920013 20.8608
119.084880951954 59.5033
119.178652958392 1.01757
119.212434113652 0.550365
119.581381580495 0.765226
120.272414932011 0.528798
121.100630923755 25.3406
121.197533169844 0.50878
123.115987618033 14.6414
123.176346800025 0.808555
125.089059123439 1.19418
126.955548314593 0.541313
127.071617494358 1.07829
128.061137350013 0.6917
129.069194904925 6.98586
131.084550130368 32.8471
132.096826967698 0.656361
133.100513036522 53.5891
133.198223821301 1.14911
133.234385089611 0.581671
133.364899946185 0.505087
134.103519648499 0.504368
135.079001099234 12.4493
135.116988223709 19.3431
135.218283436804 0.56549
137.132536410013 10.9038
139.08093925281 1.65091
141.070586123763 13.6252
143.085767610923 11.0741
145.099561762716 24.1877
146.118356027542 0.592646
146.995201554593 5.72157
147.115403612616 30.9685
147.217798033885 0.744629
147.369576977334 0.73682
149.094815724869 13.8477
149.133068537173 14.6796
149.198822282071 0.916667
151.133272738302 2.32796
153.090224657973 4.50153
155.083617226693 4.29182
157.099121498547 10.0188
159.116314327253 15.3895
161.131843898143 17.2937
161.245877943898 0.582694
161.330475458287 0.569885
161.683451124712 0.586286
163.070205132402 0.754718
163.145052541999 10.3139
165.090849462699 3.65196
165.135356080467 0.629819
167.105895696301 6.88199
169.100880777435 16.9686
170.661669423516 0.573435
171.118120006565 8.06467
173.131234247294 17.0687
173.198480795463 0.730123
174.854181132196 0.753198
175.145770830531 34.9933
175.27185917809 0.980923
177.145246538819 2.71439
177.21186007992 0.812346
179.106249981941 3.67452
181.119469248265 5.22622
183.116373288569 17.1465
183.222444516034 0.50408
185.1319083907 6.87249
187.133562907531 17.3361
187.24015619442 0.698089
188.062454727984 0.644703
189.048618553155 0.56048
189.162867265767 26.5887
189.493057435136 0.687721
191.125337466298 4.7439
191.174924543119 2.95954
193.123058570414 2.51749
193.153937977232 0.917546
195.136445520765 2.44031
196.131866653283 0.72928
197.131902229154 10.7899
199.149036092093 4.23263
201.132187684797 38.8773
201.287472796838 0.575021
201.346509736381 0.624057
201.874120264068 0.532985
202.176827522686 0.614017
202.761556975936 0.561682
203.163364626923 5.07386
205.122212572626 12.234
207.138580592213 7.5298
209.154710654819 2.79797
211.14663184836 7.9687
213.16187338421 4.3821
215.15111672558 6.79305
215.359915899254 0.666788
215.823101191631 0.511277
216.036424489624 1.4289
217.155424248823 3.57845
219.136428886944 15.1753
221.151650266284 18.0374
223.16613105052 5.24807
225.00861010005 1.61931
225.16381077083 3.39696
229.157410406282 8.41482
231.175255295023 2.58035
233.154588157026 9.69611
235.173679733626 1.01577
237.18294429106 2.88746
239.17842099988 7.21026
241.197479205584 5.7119
243.207916985911 10.829
244.134937837684 0.729682
245.146889036835 0.513903
247.165028959419 11.8073
249.183765774021 1.22295
257.187953639729 22.1832
257.326128501712 0.511179
261.184683241396 8.2546
265.186022665422 0.74202
267.211703533992 19.4906
267.323032778649 0.516858
271.156614694644 1.14223
275.197037664955 1.38619
283.196475186252 0.688137
285.221625850311 13.9351
286.985679810515 0.793173
302.11600723616 0.920411
302.998789406233 0.533476
303.231814268114 100.0
303.372275281692 1.79248
303.502628878062 0.942408
303.664903750782 0.721547
303.840629994418 0.666231
303.966704538707 0.814318
304.048937916532 0.676864
304.23065648099 0.786011
305.23065648099 1.0e-13

>collision 40.0
41.0396703781655 14.5781
43.0206845593691 2.58339
43.0549968631804 14.2352
45.0354204133066 1.26954
51.0241531569008 2.67889
53.0386614462455 0.985766
55.019976452203 3.15429
55.0549764862436 28.2417
57.0360257884227 0.714383
57.0695882444514 5.80368
59.0478230279888 1.65943
65.0400770701186 3.23859
66.6586818847742 0.509607
67.0550863412668 48.9297
67.1316808834505 0.920233
69.0705678695363 10.6124
71.0489475950775 4.65086
71.0852963163808 0.941619
77.0391890457793 16.1795
78.0484873116522 0.642136
79.0545945904614 48.0065
79.134897398596 0.58369
81.0699102627398 46.9764
81.132362736144 0.971914
81.1534440626368 0.586994
83.0497921732799 1.2638
83.0855855715692 3.03576
85.065627084988 2.16516
87.0456905551912 0.772897
91.0543924167037 100.0
91.1420762118155 1.6684
91.1767273449736 0.751408
91.2351026016524 0.528741
91.2674255038632 0.685716
91.5165112866553 0.680384
93.0694596620868 34.877
93.159118209416 0.764711
95.0856727241216 18.6342
97.0661842823055 1.32887
99.0796324244097 0.652567
103.006291605789 4.39625
103.054845386357 3.59254
104.065948514078 1.66354
105.069629662575 60.0511
105.159511140455 1.15715
105.441982633672 0.612046
107.047662015436 1.19447
107.085673211148 14.4133
109.061821879837 0.573721
109.100389483258 3.15745
115.056409613473 2.04575
115.083942945739 0.570072
116.060018861165 2.32042
117.069261885183 23.3423
117.140874856417 0.760508
118.075281510546 0.524556
119.085504290094 31.5194
119.159737353176 0.705684
119.186699293158 0.587579
119.666396654136 0.583903
121.062562521795 3.25915
121.100868150714 6.33123
127.053381234583 0.96554
128.062194206884 3.87343
129.069679125101 9.69
130.075410349847 1.27781
131.084806857641 23.9785
131.1855714072 0.535403
132.091331182998 0.592297
133.10092187346 18.602
133.178348802684 0.620616
135.102800186553 1.83963
141.069715615147 6.99092
142.080141132907 1.45829
143.0837580848 4.5452
144.098286659544 0.502579
145.100218361977 22.4315
146.106320265284 0.854397
146.994166046237 0.682721
147.115114417181 6.04047
149.096026358187 1.34099
149.132082705708 0.952791
153.069933618743 1.68237
154.078312794834 1.01132
155.085821298278 3.29138
156.0900981163 0.853381
157.098547374693 3.46458
158.106969329447 0.881635
159.116469904033 7.0751
160.084533842938 0.573721
161.135087684904 2.48594
161.181475208461 0.520651
167.088153347565 0.955859
168.092626907274 1.43754
169.101555329434 3.31358
171.11525880443 2.67247
173.131957268311 2.70804
174.105844603802 0.553997
175.143406053412 0.942
182.113257990906 0.993286
183.116083445377 1.63415
185.130159338526 0.967367
187.123937565687 1.15695
199.147550361081 0.662902
201.126431702306 2.55868
201.160356774091 0.694548
211.138343611212 0.75443
213.165523163762 0.583129
214.16552316376 1.0e-13

