>compound 19S-HETE
>formula C20H32O3
>parentmass 321.241563492394
>charge 1

>ms1peaks
85.0647411165419 1.83891
95.0861403890447 1.48737
97.065101209637 0.588051
99.0804946559666 2.85601
107.086552713473 0.561641
109.100017178853 0.937372
113.097545218066 1.97303
121.099928775243 1.35859
123.117172749589 0.888272
125.089064813097 0.626835
131.081062377831 0.824015
133.099621937637 1.02568
135.116278633953 1.90891
147.115241880145 0.835614
149.133024771567 2.52297
159.11249033039 0.726916
161.129868344978 1.09361
167.107224895238 2.06328
173.135137590355 1.002
175.106759837544 0.93244
175.146914280523 0.949155
181.125583400065 0.660435
183.112297105515 0.591336
185.137797911169 0.678608
189.145273170828 1.03517
193.122386702229 1.26574
197.132860917486 0.866284
201.163071951652 0.790137
203.148167509328 1.09039
207.13563885096 2.40343
211.14432181062 0.696114
215.14309174156 0.542308
219.15891713105 0.754585
221.15075660406 2.70748
233.152101832859 0.655192
239.173494117847 1.00797
247.168239458147 1.17183
261.184771255585 0.678154
267.209748859354 3.29701
285.222125071644 10.5337
286.204600638537 0.588457
303.231172699715 27.1722
320.219138840082 1.08267
321.241674153059 100.0
321.446208403869 1.08381
321.494132717469 0.755421
321.580872019429 0.767469
321.662296477871 0.778282
321.70043177207 0.613795
322.022444100029 0.55587
322.238856607742 0.503229

>collision 10.0
41.0393587446563 1.30286
43.0180680663174 5.35487
48.1707695327283 1.33215
55.0179534670132 1.61144
55.0528210512817 4.66269
67.0542890652924 10.7716
69.0704799005478 13.1993
71.0882984574591 1.1168
79.054273530069 5.63071
81.0698371812018 38.2634
81.6576974706536 1.08385
82.2198268232326 1.06407
83.0470117215945 1.75497
83.0848054169233 5.68689
85.065014866505 23.2949
87.0363844834493 1.55465
91.0542058391246 11.5485
93.0706326433989 16.7429
93.1116537300253 1.64296
95.0863947140958 34.0742
97.066046758951 4.36305
97.1010227047921 7.76567
98.0611058878041 1.71569
99.0799290074856 38.7647
101.05678002594 3.35018
105.069854848028 20.2124
107.084655380433 20.3123
107.133483948047 1.44549
109.056150664753 1.0037
109.100566115017 9.597
111.079915895476 7.71112
113.05807371701 2.92274
113.095660941979 11.6852
115.076721750716 2.39915
117.070322199726 8.34128
119.0840198856 15.2878
121.06143888013 5.09371
121.099732772315 25.9401
121.154399299104 1.45854
123.078617898095 4.70639
123.116279695764 11.3217
123.150906865212 2.00819
123.811854552102 1.45866
125.099742109701 4.767
129.069298664686 6.17863
131.084238270153 16.8178
133.100580613314 18.9418
135.116714421477 29.6134
137.091215967566 3.31202
137.13254127738 5.62781
139.075118790805 2.68184
139.116141907875 3.64144
141.07975545119 1.39018
143.083931849901 3.06797
145.099497905116 12.3068
145.495117565013 0.988094
147.077687636527 2.55325
147.115548506907 19.8078
149.096085360345 8.23454
149.13249190996 17.4754
149.197852755273 0.981149
151.10892660652 2.80308
153.090407362016 4.41915
157.097793294791 4.44133
159.115231379665 15.1656
160.224573604231 0.915182
161.132339750176 24.0532
163.135371841848 4.2446
165.123251428145 1.75752
165.16807969164 0.960192
167.103763553126 8.37479
168.092142725398 0.952212
169.100539919325 7.62749
171.11504663269 14.9703
173.133996179139 10.6721
175.145999157551 19.0797
177.130073698332 4.19352
179.103862426961 3.7655
181.11786467957 4.83865
183.116215368581 3.71634
185.131611583225 11.9512
187.145796133914 12.5157
189.139130055076 13.0168
191.134143437613 2.52193
193.125072495214 7.47576
195.136620959323 2.46154
197.128826304934 6.28008
199.147044231412 3.95751
201.163035374471 18.9081
203.146754793133 9.1201
205.13465573521 6.16146
205.199946542247 0.96916
206.018459077983 0.942009
207.05844928996 1.48182
207.136557466883 17.1467
207.219115175811 1.48032
209.159947888348 1.98299
210.197061647336 0.980998
211.144812419984 4.1717
213.163872153337 2.70248
215.137956286648 2.55164
215.176773624454 2.95593
219.15056304262 3.49583
221.150416825216 19.4618
223.166839480478 3.50691
225.164937538926 3.33549
227.175960331554 6.57291
227.224156857257 1.35287
229.158033976317 3.93728
233.15561671443 5.47072
235.165506341873 2.53516
239.176548517034 3.79769
241.189375973294 2.32709
243.166265582786 4.21754
243.212945161544 2.30904
247.17111993553 8.89051
247.917351226377 0.987326
249.178078844294 1.69144
251.165541280239 1.52943
257.1912115979 8.02189
259.200431908029 2.47967
261.178088346424 2.9603
267.2106760179 23.2298
275.228337016243 1.65658
279.187668195752 1.09805
285.220799380586 53.3216
285.763687069989 1.005
286.067761454525 1.46154
303.232353260846 100.0
303.360618331631 2.77004
303.544735775824 0.957095
303.641561570511 0.919897
303.8115949645 1.04124
304.018082808591 1.08372
304.849778927056 0.95852
320.220701142127 1.16354
321.012530201876 1.18892
321.241563492394 60.1018
321.333824427216 3.13746
321.423532705352 1.16767
321.466490373351 1.07151
322.182400648418 1.52855

>collision 20.0
41.038990874069 1.96337
43.0182178121366 17.0505
43.0563963171094 6.33219
55.0184578745009 6.67339
55.0557380004403 22.9411
55.0851047419823 1.61691
57.0330556182345 6.48529
57.0699393845668 7.55487
59.0510658065601 2.70981
64.0117811070057 1.63966
67.0550747814487 46.6134
69.0700574636996 29.2806
69.1064070216971 2.09312
69.5163296110407 1.6075
71.0509864492201 5.22545
71.086169517493 2.69426
77.037140524957 5.31515
79.0560057330027 31.4037
79.1116583157448 1.75495
79.139789376491 1.82337
81.0308714983826 2.84216
81.070358480636 100.0
81.1300028690586 2.23722
81.1518013884307 2.47637
83.048233499394 10.6494
83.0869285817584 19.0824
85.0637540458577 13.5149
85.0913233904385 3.98237
91.0551105280727 42.9391
93.0697533687038 90.3208
93.159367089953 2.52139
95.0442269838399 3.78349
95.085651840073 66.4198
97.0645613042982 12.0659
97.0980585964737 5.91686
99.0817640958931 18.7425
101.061661489319 2.77951
105.068977283328 67.2919
107.045099513689 2.12508
107.084443058107 60.5535
109.066692630421 2.63311
109.101371677561 24.3821
111.038045089201 1.53211
111.077263822538 13.4256
111.10828788429 2.51882
113.091771606195 6.2959
117.070848164243 23.9259
119.085364201985 52.8943
121.100939046981 57.7168
123.083589445932 7.27865
125.05537039822 2.31136
125.09427175283 15.525
127.081981762634 3.90532
129.067630415978 20.2091
131.085806058157 47.2681
131.548298056069 1.62225
133.10063241998 39.8943
135.114643595104 36.7722
135.188131726726 1.84128
135.464536798858 1.66879
137.091240805527 2.58454
139.10945728851 3.67406
143.085455225526 15.3726
144.087327738895 3.05449
145.100635182777 40.6977
145.16016832301 1.52611
145.669685697759 1.66843
147.115859977147 47.7679
147.229281495812 1.56287
149.12767082131 20.3305
151.112081477643 2.40083
151.9441483504 1.58826
153.085918182338 2.08392
155.073856934919 1.53787
157.10002516905 11.1237
159.11611361483 39.5036
160.124361191388 1.8632
161.131061495253 33.7413
161.234990624452 1.55486
163.112446788558 8.76949
163.145728531135 3.79157
165.129712678852 2.01292
167.105607639062 3.17211
169.100446238264 7.68935
171.115626072042 23.9497
173.131133168502 19.2324
175.147317006305 29.1851
177.129638880639 3.97835
180.120948476557 2.23723
183.116594226125 8.57905
185.130455423425 11.6212
186.131100941455 2.23714
187.141890107907 14.3295
189.151525055073 6.87349
189.430272011777 1.52045
191.120565409091 4.38668
193.118618147539 10.8788
195.131852898307 1.66537
196.115802943582 3.24721
197.133292263826 8.29948
199.149769599479 6.34112
201.15501715544 10.7366
203.167670305155 4.06704
204.181781865224 2.08658
204.248887818624 1.71859
205.151051924812 4.71248
207.136786839192 6.87796
207.167048713922 2.08573
209.147052612754 2.62158
211.146916460654 5.80218
215.145439605423 4.85355
219.1378826293 4.29435
221.148202192383 8.56663
225.161108467457 4.29686
227.169702696287 3.03887
229.159324483418 4.77874
233.149940171335 4.95948
239.050116939564 2.46957
239.181622407598 1.58643
243.207803971861 4.60903
243.264757736595 1.61673
247.170225916586 9.54392
257.190893220942 3.8333
257.482746948148 1.81621
261.184090387876 1.55514
267.208466022287 8.30828
285.218808779026 14.1526
303.231371551637 13.3094
320.241793893627 1.63105
321.025777918593 1.70779
321.165795525086 3.75214

>collision 40.0
39.0230058820004 3.47584
41.0391240609727 15.5633
43.0169210615603 15.6278
43.0563539422429 6.96891
43.3890525938144 1.33394
53.0392375765059 1.52692
55.0188123969853 10.6344
55.0547135001074 70.7654
57.035111320832 7.52875
57.0698141737744 4.16218
65.0423999182847 6.41233
67.0548914029056 70.7336
67.1048073338136 2.12979
67.1316590002144 1.3779
69.0697135498042 16.2214
71.0498090041303 13.588
73.0282377907196 4.0802
77.0384866174625 24.6223
78.042118082378 5.95167
79.0540687583146 85.6712
79.1117858201445 1.36053
79.1360840325927 1.98995
79.5505296511477 1.52015
81.0699491578742 87.5783
83.0513500261686 3.46495
83.085511653484 5.10821
85.0306264952687 2.73726
85.064626743285 8.33631
91.0539754792871 100.0
91.122888018274 2.23811
91.4767315111985 1.46195
92.0592010928214 1.8582
93.0699007519052 74.9375
93.1415532175552 1.45082
95.0463770045477 2.36271
95.0850569722686 43.8817
95.1298426454531 3.06271
97.0635761945812 7.03739
98.103983981676 1.57504
99.078400204067 2.59865
103.052089018382 2.15334
105.069590770142 50.7312
105.143273618816 2.03221
107.050039473421 3.60099
107.085198451608 34.2812
108.054412952618 1.63209
109.099998557187 5.57707
115.054243962348 11.628
116.058896621074 3.44816
117.069369508248 38.2602
118.081173332874 1.60586
119.084194248694 36.2242
119.141092915105 2.4076
121.059418077403 4.14736
121.100604348047 14.4845
128.063628123169 5.67364
129.068997578774 14.1636
130.079863651782 3.82918
131.084548009438 27.7056
133.099888340727 11.2348
135.077929887612 3.41887
135.11266714235 3.78968
141.07267210454 3.32857
142.072515672809 3.58077
143.083638898446 3.01963
144.090316549616 3.48473
145.100251857061 12.1809
147.114508475098 6.14076
149.090063179598 2.07437
153.064486880392 2.96687
154.084927817265 1.83703
155.082539880727 7.84282
157.098685077762 5.24831
159.115601480301 5.15622
161.130214815747 2.70408
169.105084258691 1.66272
171.114676232428 2.69496
173.099653975113 2.24895
175.139202624435 8.07625
183.115951656577 3.20776
191.10568633291 1.56054
194.414873775329 1.47093
195.105504665329 2.13775
199.146151206102 1.38522

