>compound 15-F2t-IsoP
>formula C20H34O5
>parentmass 337.237299133468
>charge -1

>ms1peaks
185.127858236787 0.84101
187.112461087081 2.08495
203.144253525326 1.64243
205.121568923413 0.545187
217.142107629709 0.75816
255.209614132876 0.778202
257.189977455578 2.19914
259.204053718777 0.559017
263.200457615132 0.811116
265.213062147739 3.26532
275.199157516076 1.71412
283.204478497485 6.34774
301.215993186338 39.5555
301.37138697219 0.616716
319.226403206565 30.1389
336.22270468517 2.08305
336.326054918937 0.686412
337.237299133468 100.0
337.402184441836 1.65696
337.468776333962 0.869656
337.588845801873 0.549173
337.641789319811 0.563196
337.897274862133 0.527347
338.89727486213 1.0e-13

>collision 10.0
43.0552964871379 0.795497
57.070160353957 0.689553
67.054918677107 0.691703
69.0699529402005 0.688141
71.0854866310922 1.31544
79.0565983322039 1.18096
81.069846852094 1.70473
83.0506657486443 0.542106
83.0858499235613 0.731519
85.065010689052 0.655678
85.1003289564656 0.532844
91.0548956235365 1.14203
93.0696456234858 1.42843
95.0848671709144 1.2298
97.1021621690246 0.738248
99.0810445118079 2.19963
105.069218331262 2.34401
107.084166077569 0.901604
109.10039448413 0.777987
111.078957275604 0.575017
115.112803391126 0.715326
117.06970922087 1.93264
119.086338329378 1.2832
121.09963822078 0.564397
123.115356162981 0.961416
125.095802877481 0.991284
129.069239384137 1.01055
131.085393853494 2.71913
133.063512540592 0.892702
133.100920705919 1.2686
135.115368696864 1.24306
137.133095176634 0.568747
143.086785248517 1.19819
145.101083318095 2.03187
147.080017801138 1.75792
147.115922649723 0.887052
149.121762132338 1.16057
155.085231228848 0.886508
157.101298709013 1.25594
159.114174941151 1.04585
161.10939468039 0.828519
163.150559633765 0.824619
169.100874149531 0.838924
171.117352247621 2.24434
173.129258839997 2.05807
175.141468611909 2.18537
177.093928295696 1.11585
179.102694667794 0.504953
181.111347820036 0.751762
183.11583306321 0.818455
185.128214007634 4.36186
187.112941904443 9.10525
189.133338240696 1.06951
191.115938097912 0.921698
195.117521823428 0.652819
197.13131911166 0.633865
199.134342331334 3.48427
201.139558236422 1.49043
203.140110971456 5.06976
205.122664217654 3.29541
209.13513727967 1.11538
213.1298038955 1.51932
215.174916325797 0.801486
217.149010889977 4.88592
219.16178542142 2.21324
221.152754509279 1.0755
223.15358983102 0.536089
227.154343871408 1.27804
229.193051276295 0.817024
231.136892576504 1.91469
235.168897933057 1.09673
239.180427901239 2.74692
241.192878981221 2.93431
245.162389852402 0.753302
247.20432789886 1.30647
255.209517565757 4.98265
257.189926814022 8.2073
259.203836372038 3.62914
263.199407274614 4.52534
265.209476519587 10.8683
273.221155285599 2.01006
275.200502119734 6.59375
277.214467261011 0.579507
283.205410046726 23.856
291.233574611445 1.91542
293.209114481382 1.77265
300.207436081751 0.774306
301.215859501291 100.0
301.41811441146 0.891853
301.46627068262 0.594402
301.503914537362 0.542283
301.585768913384 0.592616
318.215585717039 1.13845
319.226011858929 36.999
319.385329008977 0.63356
336.222664324265 0.84166
336.324137323198 0.665223
337.235076948681 7.92138
338.23507694868 1.0e-13

>collision 20.0
41.0380469521903 2.12246
43.0194893831804 3.56943
43.0552365900264 17.5878
45.0346593635918 0.543606
55.0183867126658 2.58613
55.0550818212873 12.6947
57.0327193849243 1.01367
57.0706845124625 7.76128
59.0488073782837 0.637995
65.0382660914789 0.680289
67.0550136315518 15.2681
69.0388606512196 0.738798
69.0702036776176 10.301
71.0491213170798 4.79956
71.085903191099 19.4061
73.0271557789266 0.685292
77.0392658602255 2.66664
79.054665608343 16.0424
81.0347355744984 0.649392
81.0707068046077 20.9639
81.1399812081089 0.519809
82.0351364992433 0.506917
83.0507324750848 6.97257
83.0840699370333 5.21986
85.0267024544206 0.620532
85.0666127818119 5.3363
85.1021261212396 3.15397
87.0453072034542 2.98788
87.0826868084567 0.576979
91.0545912126379 15.5189
93.0699791277377 21.09
95.0511481474021 4.38859
95.08600319883 15.6406
97.0642253858718 5.37336
97.0989128303077 4.6588
99.0452886441551 1.39282
99.0810591074882 11.8448
101.060317603051 1.01691
105.069515607921 20.3041
105.157087627519 0.522371
107.085412291589 13.4629
109.063011450075 4.58955
109.100214060214 10.555
110.069564444435 0.748512
111.081599116708 3.66725
111.11617348978 0.701476
113.057678661861 1.48598
113.09459166577 1.98212
117.068655126374 18.7221
117.133472072215 0.62668
119.085353158686 24.2703
119.158523608499 0.610436
121.099826966433 9.58617
123.081461910906 2.57486
123.115433488483 4.17068
125.059232485713 1.3678
125.095481667998 3.40091
127.075389462619 1.65513
127.106353669164 0.79411
128.063991058158 1.42327
129.069723414094 18.8136
131.085036348876 35.6231
131.190385550919 0.734487
133.097125901749 20.9142
134.099193147843 0.564005
135.10923883784 7.64313
137.058527530217 1.67684
137.130893725239 3.06967
139.071970963897 0.679441
139.110482872134 1.27687
141.068587362854 4.44512
142.076455986776 1.09028
143.085451388985 17.2588
144.098915464559 0.572972
145.100610926022 25.0808
147.103950988073 11.516
149.109560803445 7.77728
151.074026833673 1.90902
151.113992777441 3.03963
151.143644019051 1.24555
153.087291274845 1.67904
155.084220961235 9.69439
157.100768129549 27.8255
158.107637629859 0.857891
159.111063483987 12.5419
161.11005486002 13.8979
163.141172604216 6.17764
165.099144669688 2.05823
165.157386296383 0.9482
167.093285430037 3.97562
167.141738492116 1.31135
168.091367981276 0.781601
169.100552960219 15.635
170.107829419688 0.586201
171.115618972431 25.4184
171.20389717694 0.543653
173.129215291396 14.1426
175.131560995459 11.8367
177.095927886463 5.15656
177.161062652264 1.81951
178.089566929524 0.596998
179.106935971287 3.74161
181.106529022041 8.15628
182.10967146021 0.644826
183.116130042514 10.6245
184.116334064388 0.894705
185.123548014677 24.7126
185.493789589035 0.561263
186.120709550238 0.91718
187.113307743334 34.147
187.27943942091 0.501769
188.122085933495 0.557495
189.132417251116 5.41769
190.13037791746 0.873139
191.111404800149 7.74194
191.179333818384 1.60035
193.120934371239 4.96719
193.154992675658 1.69201
195.11867584018 9.21893
197.133087914436 3.75507
198.091448382506 0.518991
199.12149825401 21.4251
199.239759536184 0.712266
199.276415130487 0.50662
201.144153653171 8.27403
203.134103876797 11.3015
205.123702999098 9.63534
205.192446858655 2.18456
207.135914788957 2.17444
208.124044553996 1.15139
209.132830756531 8.38036
211.14982620463 2.20586
213.138182800155 11.3995
213.31242973796 0.500699
215.168795157391 5.6013
217.147836361808 18.9615
219.167299911132 8.01847
221.156659071766 4.08918
222.140404032423 0.633104
223.149293415529 4.39243
225.155085356771 1.17849
226.134947201712 0.557075
227.157456860754 5.32412
229.19452700996 5.25964
231.138982466955 6.3529
231.210167592488 1.74267
233.152284186668 1.6642
235.169062315349 2.38863
237.168907097903 1.23279
239.17929471866 14.9723
241.193402890699 16.8064
245.17033666563 2.45106
247.206109497951 4.17472
249.144570789599 0.536316
255.210926595697 19.9735
257.188744678674 27.3884
259.20498452784 10.932
263.199666640624 8.98375
265.203231561402 15.6161
265.597746068869 0.532502
271.202897901391 0.854828
273.219862780318 9.23022
275.201253683585 24.8534
275.352389358733 0.555984
277.214268843458 2.4131
283.204168248903 48.1356
283.355840686037 0.942747
289.216409864508 1.4761
291.230131813049 2.77189
293.208996271573 1.98433
300.206432617975 1.37316
301.215754357514 100.0
301.374730135545 1.38743
301.414470617606 0.965448
301.53876738059 0.903651
301.743477049666 0.643378
301.93967476644 0.64725
302.374242760249 0.601309
302.647182706633 0.571017
319.225652783168 14.237
319.381467636728 0.561729
336.231232283942 0.630598
337.23123228394 1.0e-13

>collision 40.0
41.0397209814803 21.6251
43.0181313976661 8.90515
43.0554103062709 49.2174
43.1158053455126 0.882918
45.034591997637 2.11391
51.0235329383808 1.49623
53.0396509775231 2.39587
55.0190689751105 15.2003
55.055416460807 60.6734
55.1235681591244 1.30512
55.1469688488553 0.738981
55.3361590849835 0.54254
56.0596549278896 1.01584
57.0346108588109 3.93199
57.0704665099123 17.8132
59.0490945597384 2.82158
65.0388984112022 4.94776
67.0546557269236 57.4728
69.0336466443932 1.49011
69.0705289132213 20.0081
71.0106508118807 0.65359
71.0505846587964 9.2401
71.0862561849989 11.0574
77.0390663543109 17.9528
79.0546833602689 57.5923
79.1379993168669 0.748998
79.1837570365213 0.779139
80.0567383624736 1.57057
80.3320194648517 0.971318
81.034234747002 2.88941
81.0705432797199 47.5091
81.1490228562322 0.898119
82.0724524617158 0.877441
83.0497605869882 16.6829
83.0845345753246 5.54512
85.0294136009397 1.22555
85.0658555030918 6.47794
87.044725000712 1.48648
91.0545260641958 100.0
91.1419391798423 2.04771
91.1671634160727 0.717811
91.2452333755164 0.508083
92.0568607190775 0.571673
93.0699696746108 52.8778
93.1608532704274 0.918787
94.0733651724552 0.561767
95.0508347545219 3.68669
95.0850243187268 25.8021
95.1430442520135 1.03452
95.1768553034945 0.643762
97.064528874773 6.53911
97.093974008134 1.09071
99.0811234058186 1.55279
103.053569250202 3.84958
105.069858864416 74.4045
105.163863272939 1.2603
105.189204841175 0.897375
105.240022713344 0.550633
106.070540978672 1.18119
107.047897231697 5.35465
107.085285230326 21.2603
107.156979232696 0.514749
108.087373812829 0.634481
109.066540835165 7.83976
109.10033293809 6.97545
111.076925546438 1.5012
113.058277544795 0.639071
115.054084515264 13.7511
115.108040579121 0.535173
116.061809827654 5.59107
117.069531099536 53.3295
117.1683096644 0.942093
117.198663476822 0.605681
117.256696169632 0.861522
117.588695048073 0.58368
118.081948634381 0.708697
119.085253135668 39.7268
119.187182840706 0.850211
121.063965744262 6.77617
121.10084064472 9.51313
123.041843166661 0.911573
123.081131354084 2.67962
123.118230860782 0.766028
125.059259688335 1.08013
127.053473725878 1.30412
128.062717249903 17.1704
129.069880662232 60.2819
129.173339217617 0.857837
129.203600047202 0.709756
129.673459023272 0.965887
129.987820851362 0.520056
130.0778211358 7.54848
130.140986273604 0.613017
130.483014673472 0.514835
131.085474683166 70.2217
131.188681061796 1.09619
131.23862464024 0.574425
131.334239361825 0.571234
131.424024659175 0.582403
132.092269281841 0.846861
133.09301200092 18.5976
133.178632780735 0.575656
133.457390814482 0.52895
134.091025653364 0.59914
135.086619689604 7.29755
137.095375098464 2.17187
141.069590260593 15.8782
142.078119266572 8.03619
143.085406552914 39.2879
143.193969725881 0.82503
143.42091168733 0.524807
144.090377859566 3.10389
145.100914162672 37.9941
145.211284573464 0.624434
145.326950219037 0.531781
146.100513678888 1.63918
147.102046350143 11.1769
148.081427473191 0.646965
149.098768621 4.01406
152.060407068153 2.23006
153.070045754135 2.22908
154.076703210878 3.89018
155.084998789228 17.7348
156.092332927446 5.60538
157.101036805973 32.7531
157.209944335188 0.591179
157.639149715474 0.512529
158.089217507041 0.79672
159.114186124172 10.6718
161.105311684739 6.52285
162.095493194393 0.967561
163.069174304115 0.636655
163.119596185046 1.16575
165.067045102641 2.3273
166.078281777762 3.4302
167.084802206196 8.14469
168.092754098428 1.86114
169.100621346666 15.1037
170.107353276451 1.60638
171.115744872454 19.999
171.214572569356 0.613678
172.089710156898 0.608606
173.104203103068 8.87117
175.114339060784 4.07137
177.090924952646 0.971317
178.068395571069 0.526805
179.083219571551 0.666028
180.090540188704 0.689502
181.100421832974 4.48079
182.10588869586 1.35139
183.113670857535 5.68988
184.096517832982 0.760391
185.12185289838 8.81624
185.208435969233 0.545943
187.129592509831 6.22816
189.162751801007 1.1707
191.11146953313 1.08083
193.099055937309 2.31206
194.108877004543 0.881032
195.117633915548 2.14527
197.133290763322 1.86912
199.120037266583 4.518
201.145630550921 1.14797
203.126723859039 1.71468
205.125498094002 1.72423
205.173529207134 0.565091
207.119870905953 1.20747
209.134851699091 0.933948
212.12782758114 0.603266
213.162012572295 3.97537
215.170154132483 1.15658
217.164021377729 0.983344
219.170778740228 1.35872
223.147513643899 1.00195
226.136152499153 0.592714
227.142075614683 1.63311
227.182300293771 0.584758
229.18448537948 0.926768
231.19518784673 0.861255
239.178827847738 3.23634
241.194340460929 2.04559
247.207026646995 0.852823
255.203253567668 0.723725
257.187165040375 1.22571
258.18716504038 1.0e-13

