>compound Resolvin D2
>formula C22H32O5
>parentmass 359.222287502184
>charge -1

>ms1peaks
69.0705358749951 1.09524
79.05638335174 0.532928
81.069860568387 1.3477
91.0540437141253 0.868434
93.0707282431148 0.742515
95.0874223658597 0.712168
97.0666514970185 0.511998
105.069477561782 0.691959
107.085274001433 0.739762
109.063771109088 0.515456
117.069805556492 2.00836
119.083582065293 1.40859
121.101011304294 0.684414
125.09509686251 0.607783
129.070720953341 1.65578
131.085800907839 1.28775
133.095460737417 0.577047
135.079221430599 1.1104
135.110797059273 0.53881
143.083477813286 1.4559
145.099835301644 0.843497
147.087157848038 0.958906
149.096681659547 1.15399
153.088503027592 0.512766
155.085347804869 1.39737
157.101522604842 1.87267
159.081344427855 1.03718
161.095316575521 1.26441
163.107670236543 0.624143
165.089506347245 0.891051
167.09690404657 0.56882
169.102679134197 1.81565
171.114549747948 1.60564
173.12391298391 0.610018
175.109230992125 0.745492
177.09350031089 1.11767
179.10504150669 2.44178
181.104638997483 1.16834
183.116846168104 2.34023
185.118290159482 0.864324
187.115317874468 1.45522
189.121707413559 0.592491
191.107185435451 1.02649
193.11604310367 0.667323
195.116378462431 1.16691
197.129749938863 1.66908
199.112764726192 3.91542
201.125268808648 1.38879
205.123266967941 2.64908
207.116889969585 2.7659
209.132975916622 1.4035
211.116659739414 0.630576
213.126831257315 1.30559
215.138079469252 1.30151
217.121850368665 16.1623
219.134588254744 1.66479
221.134004325919 0.574443
223.119471849624 0.628781
225.128028921837 4.52621
227.142551693852 1.51773
229.122608979034 1.70128
231.134767750973 2.39608
233.151894086627 1.05569
235.118201740606 0.572231
239.144502696893 0.953599
241.128627182925 0.699474
243.137169966738 10.1956
245.151581954658 0.742969
253.124966422826 1.0565
255.135813982705 0.631459
261.14835299676 12.5955
263.17202047985 0.803975
271.133894243242 0.635495
277.19306837582 0.726774
281.184355764567 0.696996
283.167064855488 1.57092
287.177780267924 1.62771
295.202776151026 1.19385
305.189859878242 3.92857
313.214598788284 0.919313
323.200159365079 20.3531
341.210627117324 30.4986
358.208125127058 0.520298
359.222287502184 100.0
359.446837846512 1.09845
359.571835253478 0.637273
359.691928972787 0.717932
359.856692552065 0.551541
359.937595033998 0.553364
360.028676980098 0.510109
361.0286769801 1.0e-13

>collision 10.0
41.041309007793 0.581636
43.0177428894275 1.65706
43.0536720861971 1.55133
53.0388767479808 0.584273
55.0194805347632 3.07167
55.054291527523 1.57149
57.0334123189166 2.28149
67.0550655555487 7.4406
69.0347248948558 1.88043
69.0700349555775 14.2703
71.0486811194665 4.23773
73.0643208394975 0.707812
77.0400606252799 0.976735
79.0547750005936 10.758
81.0697421357148 18.1621
83.0482677316835 3.56631
83.0806164565305 0.982078
85.0278521500856 1.45165
85.061803204863 0.626471
87.0432328434557 1.24584
91.054903517361 11.5952
93.0699623618044 17.4987
95.0483523613878 3.41029
95.0848585836257 3.18895
97.0642615823782 5.91084
99.043629258139 1.41896
99.0790916581357 1.46965
101.058776761615 0.818339
105.069493968709 12.1232
107.048029837187 5.66886
107.084338238814 7.60475
109.064963315259 5.35043
109.099349996222 5.34261
111.077233671582 1.87139
113.058209937162 2.10112
113.091886232355 0.555317
115.056976203115 0.991734
117.069636899694 19.3233
119.085164339116 12.9797
121.066316278717 5.13211
121.100051472169 6.36901
123.081506903737 1.74013
125.059164252667 1.37982
125.096069210475 2.04551
127.076794424538 2.22841
128.060125331525 1.3766
129.069164617392 23.4856
129.173462051543 0.513266
131.085741828612 19.3708
133.086428331555 7.13723
135.08121732419 9.70247
137.094722488622 2.84026
139.106618375752 1.06644
141.071226216485 7.39515
142.078276001038 0.81365
143.08494412309 14.6772
145.100185796456 10.1633
147.0878963228 10.6724
149.095970213301 8.86191
151.075883053839 4.58784
151.108582339556 1.84758
153.089051468592 2.67065
155.084547672671 15.931
157.100787320922 26.2021
157.183356151628 0.610561
157.217298444956 0.505669
158.107255894613 0.632398
159.088360308665 9.18823
161.094928957439 10.9453
163.08757640777 2.29621
165.088146649404 4.71013
166.074911592315 0.974012
167.093331525561 3.58883
168.092643057762 0.825359
169.101037257563 17.088
171.115975510153 18.6523
173.102848202062 5.90683
175.113578382138 2.96475
177.089847660423 8.6642
177.161355088042 0.645236
178.074140665497 0.652679
179.102701543697 9.94478
181.100482050903 18.246
183.116038725874 22.4702
185.121136556105 6.49597
187.111389482958 12.0967
189.120693838732 1.41898
191.102409506596 2.94931
193.110241293699 2.37632
195.114732569154 5.37064
197.128089509454 14.1566
199.111453253497 34.8932
201.125221553371 6.69533
203.121546405973 1.64488
204.105140534677 0.88686
205.122102503745 17.126
205.196827892339 0.835824
207.116733909191 20.9432
207.241231822244 0.597265
208.120426013123 0.644203
209.131394915001 6.71234
211.115504258186 5.26572
213.127484691898 5.68363
215.140962738736 7.88699
217.120929075042 100.0
217.250051391803 2.08722
217.297764209341 0.970719
217.34872687082 0.550496
217.457234576986 0.536839
217.624497821505 0.508703
219.137140338444 8.09955
221.131141108536 2.81341
223.121329438309 3.52872
225.126155245105 26.5191
227.142594136368 6.94699
228.147866089034 0.583926
229.122312763726 7.2423
231.136726727299 12.9203
233.150198622627 6.08419
235.119178069122 2.9743
237.132231593176 2.16715
239.144776653235 2.03667
241.12491611837 3.08002
243.137277135507 32.0193
243.281704878188 0.571032
244.14424763967 0.733433
245.152578421165 3.80405
247.151244747715 1.01387
249.160516780372 1.45089
251.178053926636 0.932724
253.131469987344 2.75234
253.19305805761 1.44082
254.12961934189 1.8559
255.13828464949 1.94802
257.15172402655 2.3312
258.134610118772 0.598957
259.154479684517 1.95526
261.14907994051 15.0631
263.177343761001 2.78576
265.157923346518 1.00556
267.155747646666 1.8432
269.154079060486 1.00023
271.131115569574 2.87523
272.140319394973 1.99788
273.152342728546 1.18091
277.192064584488 2.34998
279.172488335819 1.78292
280.187214877839 0.5078
281.18517200782 3.34212
283.170135068171 2.27109
285.18811736575 1.49602
287.182860561548 3.26641
290.153561200346 0.993713
295.204957029454 3.34823
297.18777105069 2.52916
299.199456709739 3.51169
305.188088356419 12.4851
313.218072841053 2.53092
315.195653734487 0.525129
317.20916639318 0.666713
323.200576824758 37.6217
323.358562391888 0.662081
341.20971953715 34.1401
341.359516196734 0.581303
358.188380909495 1.50999
359.228521353335 53.6807
359.376575400562 1.19935
359.480174783387 0.774427
359.539388681668 0.662984
359.686785538123 0.758885
360.68678553812 1.0e-13

>collision 20.0
39.0211873832701 0.53116
41.0393704915064 7.62473
43.0180364370523 14.9525
43.0556932692544 4.56809
45.0336730106275 1.85648
46.3435334622236 0.513077
51.0259891366942 0.770559
53.0388861480977 2.33397
55.0186937213995 10.1982
55.0550483761724 19.7745
55.1066481583607 0.626026
57.0332564039489 11.7937
57.0676603280045 2.24565
57.0926618454368 0.618403
57.3213172856276 0.587035
59.0492653690238 2.61396
65.040899331049 3.5178
65.068542071317 0.570008
66.0497364342279 0.677409
67.0548084767759 41.6975
67.1316531558948 0.725574
67.4336445223784 0.549549
69.0348451117782 2.56804
69.0699436453429 39.1552
69.1468418862931 0.739284
69.1634498473109 0.63807
69.1880157100662 0.532189
71.0494408715314 22.921
73.0286971681207 0.915569
73.0694952996975 1.52164
74.097762679151 1.17313
77.0403066165606 5.8594
79.0546322688308 62.0452
79.1567006454824 0.817363
79.6748927712177 0.593389
81.0327543905406 7.16397
81.0702596464706 81.3072
81.1547572137811 1.27353
81.1739729789914 0.826137
81.2481047533151 0.652125
81.373254700785 0.58674
82.780488655754 0.511388
83.0504846961432 12.0648
83.0840512109933 3.41612
83.138656977022 0.800439
85.0295868272266 8.94659
85.0640882466322 5.66412
86.0984583773234 0.923538
87.0428019722119 3.43877
87.0754836602853 0.578817
91.0544133995655 71.6635
91.139035698817 1.85837
91.182149523394 0.768427
91.2703834204155 0.693615
91.4448052606039 0.524256
92.063376976061 1.36149
93.0706723983019 71.523
93.1577988351038 1.76754
93.1848631211064 0.852347
93.207325489632 0.676736
94.077911033315 1.10051
95.0143206587415 0.509707
95.048866073184 10.0568
95.085087069561 16.1782
95.134691780075 0.854887
96.0546658295527 1.05204
97.0648650789095 9.82564
99.0449580671958 1.36244
99.0851075168216 2.36744
101.061071406135 1.28307
103.052061065059 3.6603
104.065380892343 0.938318
105.069921985178 53.5473
105.16328527104 1.21135
105.192771987731 0.659881
105.300218417189 0.693089
105.349639642354 0.627761
105.441619222529 0.544476
105.641317731418 0.594019
105.702579667224 0.577815
107.048724950983 14.7521
107.084952780095 19.1514
107.139152916668 1.09605
107.179117263725 0.746118
109.064310126669 8.94966
109.09836793303 6.53531
111.050274186652 2.65865
113.058609886866 4.50524
115.053458691138 3.70112
116.05904033875 1.04752
117.069283136877 75.2964
117.165007598184 1.39416
117.194827656626 0.639332
117.479709983637 0.697477
118.070506805658 0.690212
119.084710205593 47.853
119.158593061304 1.04329
119.212402069372 0.653354
119.454229779461 0.521592
119.913038888136 0.593871
120.05421036749 0.587876
121.074852306817 15.2021
123.041617827355 1.2233
123.083338699049 4.73763
123.425518780456 0.682715
125.057451582909 2.48011
125.097615040075 1.78747
127.074181889301 3.24125
127.315795906586 0.722319
128.061174839165 6.45833
129.069372712356 77.9676
129.150134332656 1.43369
129.175417451091 1.20783
129.232526719571 0.710285
129.401648789454 0.69956
129.707992433969 0.62938
129.835300376325 0.772003
130.077616073293 2.35847
130.160281537137 1.61385
131.084371229066 78.454
131.189804165844 1.3609
131.272699044603 0.631277
131.394176902753 0.533964
131.889751380955 0.818194
132.095239383457 0.794041
133.07684404603 17.9515
133.161224353639 1.07145
134.075608241822 0.990208
134.31530643357 0.710926
135.080715074741 23.1507
135.187753775929 0.654148
136.124792594089 0.509707
137.086944924959 4.51757
139.103544415047 0.979639
141.071119125651 28.1882
141.628438016387 0.617454
142.07633357827 9.06546
143.085203260047 56.147
143.191598289213 1.18383
143.365152084516 0.527461
143.569500850173 0.538743
143.693639313081 0.620328
143.767947547595 0.522283
144.054744696604 0.688733
144.090760079485 2.23527
145.100303881269 37.5671
145.184766925282 1.03077
145.21059433725 0.587931
146.066324424228 1.04038
146.104641801116 0.556845
147.086572834027 17.2294
147.222438649976 0.616571
148.09002514248 1.71896
149.095772395779 23.9632
149.205940636675 0.51163
151.079431672613 2.87361
153.074544772381 5.61605
154.07604879279 3.45193
155.085430039975 66.2711
155.159476948001 1.92368
155.228291994989 0.856662
155.283473497174 0.53271
155.327204866726 0.534599
155.508175857724 0.564096
155.737892635745 0.629278
156.092005727278 3.82717
157.100542118902 100.0
157.247035301887 0.828685
157.283664121958 0.686558
157.314876938817 0.506008
157.464161706181 0.767889
157.606890546853 0.546525
157.66995657717 0.560455
157.899783334595 0.878681
158.01413877771 0.640807
158.110183009458 1.92542
159.093098131267 16.7646
159.252902712624 0.570615
159.816335615611 0.522468
161.095484322329 14.9606
161.640373888017 0.509213
163.087172391464 5.04871
165.078692284516 6.42867
166.074456545486 9.20273
167.085891839961 13.3766
168.093435454176 3.94812
169.100222348061 52.2702
169.186761542036 1.2684
169.219785082734 0.58527
169.395662507476 1.11314
169.51051287972 0.794944
169.872255810762 0.729654
170.108768050082 1.44566
170.65958765633 1.47723
171.115968797056 54.2957
171.2134015041 1.09129
171.267139507784 0.58017
171.565542977799 0.824291
171.650521139745 0.592414
171.996558126182 0.582616
172.124605138914 0.805042
173.125113186503 13.3162
173.216437638053 0.533833
175.108187728035 5.41005
177.089482967622 8.17037
177.411507669588 0.723298
178.082241409712 2.09071
179.095761237844 8.8283
180.090920989441 1.27462
181.100556979445 47.4795
181.22584953781 1.16007
181.312847392117 0.520874
181.628093248723 0.604982
182.107383255083 2.97988
183.115530014535 38.7416
183.205326555792 1.25735
183.246031436365 0.82861
183.355148851765 0.523224
183.481153586471 0.772685
183.868042419079 0.842754
184.087101585862 1.03804
184.13233760045 0.528859
184.265347583473 0.655821
185.126105689223 15.6772
185.725790757177 0.728624
186.099477614386 0.98637
186.137365155854 0.727629
187.112334079866 13.9843
189.117508618091 1.55832
191.103846621673 3.09176
192.093478459111 5.50775
193.101184206903 7.95098
194.107940001707 0.928569
195.114549585804 21.46
196.121605422134 1.10032
196.67463437711 0.528412
197.12717599539 19.0583
197.22085521275 0.78405
197.300566105502 0.642423
197.358733147009 0.582248
197.453378099796 0.532738
198.098503389722 2.4265
199.111254653637 56.155
199.206635484611 1.50457
199.2419235399 0.900599
199.274537295134 0.729421
199.397939506819 0.795726
200.159594939229 0.54511
201.127245465163 12.1225
203.121238507543 1.79268
205.121489125013 13.4226
207.115968775522 20.3777
208.104628849514 0.615918
209.129734030171 8.66351
210.133168072743 1.8891
211.11031698593 6.77984
212.127886058753 0.504876
213.126005101065 14.0341
214.190973213679 0.544476
215.140947194139 6.94846
216.145087348203 0.911406
217.121501860775 69.2811
217.260601671231 1.28396
217.297350373455 0.639215
217.41223327685 0.564379
217.591529147725 1.37829
217.659990217332 0.616974
217.845776625575 0.58341
218.114645204745 1.27044
219.133569518479 7.77849
219.270973850824 0.575726
220.114675487664 0.773238
221.12973617881 6.17785
222.099133479106 0.800651
223.115526725716 3.18419
225.126237898258 17.0631
226.146422659473 1.25074
226.199984691086 0.512195
227.145175210414 3.18269
228.152038651309 0.781664
229.120127566885 4.50969
231.136658765648 7.27033
233.144617081219 2.55667
235.027542722703 0.508251
235.139151318198 3.44842
236.115093912036 0.923503
237.14235613734 2.53868
239.071772781454 0.587383
239.144920494023 3.09045
241.131797380014 1.23815
241.19385144714 0.868499
243.137963308234 12.5054
245.149596985798 1.79992
247.152214080537 0.603927
249.155616286921 2.24955
251.15184140402 0.534587
253.135575300976 3.62871
254.115885630049 0.892467
255.142188864005 1.32588
257.027110770622 0.892357
257.144973395677 1.3066
258.139366867595 2.08339
259.151618639653 2.89625
261.155531784516 1.14552
263.176119204969 2.21769
267.135998023879 0.976066
269.156888995911 1.95308
269.200777982039 0.858142
271.164956486101 1.5718
272.132423623849 1.00563
277.198839709216 3.97751
279.182448883634 1.5088
280.164381259954 0.674732
280.218673550467 0.671718
281.172818527094 1.97649
283.172650614364 3.16512
285.086808675412 0.574874
285.18650672389 1.73998
287.184635680445 4.86483
289.133586562009 0.99336
292.986518857326 0.5138
294.163374151107 0.889635
295.19305799962 1.68742
297.188141930109 1.2088
299.20039901878 2.07151
305.184333905467 4.95222
305.255082384655 0.519635
308.182896020568 0.603658
313.208669671178 0.626021
315.195149143005 0.579985
317.154069708278 0.592562
323.196770040886 11.5179
323.295528800051 0.592019
327.238080681094 0.85755
341.209683277057 6.76668
358.151111985757 3.01003
358.252008569744 1.20748
358.353747748192 0.736286
359.238446163938 56.0317
359.405459105409 1.03545
359.459252172598 0.702789
359.516730621386 0.653603
359.857916312954 0.800932
360.85791631295 1.0e-13

>collision 40.0
39.0237912628801 0.529011
41.0390752758308 14.4899
43.0179447176649 6.84112
43.0552495126968 5.41444
45.0342540826814 1.67258
51.0227652645127 1.11306
53.0390810413584 5.90921
55.0193083727207 12.4047
55.054638151047 26.917
55.1199848839088 0.559537
57.033474372413 8.15504
57.0658414864768 0.679878
59.0496657581622 2.093
65.0383379775269 3.08944
66.047760297612 0.921359
67.0545027315607 37.0072
69.0337660873292 0.973566
69.0700062783416 10.8729
71.0507529617121 15.7632
76.0393707485439 0.540427
77.0388758315689 29.0603
77.1202842773713 0.558611
79.0544574521807 69.9212
79.1333870010777 1.44431
79.1735725639911 0.630559
80.061987133753 0.816509
81.032358954819 4.25615
81.0697647614431 49.0692
81.1486266115402 0.981375
83.0492080551588 7.93156
85.028583824822 1.79732
85.0643221426649 2.51085
87.0468531122068 0.59589
91.0541686025096 100.0
91.1403482515576 1.59215
91.1653880547725 0.831273
91.1858720909863 0.528182
91.2213377907177 0.544216
91.319914031591 0.527814
91.4239513692326 0.510464
91.4756115456055 0.500815
92.0588139952299 2.10166
92.2113692043374 0.540934
93.0696604165621 33.332
94.0654291139594 0.542849
95.0495028739434 5.48774
95.084509297696 4.15682
97.0256819007033 0.724467
97.0646505458832 2.95844
103.055199382858 8.4416
104.061921357079 1.68833
105.069750749164 45.6635
105.162858749261 0.95523
107.048402835422 4.09828
107.084587704485 7.48436
109.063494272814 1.7017
109.097352528635 0.797945
111.07831473042 0.76485
113.059479649633 0.803884
115.053763413167 23.1071
116.060117003742 6.03038
117.069903059479 49.8503
117.146463582614 0.73966
117.400284553146 0.616892
118.078046285629 1.30639
119.08478620345 16.8412
119.184941519804 0.567367
121.065002659909 4.62393
123.078233764052 1.19742
127.05306269628 6.79492
128.06169183758 28.3739
128.141301089456 0.632119
129.06957563813 55.0517
129.174673822302 1.36558
129.204567857487 0.931977
129.538057166769 0.804602
130.078887825142 5.713
130.161959500732 0.6704
131.085598164965 25.5992
132.061099796435 0.755507
133.066381358565 4.36809
133.099271956313 3.49905
134.065818815057 0.556587
135.080021337393 4.84109
141.069265130596 19.869
141.168638293114 0.558161
142.076779832822 19.2395
142.138125170257 0.90141
143.08533999202 20.7951
143.170235742926 0.502955
144.082214666636 0.764569
145.100032205672 10.391
147.079734472639 4.07331
147.113805384907 1.71389
149.097463310928 1.22713
152.061088549297 2.16794
153.068958551371 6.06687
154.077942068317 7.60105
155.085396558306 20.9391
156.090725258504 6.01568
157.101243076381 20.6371
157.212127833728 0.548628
159.100809623638 2.02325
165.070181668824 12.6126
166.078003992282 7.01068
167.084931505836 9.62205
168.092115390387 5.11278
169.09955372577 10.4779
170.103658555831 0.815729
171.113753875218 5.53238
173.12758376783 1.44853
178.078415878657 3.17557
179.084669345324 4.01708
180.090396768449 1.16638
181.101749948249 8.04432
182.105684571973 1.22706
183.117088754996 3.77994
185.13042042281 1.4407
187.110420818653 0.967546
191.082443347946 2.19175
192.093729813233 2.60122
192.978847822067 2.51524
193.099826785908 2.08274
194.100742586937 0.630259
194.957612102233 0.579516
195.115681807103 1.72999
196.115762163937 0.562658
197.128267145196 1.39015
199.108401278369 1.46102
201.124411973439 0.536295
202.076416269819 0.872034
203.083785936421 1.37088
205.097950054422 1.25831
207.11555671737 2.52532
208.119393695424 0.576804
209.134290541442 0.710575
210.986729840668 0.742592
215.087106824493 0.528678
217.10427094189 0.539351
218.108444125608 0.661051
221.129918205988 1.71525
222.12991820599 1.0e-13

