>compound 5-Hydroxytryptophan
>formula C11H12N2O3
>parentmass 221.091999972976
>charge 1

>ms1peaks
134.059171662468 1.15965
143.035167834379 5.28371
159.067603966344 0.65868
160.071162081876 0.714213
162.052852967606 1.59313
204.065412740148 30.1303
220.121457154228 1.5107
220.623479791452 0.571645
221.005805304864 7.41159
221.091999972976 100.0
221.280199486214 0.582296

>collision 10.0
79.0531730500665 0.539315
127.968233289109 1.10543
134.059581818478 3.22495
143.022647801366 1.68218
158.060411673829 1.12464
159.073464160481 0.56962
160.074360274619 3.47492
162.054676303222 15.3189
175.089941361616 2.45083
176.074298857963 0.879573
186.054348546332 1.17868
204.065223117744 100.0
204.242426708504 0.946458
220.055038936712 0.554506
221.005429766978 6.09218
221.092083918849 3.92124

>collision 20.0
57.0703481506667 1.49997
61.010773003701 1.16647
67.0037340360317 1.22459
74.0234677192412 1.01616
93.032628369235 0.853914
106.065873932922 2.2985
115.053477755759 5.49449
116.049544699588 1.43575
117.05682506834 4.08966
127.971868706464 1.1387
129.045157355894 0.994173
130.067692813492 1.94117
131.060765586678 1.39785
132.082524254844 2.00893
133.056646875067 2.09455
134.060127465737 32.0619
140.996637404027 0.684844
142.073539631701 0.800927
142.991724538371 12.3518
146.059285147156 1.91745
148.077726949894 6.64266
156.959568224241 0.708141
158.05965411555 6.93806
159.068719033149 8.71826
160.075268622076 20.2558
162.055380912632 100.0
162.218841876433 0.920783
175.082487673633 6.02335
186.055966853054 11.6729
204.065808236583 28.1866
205.982728053745 1.20612

>collision 40.0
51.0224669532658 2.59499
65.0391427152439 5.71146
66.0325115973915 4.61138
77.0405709699724 21.1123
78.0479862230508 2.22969
79.0548145024974 25.4155
83.0910725969007 2.66727
89.038865409196 12.8635
90.0476988206504 6.9606
91.0546407241473 15.5029
93.0634171525842 3.37247
102.048349662348 3.39001
103.055352007181 43.0963
104.048512407254 6.55511
105.064086203668 9.75939
106.065458069001 51.84
107.050415205062 47.481
107.960900448744 3.90395
115.054433236124 38.4009
116.047971011193 62.0497
117.058751277412 29.6982
118.065025000163 10.7964
120.080491391263 4.4977
126.957300302964 8.60914
127.969608969743 15.5154
130.064009940665 33.7142
131.050476572161 34.0465
132.043634190067 6.73706
133.052128799408 32.7641
134.059441770006 100.0
140.049502677881 8.0534
142.063902586802 5.37607
142.991883942771 2.86945
143.071051256023 2.49922
144.041229552701 4.10138
146.060868190146 48.0377
147.072036213993 3.97387
148.078482052799 5.34368
156.041822302308 2.60602
158.057374545289 22.9475
159.06752655464 56.839

