>compound Anandamide 0-phosphate
>formula C22H38NO5P
>parentmass 428.256148124816
>charge 1

>ms1peaks
98.0592349924788 0.543597
110.058602149113 0.622411
124.073598179663 0.518664
142.025991729303 5.5442
189.159709238579 0.92025
208.03626883024 1.4306
245.223479087437 1.06308
287.236051414755 1.75408
330.279287888514 88.9783
330.442596702069 1.41181
330.492100334571 0.829905
330.559504363652 0.544814
330.689956127813 0.514225
330.787745362892 0.658876
330.869146408825 0.531011
331.01754626808 0.602536
331.28090414662 1.902
331.367447824149 0.605685
427.246033296219 0.922306
428.25485507652 100.0
428.447579076688 1.35442
428.606957738745 0.761903
428.712505631505 1.03411
428.873104377321 0.847783
429.000618155505 0.676291

>collision 10.0
44.0501911315854 1.78077
79.0548573732803 0.695424
81.0706651620092 0.661355
98.0604875207331 1.98788
110.059672736561 0.893963
110.097776277768 0.560634
133.099693666319 0.810013
142.025696246282 5.07984
192.138162143141 0.524535
245.228034832155 1.73172
269.229655093408 0.704387
287.231586988652 1.36606
330.278497745731 100.0
330.439988967349 1.57838
330.515011940011 1.00128
330.603820325145 0.644915
330.69230654085 0.660931
330.765589748049 0.712056
330.833739218414 0.511358
331.019176710902 0.659214
331.282437851507 1.40794
428.256148124816 11.2494

>collision 20.0
41.0392001456339 0.735706
43.0538461795511 0.635707
44.0504405544246 6.78405
55.0556973136607 1.46914
67.0548884438871 3.23301
69.0696285676072 0.885451
79.0529096419953 0.976147
81.0697311480423 3.78867
83.0848604628619 0.653898
85.0560648661404 0.671772
86.059463902504 0.538133
91.0548175528131 1.65263
93.0704683143895 1.96532
95.0860159823998 2.17106
97.101222541465 0.617576
98.0601512927873 8.77155
105.069097850838 2.05787
107.087528865105 1.84157
109.101906112821 1.85384
110.059259235841 0.5636
110.095906336255 0.911311
119.084720482619 1.97407
121.100923405313 1.45908
123.117286510858 0.59574
124.074477002223 0.591306
124.110101631816 0.783364
131.083867916164 0.818776
133.098938765662 1.42897
138.093739139592 0.945301
142.027883312923 4.67495
145.103468376822 0.620963
152.104170216867 0.752675
161.130813340911 0.845745
163.14502501845 0.560628
166.124775453252 1.03848
171.116067459812 0.577634
180.138973070805 0.687514
185.126793885264 0.69804
191.178340793507 0.745537
192.135308916383 0.905439
203.175147524217 0.51188
206.152955598265 0.989886
220.168625931535 0.794565
243.211851762078 0.875488
245.227740015826 2.20361
269.225646570351 1.21517
287.238131456514 0.693859
302.249084719165 0.708925
330.278493781572 100.0
330.441470309548 1.79362
330.490862742974 0.877887
330.638789554841 0.817007
330.744700286845 0.588768
330.929924330972 0.672925
331.280080629533 1.39584
331.358695857754 0.527885
331.449829252509 0.823513

>collision 40.0
39.0246431979795 1.89753
41.0398457973037 11.3442
43.0192574915043 1.06907
43.054979023722 11.4418
44.0503267282224 68.2291
44.0952551389434 1.36111
44.1121127724809 1.26584
45.0383751181579 1.77546
53.0395479393774 9.01384
55.0184902858224 9.36797
55.0552794649606 35.2416
55.1079864156844 1.17472
56.0500536105653 7.5191
57.0711842294351 2.55483
58.0655311766197 2.80176
65.0380637706756 4.01204
67.0543071613873 81.0647
67.1331345869177 1.35642
68.0544221348589 1.57102
69.070455002965 38.0697
70.0681283343401 2.36753
71.0834786857906 1.34899
72.0473195487483 3.91094
74.0621475020307 1.42613
74.0956556804355 1.24919
77.0387352310637 9.4541
79.0535879301256 57.9787
80.0518632666794 2.12417
81.0699583593375 49.1739
82.0665465226548 5.46667
83.04633540763 1.76744
83.0859349841291 6.42768
84.04820877896 2.16061
84.0755692192123 1.2757
85.0521649292896 28.8916
86.0612725253217 7.32384
87.0965240010291 1.14845
91.0545671358532 44.4466
92.0602083838366 5.49779
93.0695450963136 50.7871
93.1365827870372 1.3535
94.06469378027 1.29828
95.0482025418893 4.30762
95.086539587509 32.8208
97.0899348739442 3.27357
98.0595269525014 100.0
98.1477879529474 1.47613
98.4814519227488 1.26475
99.0720788227016 1.62247
101.061902023412 1.73895
103.052656285028 1.47463
105.02708176694 1.09474
105.070664446992 20.8042
107.083449573331 10.5674
108.085717175558 4.02435
109.101955201612 13.4558
110.095035251827 11.4254
111.070488015942 3.23539
111.102577069412 2.55908
112.073804962638 4.99965
115.054721267153 3.38407
116.060368449753 3.56568
117.068544465071 2.99559
119.085526772128 15.1282
120.079854499913 2.90604
121.047578112622 1.0618
121.0974242085 9.25204
122.055909457165 2.1951
123.119769627326 2.7386
124.075494035662 13.1907
125.084454653322 5.64911
126.089235386711 6.60405
129.070826969075 5.47652
130.072576133784 1.27378
131.086909746589 4.45388
132.074950042684 2.22943
133.100668666291 8.19518
133.142999323179 1.14747
134.097016068445 3.26523
135.114654681747 8.06782
136.074520666426 1.07112
137.088979624005 3.63942
138.093051288988 9.38919
139.099314765913 1.15348
140.105475300886 2.75535
142.023532276378 1.90477
143.082140350791 1.88435
145.099679387748 5.1192
147.113899366505 6.18188
148.074989447469 1.32511
148.11026735124 1.52711
151.101525381989 3.59268
152.106533886021 8.57901
154.123171620254 1.65746
157.100675720615 2.47442
159.110455891758 1.77244
161.132910325892 4.92908
163.145774689542 2.02892
164.106258336598 4.86897
165.113070578103 1.04151
166.121247387788 10.791
168.134358717643 3.13882
171.114842713159 3.81762
175.150276850139 1.05407
175.749437915313 1.27301
176.105056985243 1.81798
176.146154978727 1.13102
178.118704860669 1.04959
180.137534296451 2.65503
189.127404062752 2.10957
189.166129887451 1.50536
192.141632744129 2.11495
206.153121748655 1.66309
208.168385887557 1.04426
217.136012243271 1.04867
218.155443212994 2.47457
219.167793985238 1.14936
232.166087045605 1.67981
258.183211683589 1.83271
264.229676812282 4.19978
330.275317013812 22.5153

