>compound Astaxanthin
>formula C40H52O4
>parentmass 597.393459461801
>charge 1

>ms1peaks
63.9503299595443 0.884592
88.735620890327 0.581928
90.9768024054044 0.574382
109.100456084613 0.612213
137.088258283896 0.587967
147.119238292933 3.35832
155.113021570673 0.524695
159.117494782355 0.905709
173.124572358371 1.16786
185.128760694028 1.10596
195.122486412894 0.615609
197.135704891498 0.716654
219.133660541778 0.510458
226.951898806354 0.994876
239.144218429451 0.619756
287.200711840554 1.25782
293.182008107625 0.730786
325.80592260329 0.707288
332.102135192667 0.649104
361.248154602312 0.876135
377.247430352499 1.33599
378.250973252709 0.550305
379.261569915484 2.03746
429.27758694821 1.08628
437.28296288848 0.944129
473.293745883287 0.872791
504.329970683032 0.623251
525.324489524734 0.556305
551.380152625675 0.917405
579.379565689613 1.65939
596.381299635268 14.6692
596.555165965934 1.14125
596.791134738894 1.20722
596.910293461914 0.584192
596.993434072797 0.848031
597.393459461801 100.0
597.618376956688 1.23275
597.681829434758 0.638819
597.74146765862 0.785536
597.852976960506 1.27666
598.03200649254 0.917258
598.113645083631 0.584516
598.283819954538 0.560526

>collision 10.0
39.2591144448112 0.597182
81.0684573032456 2.56148
91.0545398115417 2.40672
95.0511664096982 1.26326
97.0598864712052 2.05485
105.070784633712 0.655996
109.099111772725 4.17674
111.084613487333 4.50459
119.082227847131 5.91451
123.114301513963 1.51414
125.091958202456 3.73379
125.132476670519 0.673231
135.080989197402 2.64897
135.114464166413 1.86073
137.091109647174 1.20895
143.076391880667 1.79482
145.096885459418 2.20336
146.192321265755 0.681848
147.116126139362 23.9284
148.121011939522 1.33091
148.221841920109 0.650188
149.057253282525 1.66969
149.094124276408 1.10347
155.107469035155 5.611
157.097462601298 2.43549
157.161291951234 0.586147
159.119380399585 2.22256
161.132130377835 2.14421
161.159302622915 0.700203
162.150306371269 0.826519
169.099899295262 1.16706
171.116385699557 1.87135
173.088986133746 1.05141
173.130987619979 14.7664
175.10942608681 1.29257
175.148622232395 2.12016
177.119761767064 2.08611
185.095794050407 0.648924
185.124758463847 0.659724
186.102223879651 1.04862
193.129715344304 0.890237
197.128260620923 0.734765
197.32728911691 0.769823
199.15243545856 1.38392
201.128816340331 1.4721
201.547482694749 0.847132
202.12942309313 2.01862
203.137961567467 2.5552
207.137506799258 2.05896
207.954130206346 0.813267
209.132284549023 2.50902
211.151039172691 0.834044
213.172817335752 1.66783
214.124523655225 1.5922
215.144039039177 2.57897
217.113104821754 1.75493
217.157190160163 1.09989
219.141341359363 3.42961
221.126244024347 0.583175
223.150118054052 1.56907
225.126728811111 1.66335
226.958311848336 2.63712
227.180035879267 1.69067
227.562833291474 0.775333
233.148549411576 1.98591
235.15435507594 3.39537
236.114272428238 0.924047
239.162756472962 1.13921
245.125842153173 1.00496
252.825101804842 0.948494
253.165507905007 2.31606
255.126587490944 0.971554
255.297651423007 0.875577
257.137667309117 0.917825
260.151486638567 0.894081
263.169932118415 1.54881
266.13415747171 1.01122
266.188747154014 0.617523
267.169219124293 2.46181
269.195673394381 2.40523
271.16938712935 1.11912
275.17119743973 0.930922
277.152772484708 1.74987
277.195708001109 0.724149
279.170781916122 2.27202
281.185870072309 0.817781
285.102075503483 0.802356
285.185475229097 1.97751
286.587285673234 0.588347
286.6882926431 0.688731
287.201096486228 2.72726
289.195658592697 1.4288
291.214853240918 1.0696
295.204970640301 0.959625
299.20102709528 6.03328
299.255175239354 0.686087
299.899448828132 0.737131
301.1895113896 0.953328
303.168263718452 1.47424
305.197281802511 1.77704
309.856588292305 0.985165
311.191775156838 1.07077
317.235546280441 1.23877
319.220214685935 0.582933
323.196216478507 0.733565
325.210253631051 1.93716
327.217002136683 0.758196
329.233152599822 1.70492
330.224173724278 0.730985
331.218759851691 1.26942
336.201293488619 0.675327
339.240177432523 0.788028
342.181286793871 1.12714
349.241896380308 0.755039
351.220101944158 1.13703
359.227006662571 0.944361
361.246396054923 2.80126
362.14414638286 0.615858
365.253427968466 2.05531
367.229344311967 0.62764
369.222415928983 0.611257
377.253063142195 3.11195
378.106028084413 0.672728
379.260934508033 10.1713
380.345436508436 0.818487
389.250866502534 1.24645
390.255262725448 1.25602
392.943604133617 1.2781
399.264238076977 1.79528
409.253432489164 0.700643
411.262759014997 1.30168
418.235856195103 0.64386
433.274875055554 0.841083
433.471528638882 0.614731
435.265616486636 0.77696
443.287892576996 2.93157
445.302517589761 0.916425
445.488862785146 0.597464
451.281063817248 1.57668
470.311745062134 1.01545
473.307854816529 1.77936
477.304467838551 2.56337
487.32361750523 2.8452
491.312817628999 0.646287
495.312078164375 0.993312
504.325489578839 2.2548
505.321289800026 2.87666
509.356286291236 0.726767
511.838457723507 1.19667
521.7227909404 0.786936
530.313495644321 0.850529
541.323247266016 0.852834
543.352714679723 1.81529
543.405035371632 0.720928
549.375578610492 0.587865
551.109147680805 1.06355
551.388528009928 1.94873
552.902477615692 1.08909
555.260430697384 0.832098
557.866593604972 0.89774
561.359806552036 1.39655
579.379215793523 9.52485
596.386405304892 16.0522
596.553142481061 1.13783
597.046507922857 0.621528
597.389833613489 100.0
597.572230125488 2.70904
597.616051135441 1.96967
597.682845097206 1.28759
597.799506795571 0.661079
597.94250136959 0.820094
598.215559549934 3.43876
598.311461943305 0.950922

>collision 20.0
69.0355216918718 4.3702
69.0704635854405 4.3681
77.0391871110865 6.82957
83.0452860579789 5.28137
83.0856688446031 5.01365
90.9756117647586 2.7207
93.0708622404954 3.78611
95.0522465670899 11.9158
95.0832509012956 5.59292
95.4317497892002 1.59882
105.068439336754 7.64502
107.084242695924 12.0898
108.093592333681 3.73193
109.099390480972 6.85685
111.08122342321 5.15298
119.085316497733 6.95792
121.099926415847 5.82154
123.079431903042 1.46734
125.09739013773 2.75162
127.070234696602 3.28999
129.099127937402 1.95691
129.359310688567 1.56616
131.084175686982 4.76512
133.065212841515 5.8986
133.100636736231 13.3266
134.070378565492 6.3399
135.080054391101 7.80733
135.120852577261 9.93073
137.095931178331 4.61072
137.169125819204 1.41779
144.086905364003 3.27773
144.430948929983 1.47166
144.662307632616 3.29349
145.102422436853 6.56953
147.116259646619 100.0
149.054468335525 2.37173
149.098777977875 8.10545
151.111440992907 2.38967
153.093780893377 4.48539
156.097368323055 3.09672
157.102779464837 10.4363
159.117049420107 7.38156
161.000365822866 1.51025
163.079913991649 4.35823
169.100659123709 8.4789
170.108807592345 1.56517
171.080316234762 4.86351
171.117252173198 6.33326
173.088824276645 3.85249
173.13135328315 47.6409
175.113896914539 4.69979
183.116008962955 5.14317
185.125135674271 25.4996
185.784005259291 2.92857
186.102466196274 2.48226
187.133044242393 3.71741
189.125801352652 4.79337
191.137102441801 3.90051
194.110056793811 4.49878
195.113860747459 10.9411
197.131253088265 8.83718
199.129411662921 5.2499
201.130093405452 15.7571
201.283107975328 1.44038
203.145103878004 7.24266
205.148010601077 6.25733
207.132554703075 5.33446
209.134338516869 14.0909
209.476024543518 3.91736
211.119692269334 6.19254
213.118416340632 5.25954
213.155049295959 1.48956
215.135985236301 1.64569
219.134053180938 9.24535
220.998523733292 1.30452
221.147254514195 7.1753
222.134528530899 2.17301
223.146955048554 3.13233
223.848006812792 1.60039
224.158875790883 5.09245
225.156651080016 3.13686
227.18197670856 3.68579
229.116672427362 6.34711
233.148136642837 2.28305
235.151503416722 3.4911
237.147196269934 1.82675
239.169573859254 1.3702
240.188974709293 1.36312
241.155333729262 3.71727
243.131246193836 4.1048
249.166080103769 2.4875
250.170266273174 2.75643
253.147359663775 2.83697
254.160650828365 9.21712
255.181215087097 2.98339
257.185401117853 2.83724
258.160840205389 1.31214
259.164900492806 1.57246
261.147675491732 2.52818
262.18463847755 1.47957
263.176688534438 2.55745
264.173411450783 2.43478
267.176967434137 6.16692
268.16657610831 2.77817
269.140454563973 5.28124
269.193619048898 1.82195
270.194602360996 1.52196
271.165563921838 1.6956
271.210772864895 2.36109
273.183721092282 11.7121
273.593591105315 1.94273
275.181117026791 2.60895
277.196756141429 4.69556
279.96620890452 1.3059
280.180008566339 2.85699
281.142923042508 2.46088
281.19771942943 1.78054
283.203746474771 2.25219
285.182684085202 5.97203
285.951371354418 1.36243
287.195141171673 12.8641
289.157715243693 3.76754
290.163994747513 1.66381
293.1883196464 3.55559
294.377644078322 2.17611
297.187622011882 5.02168
298.161635828713 3.45443
299.19121258361 2.03986
301.195874273655 1.9985
311.208638657764 3.90978
314.245378350297 1.3097
315.186145569777 3.18774
317.173247811692 1.30952
323.208040465652 2.36706
327.171014323816 3.51119
331.212342599423 1.78827
332.759263548766 1.83292
335.234329425304 2.24081
337.184225925604 2.47886
343.192684458296 1.54262
344.474156037638 1.34642
345.217966397521 5.86422
349.206533080134 1.89613
351.233799666335 4.54929
356.234304491246 1.8185
357.20835865093 2.51107
361.243561864701 1.92661
363.227334604346 3.61964
364.244766369635 2.22703
364.628409169513 2.22955
365.219503297863 2.59475
371.230545972093 2.07629
373.229852909994 2.97382
375.225079007732 1.58215
377.243816086089 4.73662
379.250304171497 3.505
381.223923649292 4.32544
383.163856565763 1.46846
390.248022424589 1.43474
391.211827855953 2.99279
393.27443428474 2.15978
399.265379611028 2.65713
407.272265343945 3.75883
415.253145785171 5.35846
427.285431323605 2.47845
429.272490390192 3.11255
443.301209528324 6.66336
451.300524132112 3.22556
454.286534093343 1.76132
455.601534049452 1.52196
462.233519030694 1.554
475.83311447354 2.11542
479.310570210839 1.49897
483.312795678422 1.67327
484.812115599832 2.86564
485.307643744675 2.44174
491.320353325393 2.291
493.013532536674 2.0989
504.324690076981 6.96632
504.851482245447 1.51822
505.325844922151 12.0851
505.729408647948 1.56672
518.315375198166 1.89357
525.366868335784 3.69413
537.375072260302 1.99011
551.379226539062 1.5543
565.284829922316 1.7583
568.839156342691 1.91787
579.368698267838 6.41808
596.384885336901 25.377
597.293462012579 4.66311
597.391204759477 25.534
597.869223627615 2.00809
598.37252953282 1.9692

>collision 40.0
43.0199472678094 10.1494
43.056996975472 4.61162
45.03271611081 5.78557
55.0550381474498 5.76366
64.9799048572145 5.72447
67.059358776829 8.54211
69.0725994566106 12.6584
73.0668726147259 2.8284
76.9970765072167 3.59618
79.0574574488384 18.4703
81.0164964115955 2.81313
81.0696291451736 41.7144
82.076152267343 5.3215
83.0521106795378 9.30168
83.0855620473165 6.51105
90.9767196269089 5.75433
91.0523718109914 7.25151
93.0721446424143 6.92365
95.0483734848485 14.8121
95.0858869211125 16.6584
97.064281541438 5.3352
105.070028035478 32.0067
105.105361578924 2.71721
106.071012755141 2.95154
106.618292025442 3.08779
107.085166469598 29.3074
109.061948536817 2.70069
109.101484440891 46.5453
111.080145805888 19.8408
113.060546970374 7.17274
115.056478617742 4.90109
117.069424908293 4.74464
119.049244486568 5.90199
119.085349206035 68.0664
121.099714955161 35.7249
121.536279340856 2.51057
121.861213527597 4.25297
123.081528171238 8.02466
123.275656320463 2.82168
128.061070204059 10.5599
129.069870463979 10.6284
131.083309325181 14.3115
131.513676612773 3.2541
132.095379193102 18.2049
133.092093539011 19.5745
135.078721950407 10.6273
135.118439325659 13.9411
136.475781425501 2.35735
137.096033219275 8.01352
138.251768162143 2.45758
142.080659431289 10.1341
143.083211024803 8.53837
145.099463155009 24.4136
147.116931574284 100.0
147.180378671638 2.76061
148.220193558195 2.45765
149.132607321915 7.09641
151.111328282399 16.4868
157.102878844636 26.0464
158.06478460791 2.35584
158.105376496047 9.64097
158.963834597345 3.66186
159.114076951631 17.5706
159.577617715907 2.89112
160.126724012773 5.88
161.122838543827 10.8275
162.06252037846 3.54318
163.073763627949 9.90897
163.100963928549 5.32122
165.074737552636 5.47004
168.094917853616 7.25747
169.10319580423 26.3518
170.111677480797 12.4202
171.11661740155 15.6022
172.086671993471 3.66513
173.095473926424 22.2599
173.131398299296 33.4628
174.104263507768 4.03069
175.10909265836 4.8181
175.15536785541 4.62058
177.091128153171 9.62404
177.127797620168 3.46544
179.098691036983 6.9657
182.108140724518 2.76097
183.117318213724 24.9935
184.122781224304 4.05947
185.130312241503 12.2285
185.373624006519 4.04708
186.107110881493 4.46087
187.147173172756 11.3229
191.133511818839 3.11832
193.100379180519 2.68508
194.111448304231 7.82332
195.11908103111 19.5843
196.12145408757 4.06028
197.129364228997 17.0867
198.137654342229 2.60366
199.152863313138 16.6581
200.106595743387 4.69239
201.154394725961 5.39144
203.141267983404 8.20913
203.183499851672 2.82092
206.108714909831 7.92095
207.115572847904 3.7995
209.097045659228 2.8237
209.135211416218 27.0636
210.102863228281 5.34253
210.14248533731 5.08983
211.121140564338 21.1258
212.157688067078 6.41061
213.124849855417 12.3081
213.16269459147 6.29746
213.20372123013 2.4802
221.121749719352 4.21629
222.138967024608 6.41856
222.196935174492 2.70775
225.126610163226 9.3384
225.167660811935 7.04617
225.671648190257 4.11593
226.120119715625 4.78085
226.902432868352 3.41024
229.092467077833 2.46426
231.130310207661 13.7956
232.117735640983 4.84675
233.131057909271 8.50229
234.139577553405 5.23481
235.140836839309 5.82428
237.156040417616 16.1087
239.326304780862 3.85737
240.182040522579 5.08645
246.874566958025 7.2455
247.143033229163 12.9952
250.140615614559 3.10976
254.119559294382 6.5857
254.166626036265 4.17319
255.178824547957 9.16625
257.190076525593 7.72971
261.162698131335 2.43534
262.162827315647 3.65567
266.164511445104 7.82987
266.212085563495 4.11893
269.245320361389 8.25409
271.150677406024 12.4485
278.199920148 6.99824
288.15982075993 5.40119
296.158290698775 3.54504
296.218212248283 2.34613
304.193738870979 4.693
308.159944733791 3.35497
311.180973316936 3.2885
318.236580963661 6.26477
324.192476150384 3.05571
329.234431807739 6.89238
332.235933648428 3.59638
333.195896957479 3.69593
337.146797211849 6.2979
351.685354677884 2.84835
365.214417954729 4.421
370.932045942528 2.61667
378.848900122269 3.59252
385.202045899815 4.04708
385.807895345742 2.56434
416.263888055547 4.11904
436.947882848746 3.75626
454.221010806933 4.15508
471.292776925482 2.54876
559.319811906602 2.58188
596.386403856794 5.01731
596.46755205524 4.08463
597.367715965941 4.6206
597.460440858292 9.15425

