>compound N-(3-oxo-octanoyl)-homoserine lactone
>formula C12H19NO4
>parentmass 242.138404979332
>charge 1

>ms1peaks
56.0503835065109 0.859602
102.054832417234 9.42822
141.091606223614 4.26018
184.130590147865 0.590579
214.143419342144 1.03375
242.138820325209 100.0
242.281490251585 1.63036
242.324584502638 0.861422
242.367473350935 0.63732
242.395756921526 0.546301

>collision 10.0
43.0543526122652 2.74678
44.0498423547823 1.62981
56.0501384835093 19.0515
71.0862113901061 6.25439
74.0237188731142 1.0028
74.0606800126671 9.3466
84.0453483967523 1.37902
98.0603076278692 6.9446
99.0804661032554 14.4886
102.054968377228 100.0
102.145486177436 1.74714
102.174398348668 0.74036
126.054922133355 0.750267
141.090269659311 53.5985
184.131978208033 7.75593
196.132748312509 4.61712
200.126980311768 1.96989
214.143289135202 4.73362
224.127932533281 2.87155
242.138404979332 30.9348

>collision 20.0
41.0387452129851 0.700531
43.0187783182683 1.02819
43.0551315748604 30.1765
43.1158357229032 0.574166
44.050002292989 6.60092
46.02975433233 0.5239
56.0499101749549 22.8532
57.0699519951331 0.739523
68.99700101704 1.56786
70.0280232363105 0.966284
71.0128301138556 2.62077
71.047123322827 0.643714
71.08589586693 61.8103
71.1634401154944 0.936557
71.1894789479553 0.598879
74.0240445180522 9.82526
74.0602353898432 47.2766
74.1411983517919 0.942214
84.0450556996725 6.9466
85.027774761102 1.49731
95.0852959508186 2.07058
98.0603337638742 7.08445
99.0448375674977 2.52688
99.0804214022269 42.055
102.054851405785 100.0
102.146505071541 1.60084
102.172600242879 0.840703
102.24827094643 0.582062
113.060017303233 0.949022
141.090478779059 74.1417
141.20107142227 0.962993
141.228155388891 0.629503
182.117084278999 1.23771
184.131966522019 2.54361
196.132965837881 1.66267

>collision 40.0
28.0187566946275 0.906445
29.0383064428891 0.675016
39.0227321938393 0.626602
41.0389747949223 10.0039
43.0189052926481 2.3021
43.0550116991153 100.0
43.1160993909965 1.83232
43.1351985323031 0.782348
44.0507461774596 5.78925
46.0288770337271 0.930339
53.0405665519943 1.85102
55.0548446727948 3.2015
56.050073029369 21.9775
57.0331802722623 1.78017
57.0703206843511 5.13464
67.0554094173468 1.91933
68.9976219420425 3.57991
71.0122578888529 3.24871
71.0474332925644 0.821105
71.0860873993456 11.4784
74.0241501633523 15.9379
74.0595637735423 13.5018
81.0701190958218 1.08112
84.044272235992 7.07037
85.027276668602 2.30666
93.0694328961073 0.685797
95.0849923888608 1.65015
98.0611775829585 0.637305
99.0433954615917 1.82271
99.0791538140228 0.896164
102.054271623523 6.10958
113.059342117894 0.813723
141.091095951659 2.53332

