>compound N-heptanoyl-homoserine lactone
>formula C11H19NO3
>parentmass 214.143433648607
>charge 1

>ms1peaks
42.8191416483776 0.500314
43.056924432884 0.712224
71.5844980220982 0.525123
74.0607940125989 1.18885
85.1033879090802 1.66574
102.055345310253 7.30214
113.095419310758 2.97649
136.069420024241 1.41077
174.042335060545 0.926377
186.144324403702 1.05505
196.133800869156 4.10872
213.1480087097 1.11308
213.549826715926 2.82897
214.078776773266 3.02757
214.143433648607 100.0
214.339982283624 0.953078
214.446526679723 0.597764
214.503377569635 0.602769
214.568441309172 0.612213
214.681289684981 0.634179
214.776718825173 0.53989
214.813656671732 0.605561
214.863829517412 0.513552
214.947294983549 0.574578
215.136529761675 1.05853

>collision 10.0
40.0454374998192 0.901839
41.0360439016369 1.2713
43.0553185433619 21.7743
43.1040017980213 0.887848
56.0519629278373 1.1666
57.0705073373786 14.4871
69.0686922505126 1.18599
74.0595487786991 19.3885
79.020128780037 1.34516
85.1015698842344 52.7181
85.1643172375455 1.41036
85.3236224966003 1.2052
95.0844301470275 3.44339
97.9945538942014 1.61338
100.683625184131 0.934783
102.054737819736 89.176
102.143304853808 1.80251
110.698554669686 0.914249
113.095888133264 100.0
113.193642299462 1.57158
113.222429854622 1.07572
136.002169265539 1.44064
136.065479887447 5.88179
137.000287972097 2.61156
173.541235609645 1.63497
174.543673337286 2.48263
175.08647277216 1.15031
175.537921102392 1.76983
177.12858867909 1.14819
177.976488544045 1.20877
186.150104776666 5.24333
196.131195210212 12.833
213.144962294182 1.27954
214.141745470265 26.5298
214.253842502311 1.29378

>collision 20.0
41.040104475 6.76356
43.0183687779937 3.61506
43.0552117613394 100.0
43.1512095794871 1.00849
43.1944735731985 0.962351
44.0497802387989 2.47188
44.5464610428595 1.7003
46.0258549083236 0.971055
55.0547550089914 1.46775
56.0529497701609 2.89964
57.0710215771631 46.3063
58.9869559055769 1.20426
74.0226740751123 5.62962
74.0602090436886 29.1253
79.0275216599617 1.51301
84.0439738308878 1.43917
85.0270053755298 5.27998
85.1013457872591 60.9803
85.1798096016438 1.18673
95.0868949346453 10.6449
100.041223590893 1.10925
102.055794008129 41.4915
102.92392908527 1.15995
113.093161637449 7.71134
128.069660273635 1.1816
136.058989520461 4.0951
136.95179058558 1.90483
149.130328607315 1.88573
154.030063907104 1.34509
175.987183139099 1.52169
185.867065448128 1.13216
196.131041717426 1.01286
203.976260785446 3.45553
210.049325452498 1.31049

>collision 40.0
41.0386787950505 20.338
42.0364221503785 1.25798
43.0552063211588 100.0
43.1870147726152 0.9443
43.4801348674752 1.0294
44.0504873730435 5.97627
46.026433645611 1.78151
55.0541629726344 1.01042
56.0507240710182 12.1552
57.0707246791512 10.0925
58.9868645889782 1.96469
74.0231075485998 7.15999
74.0582994622772 2.39345
83.9532945685628 1.06186
84.0456786583569 3.39633
84.0759239082719 0.887541
102.915528277105 1.10202
110.075408102972 1.01286
126.769261747203 1.01547

