>compound Dihomo-&#38;gamma;-linolenoyl-EA
>formula C22H39NO2
>parentmass 350.306655099089
>charge 1

>ms1peaks
44.05094361758 0.849131
62.0606571411965 8.82651
233.638529578569 3.64617
271.242346817262 0.791471
272.644331030022 4.74395
289.251299908455 1.19119
311.128082082751 0.913289
311.65445695574 7.30515
332.291542550196 0.575369
333.28774815887 0.554653
350.306655099089 100.0
350.52661161162 1.14496
350.572217805975 0.862269
350.639094651634 0.789184
350.699644161895 0.805816
350.806830010815 0.828626
350.891949353649 0.606437
350.938058555643 0.570373
351.011955856916 0.848443
351.163905964074 0.505397

>collision 10.0
44.049457030302 13.6312
55.0530606947584 0.733934
57.0708036460177 0.69249
60.044168281768 0.989534
62.0595907928589 100.0
62.1313321404768 1.75718
62.1516403863998 0.719313
62.2299752227338 0.501277
67.0539569927082 2.02737
69.0689052357912 0.779096
79.0531677879154 0.685168
81.0689681141077 4.46874
83.0852983724919 1.33343
91.0504692379754 0.682674
93.0708236095563 0.975478
95.083047111814 4.32975
105.070876586712 0.654637
107.083398129343 1.09197
109.098387654158 2.96956
119.083206943404 0.595571
121.099460164223 2.47253
123.114864015647 1.3744
130.084527058425 0.641475
131.081534330447 0.648223
133.097923208104 1.30157
135.115742399205 1.81542
137.129649965464 1.29525
144.098935355778 1.94375
145.101190882211 0.720118
147.117054432274 0.591767
149.129396069552 1.12171
151.148057447958 1.5187
158.115800125292 1.1782
159.114767812304 1.21554
163.134950594103 1.16567
165.16197117707 1.19755
172.130416705014 1.57428
173.128197323155 0.76993
175.147257875071 0.727189
177.152203416192 0.841305
179.173816235226 1.07851
184.129820239545 1.02324
186.145980655217 2.04775
187.143422612554 1.01467
191.174415702321 1.11256
194.627530426957 8.06173
195.13605404097 0.557055
198.15038508359 0.548547
200.160952767869 2.09092
201.160269151679 1.04025
205.193173789858 1.94957
210.143626753394 0.503422
212.163545512186 0.712076
214.178012116785 0.977731
224.158961326945 0.502738
226.173861291802 0.844056
228.190039498623 0.545753
233.634937411299 20.6062
238.180042257544 1.05261
242.209952002826 0.843249
252.192190383628 2.42483
254.208401405016 1.1171
261.257477868922 0.566882
266.207300146822 1.80742
268.223594495531 2.37652
270.24066823727 0.656153
271.240163277216 5.66963
272.640637172004 1.35766
280.221395492204 1.29813
289.249137835686 7.83147
294.240295140198 0.532918
332.289874849639 5.20203
333.275040928131 4.31356
350.301936120474 72.5931
350.468666472288 1.3111
350.523832123496 0.883217
350.649961179914 0.644187
350.845633786161 0.551806

>collision 20.0
43.0548431324007 0.941961
44.0500464544812 21.8042
55.0543458718275 2.21941
57.0700896635168 1.20135
60.044990063768 0.548443
62.0601306526162 100.0
62.1325194708433 1.73119
62.1564362506579 0.861031
67.0550065258046 5.32605
69.0699010821185 3.68479
79.0545161936515 2.49645
81.0698493161242 10.9328
83.0850979650648 1.68539
85.099847896516 0.519667
91.0545293034443 0.922598
93.0692011133975 5.34364
95.0844386823526 8.7944
97.0634917475666 0.552302
97.1026222624995 1.10686
105.069519863093 1.53724
107.08524255754 4.44482
109.100438403603 3.95403
111.078985107111 1.00102
117.067202826151 0.645925
119.084555880913 1.33044
121.100878360642 4.53535
123.117858292475 1.57532
131.085252694252 1.36219
133.101070848173 0.821334
135.116329395705 2.64832
144.101552419405 0.713813
145.101507027902 1.38602
147.113589146687 0.839298
149.130752928106 1.45812
151.148630120079 0.753851
159.116944668551 1.3121
163.144754900718 1.2029
163.613827599655 0.670026
172.129188019353 0.562559
173.131950363458 1.14315
175.146077559238 0.794709
177.163592883786 0.984072
187.1501774064 1.09695
191.179760921604 1.14563
194.629189587553 13.7978
201.161121387777 0.691895
205.193217372442 1.09944
215.181436576477 0.505958
233.640553488613 1.11719
271.241756973105 1.2371
289.252113707773 2.33103
332.296153491489 2.50426
333.275980991341 0.640419
350.309833351939 0.755925

>collision 40.0
41.0391043993596 7.29725
43.0186827734037 1.83926
43.0539282107366 4.55267
44.0497655859241 64.9071
44.1111262892763 1.1156
44.1357416464542 0.524434
45.0341790562686 2.80477
53.0373117817761 0.846842
55.0178210659411 1.74914
55.0542806500679 24.265
56.9645071332022 3.86782
57.0327266701676 0.577266
57.0704212677734 4.00806
60.0429982731213 0.664509
62.0602445618126 100.0
62.1328632751804 1.53003
62.1533992810194 0.947193
62.1789432413579 0.561181
65.0389972038277 0.693567
67.0542146867791 41.0296
67.1306907260241 0.549282
67.9803056201609 0.532676
69.0700845405542 13.6134
70.0293788136169 2.30458
71.0863495368015 0.589472
77.038469767102 7.8112
79.0545199805749 27.859
79.1349470410938 0.601138
81.0696129926465 26.9821
83.047661161126 0.622919
83.0848673253747 2.27817
85.0541171145899 1.19724
91.0535163314424 17.8465
93.0693205206918 26.8902
93.1509475689516 0.536617
95.084825496184 20.1652
97.0626371934637 0.805733
97.1010439066534 1.21272
97.9914077732236 0.980087
98.0596874003464 2.61858
99.0420877569234 0.794531
100.007612378036 1.77096
105.069683053187 7.18624
107.085527010807 8.7047
109.100181559898 3.78496
117.068818574013 2.06877
119.084361771828 3.50825
121.101980437427 4.53308
123.110471056951 0.654631
124.005444875989 0.558096
131.084230488058 2.95688
133.103944633295 1.24083
135.114343165999 1.25901
135.943963626489 0.696293
145.099571823303 1.92357
147.112012318682 0.673796
149.127865260909 0.568357
159.118117287227 1.26288
163.608224046114 1.03778

