>compound Diosmin 
>formula C28H32O15
>parentmass 609.182486759922
>charge 1

>ms1peaks
301.069948016517 3.43367
463.124172468469 6.25864
608.197881859809 1.12122
609.182486759922 100.0
609.477058034483 1.02379
609.59340131525 0.787726
609.637794293148 0.730507
609.715867517635 0.755611
609.77436411157 0.625564
609.900565539559 0.750223
610.175856901755 1.1139

>collision 10.0
85.0267259220527 0.982898
301.068080735024 22.9471
463.119412337282 73.8958
463.3083356431 1.06822
463.374549821231 0.579913
463.428190091097 0.506756
464.12358287484 0.736458
608.189811790088 1.57325
609.176802096396 100.0
609.463158993724 0.865915
609.741639188088 0.670627
609.893445194743 0.599438
610.160251056669 0.783149

>collision 20.0
71.0493589487834 2.2128
85.0290555271085 2.87311
129.054866420161 1.91308
286.047593969467 0.61136
300.088508758078 1.16564
301.070302020298 100.0
301.222243784147 1.57056
301.274192927389 0.853802
301.333561362915 0.615909
301.375694811977 0.52939
301.496927471879 0.603613
301.611486490283 0.618336
302.071646454479 0.608096
463.123569179891 84.4762
463.317032797746 1.2913
463.390796721701 0.787554
463.65651554866 0.627597
463.769495258413 0.544176
463.874753563593 0.615203
464.098904934177 0.644449
608.198476098673 0.656951
609.17949370645 7.01895

>collision 40.0
57.0339200337214 0.549568
71.0498370615563 3.10124
85.028645989508 3.12263
258.051352734578 0.574054
286.047248650583 3.33542
300.086009585241 1.11604
301.070735136245 100.0
301.221513710149 1.75566
301.285567667634 0.8243
301.448625260393 0.524581
301.671726597128 0.542054
302.077070391993 0.600991

