>compound Rutin
>formula C27H30O16
>parentmass 611.16310312199
>charge 1

>ms1peaks
129.059589341094 0.677024
303.051972762892 30.2584
449.109206848666 1.25489
465.103778371085 14.1935
611.16310312199 100.0
611.582129377301 0.841553
611.641165157623 0.640619
611.704588647571 0.862664
611.829529100328 0.997541
611.927998648564 0.573664
611.992664860456 0.585065

>collision 10.0
71.0522653993222 1.04758
85.031185727172 2.37957
127.040530864745 0.569038
129.056267999723 3.33985
147.065961367479 1.86109
303.048932781909 100.0
303.20641778644 1.30986
303.250140085654 0.713159
303.429485295363 0.66443
303.623219247571 0.529991
304.05183867057 0.697654
449.102812337551 2.18639
465.100114141786 30.4445
465.290189767203 0.5102
611.156693995336 12.1676

>collision 20.0
71.0525845969345 3.38562
85.031835083981 6.37016
129.057627856886 4.2862
145.052093970519 0.752037
147.067920006881 0.867902
303.051821786178 100.0
303.205419415818 1.69031
303.259516039089 0.850156
303.336809031257 0.523901
303.442643431354 0.518559
303.591867153504 0.521972
304.053716561766 0.601326
465.104061090992 3.22008

>collision 40.0
57.0375282691917 1.60762
69.0372002756697 0.829401
71.0530889734061 10.6423
73.0314909841492 0.643462
85.0322696845263 13.9889
97.0326780457886 1.529
109.032689941013 0.56293
127.042732964042 1.04428
129.058115257686 1.47288
303.053172055977 100.0
303.207099153693 1.72264
303.256527292122 0.804994
303.306811560822 0.547483
303.415054950599 0.587581
303.467399728368 0.5498
303.536438418177 0.511272
303.633446238492 0.582842
304.056877544639 0.663229

