>compound Leukotriene C4
>formula C30H47N3O9S
>parentmass 626.310809412262
>charge 1

>ms1peaks
189.165542540817 1.49107
301.220298689423 1.10286
308.09101864912 3.25563
319.223966872766 1.14696
608.301492530736 1.52527
626.310125732026 100.0
626.54112046822 1.68253
626.601640464424 1.28151
626.639882522457 0.840654
626.703561156726 0.967946
626.743903669081 0.708628
626.808731924353 0.501925
626.861714705863 0.883198
626.929681203277 0.562157
626.965591427304 0.539459
627.063834472808 0.854328
627.143174266911 0.64089
627.303347562826 0.834032

>collision 10.0
57.0725334950326 0.69708
81.0689641704624 0.733028
83.0890411954546 0.54288
91.0542422493034 0.619771
93.069092659948 0.644015
95.0827922255167 0.675368
99.0446436904826 0.766738
99.0772149502586 0.563839
105.068068808732 1.44572
107.087918722485 1.16957
109.103107551493 1.45562
115.039797916998 3.34008
117.056540354967 0.829234
119.085779519504 2.65285
121.100049343834 1.19061
123.116734855621 1.01196
125.061104457406 0.951392
126.063433811526 0.69458
131.083503328238 1.64218
133.101755030654 2.64343
135.082821151193 0.809053
135.112113725083 0.679938
143.069054970192 1.75833
145.06037892322 1.15021
147.118441071711 2.36875
149.129579687491 0.74211
151.077536711697 0.536017
153.092877315999 1.90485
157.101277103341 0.539238
161.639933256957 0.54056
163.141928141977 0.735574
165.130637301686 0.582417
169.122951401063 0.624097
173.130860643781 1.64977
175.150152421743 0.584375
177.035872206552 1.03296
177.166767274477 2.59992
179.046126204211 4.67523
181.099836953296 0.835374
187.146937234118 1.48335
189.163722843955 35.8071
189.207366480684 2.46848
189.236312291767 0.921136
189.28010960163 0.61347
189.329963334462 0.56404
189.777896308249 0.867802
190.168986005012 1.12303
195.115337411215 0.575709
199.115098867853 1.01733
199.151165027041 1.12844
201.159886967575 0.522522
203.109063084686 0.640953
203.175918446989 2.83421
205.196032633764 1.11419
217.119483152305 1.75266
231.135828941996 1.95676
233.06152884886 1.05794
235.168879096029 2.73616
241.194817071142 1.27257
253.186710049689 1.08321
255.205691787709 0.991445
259.167306240758 0.59643
265.196259394581 4.89333
265.23705446438 0.698878
273.187284074314 0.886762
283.204526277347 4.66429
301.216821095735 34.884
301.337853156047 0.59194
301.384020994592 0.590811
308.090751160129 59.0444
308.131396603613 5.56497
308.177363985249 2.34561
308.221098001962 1.4069
308.255926450936 1.09862
309.081422379815 0.665898
319.228344848947 13.234
319.25687696063 1.70285
319.277294678947 1.00226
319.306494018512 0.578028
479.252072958228 1.86754
497.271366803843 1.38585
586.975519598291 0.518574
608.302803880003 8.34287
608.36207062945 1.2409
608.40410076811 0.705838
626.310809412262 100.0
626.467400961025 1.84636
626.538118681483 2.07999
626.61887808776 1.28287
626.659673783384 0.818195
626.735778765987 0.725817
626.949737797485 1.24556
627.041728326926 0.849378
627.098147559592 0.965809
627.19831951616 0.769577

>collision 20.0
45.0315955209827 0.97816
55.0176518328069 0.71906
57.0187296260435 0.984139
57.0714265104721 0.877858
67.0540506262466 2.96911
69.0311895947268 0.529344
69.3550237437704 0.640261
71.0496023397316 1.18505
71.085430393849 0.637193
79.0541327737081 1.6427
81.0720573564807 1.50523
83.0852947229545 1.55265
84.0441795027128 1.38238
87.0441794249812 5.54367
91.0576267482169 2.69409
91.0841094074463 0.714849
93.0697895046635 2.92907
95.0852707824368 1.92877
97.0676727922416 1.24175
99.04586088102 3.34676
99.0823838701215 1.39157
105.069173509082 12.0695
105.087067875354 1.0066
105.102256430766 1.20254
107.048425429908 0.789495
107.087022716584 2.48577
109.100545430532 2.49893
111.077625195209 2.16965
113.057306012999 0.696727
115.040018192643 8.63955
115.060283127669 0.788526
117.055920446153 2.23712
117.072691152397 1.87323
117.085683885828 1.03613
119.085249117721 10.4414
119.126729578025 0.62786
121.101245878241 4.23937
121.130249933097 0.678094
123.115577075861 3.74065
125.059983041838 9.53219
125.095929125593 1.04804
129.069768404408 1.72528
131.084475326034 1.54803
133.099950782537 4.85464
135.079464036785 3.66116
135.119602592578 1.86339
137.059435093374 0.912049
137.131926294585 1.41493
139.070923379541 1.03004
141.066310159846 0.921139
143.077182211187 2.0658
145.059825152347 1.30923
145.101401091503 0.671873
147.117209216348 2.79384
149.099275698629 2.30504
149.130883101569 3.51562
151.072855692877 3.38907
153.085474728197 2.38812
155.102687316369 1.00448
157.08843962608 0.643943
159.078423707372 1.45804
159.114766686295 2.82864
161.12901011033 2.99159
162.019571343498 2.23444
163.142986481831 0.740282
165.09064666692 1.1543
169.086110499315 0.560244
169.103159082417 0.712896
169.129947128973 0.89423
171.120401776839 1.37465
173.144563798615 1.09876
175.148032016725 1.98812
177.165584789191 1.53691
179.046774034836 15.9445
179.074230628155 1.3507
179.094643240299 1.31208
179.106909314598 0.963439
181.100127079567 2.23315
183.115844983069 1.11628
185.098566176327 2.13625
185.132589487279 2.73435
185.170317597694 0.508269
186.218374650407 0.766895
187.146789359106 4.91513
187.175603535781 0.562944
189.088910115471 0.623816
189.163490656727 100.0
189.226730776926 2.96311
189.257639042669 2.13928
189.294490559656 1.16639
189.325019789635 1.45528
189.350823223549 0.676342
189.395698279062 0.626439
189.499556776641 0.869615
189.541132011064 0.525462
189.574387084424 0.74217
189.61136791127 0.582558
189.670625864961 0.654511
189.735675923925 0.509803
189.91596913436 0.540894
189.939883761854 0.561818
191.105705105112 0.696013
195.114532845257 2.99249
195.140297958268 1.17611
197.10401874806 1.15829
199.11247903334 3.65216
199.147424077641 1.51137
199.183151628116 0.548094
201.162804627444 1.07347
203.113843578748 0.87209
203.152792565742 0.606143
203.180352260185 3.52451
203.20400173023 0.721432
203.221087523636 0.569693
205.194899317663 4.98443
205.232343062534 0.624287
207.147480583728 1.44608
209.135905696684 1.39837
213.138350700112 0.743841
213.163121116075 0.508529
215.147334558703 0.646835
215.180979043097 0.85454
217.122611359169 1.99981
217.154116834736 2.15771
217.184302714752 0.70761
219.141495168029 1.51692
221.152677665741 1.08704
223.151808674762 0.505102
227.051147401674 0.539994
227.140594255371 1.10079
227.179390010644 0.527062
231.139861933986 2.85225
233.057621079953 4.38188
235.16910140475 4.4148
235.225980662723 0.565193
239.154837687035 1.32098
239.183257213843 1.28975
241.156848520107 1.02707
241.189836773295 1.23359
241.208778859832 0.783641
245.061117981734 0.599628
253.192759326065 1.88455
255.174672211827 1.97657
255.20974834466 1.17872
255.23170559376 0.560302
259.203186374131 0.608543
265.19307110121 10.3115
265.241514666173 0.908154
273.217651296837 1.59905
273.240470315453 0.544044
283.208539589862 8.07857
283.262606652196 0.780237
283.283670710184 0.547096
283.332667734312 0.540187
289.08203079263 0.553494
290.085199718126 1.35311
291.065719095155 2.07838
301.216502062998 55.3423
301.257118326405 5.29981
301.322858821798 0.8792
301.344311031907 0.737091
301.378825921757 0.729605
301.421721927177 0.704612
301.812251524189 0.573178
301.894846800724 0.538289
301.943774881069 0.626393
302.839961014703 0.522444
305.573640469572 0.500983
308.090002699438 45.6375
308.136299898983 4.21803
308.185880649755 1.12492
308.230256049191 0.692799
308.261157140788 0.617378
308.483356763436 0.530004
308.665761732625 0.576713
308.923435811737 0.609078
308.946089683204 0.561716
309.430716742197 0.540534
319.222685949789 5.70961
319.266946222111 0.768556
320.461920061136 0.560402
354.12706260119 0.585789
479.256740737122 2.81966
514.024209235879 0.530544
533.274321463057 0.519329
547.224342110225 0.917989
608.295609334037 2.34409
625.416164141023 0.732042
626.299089648866 4.13421
626.389035936759 0.957308

>collision 40.0
41.0396389777925 9.53566
43.0217096903719 3.11185
43.0397721391788 1.2214
43.0555969629907 11.0344
43.0702151585865 1.52064
44.5129363889462 1.37365
55.0550634904492 13.5049
57.0703603889675 3.87741
57.0856287625147 1.25632
67.0556834909703 11.804
69.0699829550065 5.38239
71.0506285345057 10.071
71.0836015818993 3.04889
76.0213008973954 17.6581
76.0396297815386 3.85103
77.0366363463011 3.64194
79.0544288318328 24.7004
79.0795575268134 1.85721
81.070069439682 17.6274
81.0931867264764 1.97832
83.088125045378 3.45023
84.0449747578968 2.4087
85.0487910815907 1.24747
86.6309978211493 1.70354
87.0444655800094 33.4351
87.0734396938498 2.03801
90.6676788215514 1.2214
91.0542508539573 64.0265
91.0726078107179 3.67292
91.0871391207895 3.29053
91.1248264626162 1.81478
93.070900059838 30.0683
93.0868794670372 3.60116
93.108601641427 1.8906
95.0499541855637 3.10608
95.085931396641 20.3567
95.1157723204223 1.3587
97.0659473937112 29.7411
97.099494724231 3.25852
97.5969158852147 1.24946
99.0298227181102 1.8932
99.042756449394 11.8971
101.066862195607 1.7949
105.069696881632 100.0
105.096416973091 7.9484
105.119613676295 2.8299
105.134387202801 2.56159
105.154082192006 1.71072
105.169901560315 2.00392
105.394872985557 1.50734
107.08583799004 26.5125
107.103429920424 1.87238
109.061106093058 1.46109
109.10106062334 19.1011
109.118550323356 3.14432
109.13398256774 1.69636
109.41520812812 1.67879
111.035595996914 2.35873
111.075978689311 6.36349
113.05901225533 2.82664
115.039868726402 15.0825
115.057233986384 1.92657
117.069760612238 30.0171
117.090665863914 1.4297
119.085861936152 87.8007
119.11117643019 7.92915
119.135641886927 3.03677
119.163662693963 1.61641
119.187107371328 1.65461
121.099712567046 12.9431
121.11679860068 2.97563
121.863533172139 1.23848
123.079043656603 8.24588
123.114586400593 2.32492
125.059074192118 13.6323
125.100275197843 2.54607
127.925745853928 1.25073
128.062466745256 2.71539
129.070090747893 9.39454
129.086319994445 2.65772
130.055459091564 2.77246
131.08409881982 23.0308
131.115620587765 2.10628
133.101576283896 49.9813
133.135180463895 4.0306
135.082339517639 7.06448
135.115257644437 16.0067
137.094122218389 4.4443
139.078936941947 5.77098
141.07050976742 2.37801
143.084715415184 10.2833
144.013033326234 3.60977
144.093612251004 2.87782
145.032391287587 3.42525
145.060121983765 4.72983
145.101250124611 12.7591
145.13880183438 1.24707
147.080269718033 5.03019
147.116354999734 30.8199
147.149440193868 2.3738
147.179603291333 1.55486
149.133376870035 9.61049
151.020650324563 1.6575
151.053118023734 1.52191
151.073779578818 10.5518
151.088677624378 2.43803
151.117977632911 1.49875
153.091759329508 1.71368
154.028094671197 1.8856
155.080199720821 3.37895
157.102819188408 10.0995
158.09044291479 1.54725
158.11270053941 2.25164
159.072801573579 3.06345
159.118849117759 3.42739
161.09181501544 3.53539
161.133725585498 6.27159
161.159122616137 1.28356
162.020813862707 25.2732
162.036697378898 2.88059
162.053321326251 2.17394
163.109114886671 2.38002
163.14641638002 2.95143
165.089121932816 3.65267
167.080950104133 3.56084
169.081370652959 1.71744
169.102119392323 3.7834
171.117279096313 11.7308
171.142956339689 1.85899
173.13817806266 8.47595
175.14661519576 7.29625
177.032824701677 3.21374
177.164108846547 3.4842
179.046898279363 17.3769
179.098780450909 3.44969
179.115189828649 2.28287
181.101255014626 9.70297
181.127917346061 1.39941
183.116420151382 2.93321
185.094705794783 6.23138
185.131915918964 11.7549
185.17608914058 1.63188
187.110065384009 2.54238
187.146719139723 5.73228
187.959682219045 1.24747
189.037483502215 1.4294
189.163126696108 94.4708
189.201976281876 7.31151
189.231493513855 2.98168
189.262347682501 1.91981
189.293221267899 1.29472
189.420070423265 1.64727
189.783609372185 1.43252
191.099993792094 2.2038
195.113631374973 6.27844
195.140401646882 1.61548
196.086565463173 1.49437
199.11425493436 4.60603
199.13852016704 5.69329
199.15190118588 2.98198
199.172762822672 1.58636
201.168118644503 4.21979
203.178011054375 1.25431
205.190410926816 2.35456
209.127518460538 2.91235
209.146699124513 2.88957
209.188631217887 1.28494
210.298904479163 1.72023
213.124659026669 1.76467
213.167206324279 2.193
215.256779134413 1.79465
217.125994935732 2.36853
217.156878706686 4.63702
221.116570920816 1.64736
223.077829347324 1.34425
223.14617674221 5.97962
231.135667233135 3.30911
231.16564213289 2.03053
233.055431998527 8.34078
239.178217867566 1.85277
241.193359737078 10.2837
245.064430877395 1.59699
255.171513605722 1.39657
255.205924791681 2.24205
257.183929740335 1.93295
265.198193201557 4.93079
273.181462850349 2.47532
275.202263863067 1.36912
283.214631027524 2.37981
291.063331307573 4.34256
294.061857999292 1.48052
301.216255979574 9.97727
301.249487669973 2.28457
308.098120088274 2.16692
376.24175587925 1.49023
497.53142415914 1.33842
626.383976901176 1.4294

