>compound Rescinnamine
>formula C35H42N2O9
>parentmass 635.296326962567
>charge 1

>ms1peaks
635.295238702508 100.0
635.613483290332 2.91693
636.287720806486 0.623778

>collision 10.0
221.080583908332 1.54326
397.2117399424 0.571545
635.296326962567 100.0
635.614757049814 3.59132
636.284319803495 0.595408

>collision 20.0
174.090733662346 0.61129
221.081213905837 11.3222
397.212197578678 4.22877
415.223276365796 1.87622
474.212860051654 0.571493
635.29697304117 100.0
635.616170006764 2.93791
636.294737713886 0.594431

>collision 40.0
147.043347691182 0.529995
148.074589152248 0.531758
160.073841854062 0.647861
162.068492118945 1.23731
174.090265617855 17.5529
178.062959578181 1.06073
188.106015703634 0.765933
189.053964680745 0.946117
190.062134969646 8.07955
191.036313909937 1.47358
192.101095568417 2.13493
193.085376879421 6.58565
200.106270719943 0.895395
204.101661758604 0.581191
206.056686130084 3.09731
215.116252436384 0.616137
221.080205582083 100.0
221.26543524918 1.94006
224.12627205377 1.5867
236.127197137995 3.43142
242.136216907055 0.601996
254.13859298704 1.51688
336.15842643272 1.24263
348.15900921629 0.584994
365.184410513099 3.58574
368.183500560366 0.698595
397.211197416372 10.7344
415.221829653393 4.56682
474.212492616088 2.35859
603.269897349026 0.775262
635.29435000974 4.22718

