>compound Dephospho-CoA
>formula C21H35N7O13P2S
>parentmass 688.155697932505
>charge 1

>ms1peaks
261.12585573065 3.30821
348.069959364064 2.00638
688.1559137135 100.0
688.469795911892 1.11193
688.638062338428 0.710956
688.791190418001 0.660589
688.919810987557 0.583831
689.153062433608 0.776751

>collision 10.0
136.061231839094 1.2578
159.057663023028 0.918001
261.125972787716 24.1847
341.091832265708 1.30927
348.069865228899 16.2077
428.034467279207 1.03771
688.155697932505 100.0
688.46896809241 1.05985
688.599506445143 0.679032
688.963589049828 0.807887

>collision 20.0
88.0211289475085 0.58757
99.0545883626374 0.506719
136.061098086673 5.33576
159.057757775728 4.95379
243.115279477001 1.5426
255.079551507924 0.605537
261.126126858386 100.0
261.271029844069 1.75455
261.321987511121 0.937221
261.556343251921 0.511317
341.091941635893 2.90118
348.069749953928 44.6462
348.233807034637 0.757089
357.146399874069 0.745002
428.036497996316 4.12764
670.142182591026 0.515145
688.154378091523 23.7553

>collision 40.0
61.0106051800781 0.727631
72.0444477330827 2.15404
85.0654763271757 0.509446
88.0214230222471 7.02956
97.0288788716496 1.14027
99.0549950844645 2.82195
114.036209756094 2.04171
115.049756734647 0.52025
124.073178929461 0.678668
125.070379773632 0.557125
130.031732345974 0.519368
130.085716803634 1.78158
132.047544713314 5.28498
136.061164920627 33.806
136.166482193736 0.540952
141.057478490203 0.78895
142.085323414688 3.24941
159.058010094627 11.2164
166.086137151872 0.512897
175.051913347331 2.00961
184.09630762945 4.35147
231.116310746099 0.522516
243.115457244552 6.85705
250.091463939801 0.715482
255.07840050678 0.500631
261.126057959154 100.0
261.270754384678 1.7419
261.326000128647 0.872405
348.069587627462 6.58646
357.147234669775 0.905072
428.036419790906 0.789301

