>compound NADPH
>formula C21H30N7O17P3
>parentmass 746.097938398766
>charge 1

>ms1peaks
428.032514680083 0.603186
729.070876211591 7.95653
746.097938398766 100.0
746.423567222883 0.709709
746.50640338628 0.562286
746.665714194436 0.523124
747.075311703187 0.884075

>collision 10.0
136.062506986054 0.856205
150.054491703166 0.696838
276.06166944666 0.821942
302.040746297661 2.38383
320.05398736351 0.945661
428.037373524072 2.36944
594.017559260677 1.35695
604.02107254687 0.739972
711.064246660705 0.769488
729.069861020966 82.3896
729.258321327577 1.12301
729.325002109988 0.823926
729.416847360592 0.697276
729.499153482913 0.583997
729.569476678588 0.693829
729.695577859627 0.583305
730.086407827989 0.832006
730.227771551959 0.525007
731.078956076682 0.586802
746.096299571233 100.0
746.354250544668 1.25611
746.455855119912 0.639492
746.705529184589 0.677651
746.906612532191 0.692515

>collision 20.0
108.046787835463 1.15129
136.061705397744 4.91609
150.053474034501 4.33189
178.086314577811 0.908876
204.063994885215 1.18607
222.07643903896 0.83777
276.061562174224 4.03235
294.069853798258 0.50449
302.039582802642 12.4892
312.042683424907 0.666759
319.061894832107 1.05708
320.052846451754 2.75227
330.058340076568 0.524625
400.014656739529 0.602876
410.023897343361 4.42197
428.034828615373 6.07091
437.097779560694 0.592502
576.000168400353 1.07705
577.08191177288 2.64443
594.015489493268 5.48463
604.023555574068 1.58613
685.071525366679 0.680924
711.055370773263 4.60878
729.07041381532 100.0
729.881738613246 1.10485
730.07393010346 0.573761
730.203820904434 0.786067
730.394136277544 0.515736
730.474298694466 0.505325
730.859247936691 0.619389
746.09507783747 7.92752

>collision 40.0
80.0498987996278 1.10209
82.0653747376558 1.44468
94.0679824131163 0.671934
97.028667609509 5.50668
98.9852030458625 0.903211
99.0463935087395 0.606491
108.044373950444 18.174
110.055359254578 0.514444
119.034842948858 0.748914
124.035940686839 0.903212
136.061209292731 45.6855
137.075179358491 0.723317
150.054966068549 33.3138
160.084272794771 0.921777
162.045787276154 0.582947
176.075061277509 0.973109
176.993612067164 4.88463
178.085554526303 5.33488
196.099967711784 1.22764
201.094538339601 0.590152
203.081935613801 0.526392
204.066218664508 10.3016
214.071925923086 0.925287
216.090495315943 0.674143
221.0919090206 1.47993
222.075213791756 2.16531
232.08468918264 1.20557
240.08830656923 0.54886
256.951222174414 0.556403
258.051950266468 4.7107
276.061298627011 14.4041
282.015672179526 0.586722
284.033350477613 3.13413
301.057705038606 1.87272
302.042105413839 100.0
302.176272424022 1.28901
302.300676642045 0.567583
303.054452176003 0.745084
303.17414545046 0.789459
312.046817395385 5.49758
318.026243367548 0.851735
319.074409937736 1.41685
320.053540264376 24.3469
330.057958946253 5.41091
336.047337491631 0.722071
338.061230514251 0.572521
356.040630982056 0.835113
372.084333240457 0.555172
374.042986422038 0.65897
382.00766867785 0.691461
397.998927243281 3.01076
398.061588771876 1.16141
400.017302792012 13.4922
410.022457258485 7.72701
428.036105458555 7.07974
437.099021388986 3.89821
478.002319202946 2.68484
479.983909056253 0.843682
489.996340184035 2.87112
496.047857858322 1.5082
508.005982077679 4.78176
510.025059636991 0.507642
514.054730476976 2.85863
532.008791426058 0.558995
550.036157938084 0.608543
557.985885634838 1.05405
568.023770663623 0.662833
576.006497525429 3.04627
577.073025146816 0.836947
594.017676413661 7.52749
604.0288616705 0.943833
631.092850738716 1.17752
649.089067069492 0.720222
711.062297004725 3.27732
729.068945807747 1.51678

