>compound Coenzyme Q9
>formula C54H82O4
>parentmass 795.629186255071
>charge 1

>ms1peaks
197.080104204841 1.97951
794.615806201945 11.885
795.629402264787 100.0
795.874128889196 0.913846

>collision 10.0
109.100975811534 0.577896
197.080437552361 11.5285
237.112912659963 0.66235
599.551705580861 0.596892
777.613357749276 1.25195
794.615733166172 11.0409
795.629186255071 100.0

>collision 20.0
81.0699132147742 1.40942
95.0858545603992 2.43934
109.100866186775 3.01913
121.100114242196 1.20743
123.116745022507 1.71746
135.116608387362 2.23807
137.132193988552 1.38354
149.131555038558 2.93889
161.133039634267 1.11453
163.147238921994 2.20408
175.145959195428 0.895575
177.162397613173 1.77605
181.085019249223 1.25583
189.163715976278 1.00617
191.179259240057 1.44309
197.080590851429 77.3184
198.084048727797 2.46531
203.17878042838 1.69257
211.096426287899 1.02271
217.195359546564 1.76912
231.210032335192 1.15378
237.111508976024 3.15261
245.226711016573 1.26342
257.225055413614 1.05049
259.240813342232 0.86342
263.127735915479 1.61664
271.240655852747 1.10869
285.256646283176 0.906853
299.271784236533 1.03241
327.306986969268 0.964064
355.228818363627 0.92095
441.299929640434 0.885339
509.362752012072 0.867688
599.555966968946 2.97621
645.48796164718 1.05168
713.553155347592 1.19261
763.599113014258 1.40186
777.616067321665 6.29821
794.613897089559 12.3875
795.628448581615 100.0

>collision 40.0
69.0702450867826 2.01514
81.0699980956006 6.16291
83.0858908206539 1.2899
93.0701930506563 1.73117
95.0856522827027 8.15504
97.101041553201 1.53614
107.084839217266 2.88115
109.10103930573 7.59211
119.084534114556 1.43621
121.100919990424 4.6823
123.116396173488 5.53045
133.101219213276 1.63846
135.116622451136 4.90604
137.131781587812 2.63971
147.116687878456 2.29434
149.132056487004 6.31831
159.115809527844 1.46253
161.131711660864 2.99244
163.148042163158 3.94064
173.131317563293 1.40439
175.146950605746 2.65439
177.163419679497 3.46107
181.085470391603 2.77449
187.147033786836 1.80105
189.162588735298 2.40377
191.178449017139 2.09272
197.080605684277 100.0
198.083720710614 3.20736
201.162474587008 1.29218
203.178804768631 2.9067
211.09808199535 1.20508
215.177912102323 1.47626
217.194479883338 2.5598
219.100919606769 1.0201
223.095084483608 1.23856
231.101557516348 1.77072
231.20941697182 1.62276
235.097624020156 1.39981
237.111863452985 3.37006
245.226383237853 1.28602
257.224814410286 1.50111
263.12803548793 1.71304
777.618082437637 1.29155
795.627125793976 4.57245

