>compound Arachidonoyl Ethanolamide
>formula C22H37NO2
>parentmass 348.28851641553
>charge 1

>ms1peaks
62.0598581846753 10.027
62.4471518037673 0.671704
71.046793113724 1.42617
113.103625722887 0.704069
121.101603710984 0.658926
137.09322461761 0.614262
157.103114432102 0.705637
198.141403016289 0.867482
203.178397748033 1.81321
205.195823417067 2.10637
208.130516080208 0.669117
224.158801188036 1.20081
245.224553418018 0.592932
247.164351294883 0.674325
269.228063272217 1.76238
287.236995427354 2.56327
347.169287757802 0.805612
348.289930463415 100.0
348.696105872399 0.910364
349.045349215792 0.588848

>collision 10.0
44.0486941021202 16.1686
57.0710719781853 3.13227
62.06063785104 59.6027
67.05759825945 3.94973
69.0709484459493 4.14094
79.0513379208948 3.87269
81.0705452117566 4.86181
86.0592313327108 3.57638
88.036833600108 2.37776
93.0649090347243 1.79913
95.0853119763553 4.03931
97.066239365351 3.63016
105.069987920832 1.85076
107.0827363996 3.1753
109.100778174793 5.18019
111.07643015901 2.50616
116.068773410482 2.64379
117.066703905281 6.16493
119.084093694705 4.1631
123.120105310086 2.42549
124.10803672854 3.74593
130.091183152799 2.8638
133.10307118728 7.21361
135.113138340613 4.5048
137.12719983281 2.39911
144.103651142216 3.7104
145.108490359135 3.76706
158.121416057149 2.22177
161.095121067277 4.36191
161.133794803509 6.61045
163.117876589183 6.61539
171.117714169283 2.32359
173.133895207135 2.24417
175.108469741921 3.6148
175.144734514179 5.83925
187.143580781432 5.16086
189.161861248251 2.77147
190.075991526158 2.06516
191.178143647653 3.05486
196.755914959414 1.80868
203.178966528953 22.0323
210.148586836863 3.35784
212.166759055442 2.52294
238.178910981911 4.28865
240.193038198318 1.93686
245.228749080106 6.9369
259.245734991749 6.62134
265.902268915318 2.26594
268.207680823849 1.81199
269.229556629655 11.2996
287.238481038106 13.2139
348.175752165494 2.57229
348.28851641553 100.0
349.01495994648 2.32387
349.180511895495 2.27557

>collision 20.0
43.0545036902737 2.41728
44.0500509969694 40.7215
55.0521762842895 7.97856
57.0701975082032 7.33998
62.0608773382244 100.0
67.0544667665327 9.0503
69.067290769344 6.56427
79.0548983867014 12.8338
81.069721539651 23.0514
83.083637079877 3.58404
85.1018378066603 4.53489
91.0522296159985 5.09239
93.0696926142667 6.9187
94.89985040819 3.26053
95.084525337559 19.2242
97.1006161510482 10.3201
105.070411357373 10.8078
107.08527170046 8.66125
109.098785466028 9.63527
117.067793017186 3.83822
119.083572421539 9.90907
121.097022088702 20.195
123.113176306835 2.49167
126.09230468833 2.82331
129.067203673549 6.59039
130.087677493416 4.8142
131.089399295483 3.50465
133.060905162686 2.50032
133.099853782784 19.2652
135.112955176512 4.88764
147.113879718825 6.652
149.095375261685 3.37598
149.132151426008 2.48707
155.143200576893 2.64625
157.10047263553 11.9065
158.122223156792 3.66216
161.093324687813 6.54104
161.135708124874 2.90726
163.147357122647 5.20137
170.116001315912 2.26142
171.116655297235 6.95704
175.145116192795 2.50478
176.120415996915 3.1146
177.158354865453 5.12824
185.131295004752 3.89163
188.993820197705 2.2592
191.177891020373 2.36161
199.147426198808 4.66553
203.17858160533 14.0754
205.186680467174 3.5234
227.182019853173 2.24986
245.226880997911 2.69222
265.904736935545 4.51582
269.22887203902 11.834
287.238190211217 4.53304
307.185691879056 2.30297
330.273847232618 5.04043
348.287787900746 4.96064

>collision 40.0
41.040068807582 7.92119
44.0486313756963 48.7408
45.0329392458006 18.9164
55.0543832724342 54.8494
62.060392122572 100.0
65.039969699372 6.90198
67.0539973627039 88.8365
77.0369346095673 9.44313
79.0545355509144 80.7989
81.0695093998218 77.4844
91.0548703491068 62.1199
93.069105573329 17.7184
95.0855235701452 31.4686
105.068777710017 48.0556
109.10322697706 20.8176
111.082453370284 10.4644
115.050635239409 8.05591
117.067055321535 12.8122
119.081480253794 12.9391
121.049281242144 11.1356
121.106548319504 10.2098
129.063433527293 7.62245
131.086238431865 14.0446
133.096384034709 6.48343
135.080431105918 6.54761
135.118801357403 11.4654
143.078848280342 14.2251
147.121233272805 7.13531
175.156001934969 7.61737

