>compound Docosatetraenoyl Ethanolamide
>formula C24H41NO2
>parentmass 376.322605834178
>charge 1

>ms1peaks
44.0509090147341 1.22769
62.0610313392082 9.99867
177.15978469633 0.519913
224.162553553107 0.503137
226.180405991539 0.946968
231.212922351157 0.71559
238.182677784678 0.847432
240.197125376301 0.758845
254.213784521747 0.597529
297.258002195083 0.666404
315.272625372516 1.88507
358.312331672094 0.759193
359.297182607453 0.570357
376.322605834178 100.0
376.492251556294 1.81383
376.554572753477 1.04979
376.619492190214 0.838543
376.703438695603 0.757932
376.762242881425 0.747281
376.804290459895 0.726125
376.889985954454 0.683908
377.110157436458 0.607613

>collision 10.0
44.0507830048464 12.7775
55.0547158477171 1.05435
57.0711740786637 1.06891
60.0467264624061 0.922323
62.0612000481478 100.0
62.1339088198049 1.8729
62.1564008527012 0.764379
62.2274886840052 0.526695
67.0552056694629 3.78507
69.0707684362504 1.30805
71.085938493758 0.796333
79.05637374682 1.71763
81.0703401417302 3.66414
83.086625486602 1.15582
85.0663873767554 0.910903
91.0548623597597 1.36312
93.0705606289184 2.50518
95.0861334288956 5.17409
97.1025553762611 0.974725
105.07047567202 3.02499
107.08650405226 3.0193
109.102250634626 2.2902
117.071505966566 0.625931
119.085709698442 2.92175
121.102363200132 6.96761
123.117167261487 1.57884
130.087018443102 0.5648
131.086537455263 1.36255
133.101641207615 3.25967
135.117071229441 4.5082
137.128651947615 1.35157
144.101730589133 1.50021
145.10030906912 1.29532
147.117866080393 2.2526
149.130397070095 2.27748
151.148524845656 1.16926
157.102341010484 0.632866
158.117529574572 1.42939
159.11809705174 1.31213
161.13078146369 1.64203
163.143315357184 2.83007
165.146281060753 0.517809
170.118323732625 0.52652
171.116875812054 1.5777
172.135394925025 1.7576
173.133561374046 1.20069
175.140605560719 1.42493
177.163487272907 2.51235
184.135959602091 0.833444
185.132558626363 1.68936
186.150083579454 1.13808
187.145177755686 0.533028
189.155136761435 1.33155
191.180261172093 3.39711
198.148957144785 0.93347
199.150035388662 1.12724
200.165625418036 0.863266
201.164613849543 0.957102
203.171366877116 2.39506
205.196346155546 2.72151
210.149241375544 0.85734
212.164763911393 1.99633
213.163497727322 0.757477
214.181993741592 0.838003
215.181382493079 1.06052
217.194451161085 2.78382
219.211216640536 1.53127
224.165874189764 2.25087
226.182532001278 2.73767
231.21091765199 5.50701
233.19775578106 0.763875
238.18211407492 2.96232
240.194817120242 3.23811
242.211103936094 0.590021
250.176321239786 0.623899
252.198350898761 1.73359
254.216483359967 1.47449
256.230878233115 0.621937
264.196347874867 0.81345
266.216302777892 0.673984
268.229177678015 0.836043
271.247511064221 0.523879
273.260786429642 1.81854
278.218833701357 0.91734
280.230621721422 0.750432
282.243596201985 0.581963
287.278287476937 1.52552
292.234733802504 1.61699
294.239768151211 1.3362
296.260697351707 0.795725
297.258634848222 5.12718
306.244903772649 1.14497
310.2758059826 0.680064
315.270338828263 11.7405
320.262838807366 0.590611
333.282293675767 0.798994
358.312295712174 3.97206
359.296260130687 1.98077
376.324159618189 46.3655
376.545000789743 0.501009

>collision 20.0
41.0394259850716 0.564545
43.0542756847928 1.65395
44.0502707580174 16.0952
45.0347919405179 0.66759
55.0544237142802 1.90092
57.0701532921766 2.61002
60.044711727831 0.969989
62.0603258849884 100.0
62.1320754660793 1.80552
62.1529004917406 0.786157
67.0542715485876 8.40491
69.070040685566 3.14911
70.0279861113606 0.597712
71.085493261757 0.985027
77.0385018064498 0.778607
79.0540337124178 3.76816
81.069608607609 10.5211
83.047549383963 0.523086
83.0849825051954 1.63655
85.0655614021358 0.729859
85.1004005725925 0.966226
91.053589698933 5.08707
93.0695077031287 8.10671
95.0849030515124 9.79722
97.100220820013 1.10309
105.069229955905 7.74966
107.084425287415 5.84616
109.100976292401 4.57223
117.069149555947 1.04505
119.08508468622 5.50657
121.100278343298 11.2292
123.114949350148 1.53537
128.06857732639 0.518684
129.06957677315 0.942327
130.083734387215 1.41088
131.084601897491 3.21863
133.100543764052 6.54413
135.11520777564 6.03561
137.12542967726 0.698706
143.083488030306 0.722678
144.101203199741 1.17235
145.100111646744 3.24867
147.114268164753 3.04317
149.121819554429 2.16443
151.142106546272 0.615875
157.098024417836 0.788839
158.116957944332 0.6499
159.115273314888 2.1008
161.130635873698 2.62164
163.141230418379 2.02873
171.115098719715 1.97219
172.131345269958 0.545322
173.131045039892 1.31467
175.143951991764 2.20119
177.159563142609 1.39936
185.130041143427 1.80656
187.145995033301 0.603969
189.155745924195 1.49859
191.17581597644 1.12099
199.145599361116 0.981374
201.160039023568 0.673304
203.176335572524 2.09219
205.192851971298 1.40168
213.158984942693 0.936075
215.175891805536 0.884586
217.193260263924 2.58515
219.209286441855 0.571706
231.208260328439 2.15236
273.256693205981 1.01132
297.255827875666 1.27815
315.265981227012 3.992
358.311733935555 1.74826
376.313749572356 0.53344

>collision 40.0
39.023298040131 0.680188
41.0395671991085 7.98111
43.0200012267299 0.881804
43.0554054001237 6.81304
44.0505940584973 59.4462
44.1109474678013 1.11245
45.0336385767582 3.42693
50.0174220911916 0.652112
53.0391262139147 0.767234
55.0187215944274 1.82534
55.055020583587 23.7012
55.1242037356291 0.503951
57.033123972231 0.836623
57.0705109780819 4.65118
60.0456707445383 0.738365
62.0611048504962 100.0
62.1339879405707 1.813
62.1542047428896 0.900435
62.253131884298 0.549937
65.0388667990058 0.922174
67.0548818002487 40.1892
67.114588047815 0.777073
67.1288699558336 0.778232
69.0702415955868 13.1955
70.0294242779446 3.33002
71.0822040668123 0.589646
77.0392756732446 7.21914
79.0548459789542 30.4777
79.1370760273361 0.535534
81.0705685032123 25.1415
83.0495109287981 0.72912
83.0855188891445 2.58779
85.0626401400001 0.635154
91.0545251891252 30.6827
93.0705819260575 27.2553
93.1572984445994 0.525846
95.0500396112356 0.635318
95.0859044662024 16.5306
97.0638445737254 1.6321
97.0925825301921 0.551858
98.0618001729523 1.49249
99.044683787848 0.609664
103.055379797634 0.87268
105.070548246629 22.7535
107.085792266325 9.73562
109.101037197578 2.67575
112.076641964438 0.629954
117.071162846082 4.27399
119.085366339468 12.8947
121.100568488677 6.27181
123.118482802652 0.758623
128.063987462793 0.798835
129.069729087089 2.387
130.080575753178 1.03784
131.085497890083 7.14684
133.101988454967 6.12714
135.116206116092 2.50009
143.086298192253 2.44812
145.101833030485 3.84109
147.116709710548 1.97653
149.096241786803 0.562069
149.130055944413 0.503425
157.100964346273 1.12948
159.11554201186 0.953253
161.132246381662 1.13283
171.115551045145 1.40531
173.135076916548 0.549911
175.142949511411 0.689194
185.133653337747 0.688039

