>compound Pyrrole-2-carboxylic acid
>formula C5H5NO2
>parentmass 112.038840077643
>charge 1

>ms1peaks
39.0233252179696 0.675064
41.0392287990169 3.41768
66.0341984163872 4.5335
68.0497547680639 43.4433
68.12559262237 0.763756
94.0288011433135 29.8955
94.1180418255818 0.52479
112.039177269873 100.0
112.135134694388 2.05236
112.163978901135 0.846795

>collision 10.0
39.0233981547423 5.58852
41.0392319545559 15.5567
44.9979091096888 1.83427
66.0340020398718 23.9915
67.0420425975666 3.10046
68.049702362993 100.0
68.124241392237 1.97289
68.1476995585125 0.838225
94.0287145847263 74.8307
94.1173361149516 1.41304
94.1436187558731 0.651543
112.038840077643 47.3836
112.134432581681 0.817532

>collision 20.0
39.023332698069 28.2463
40.0185280368991 1.7597
41.0390852994397 43.3294
41.0970241146727 0.931259
42.0339310228127 0.506684
44.9977956657714 5.54642
64.0185836779122 0.799698
66.0341413832397 76.3548
66.1088180533634 1.5641
66.1297527600088 0.64443
67.0420676410124 9.02671
68.0497707708864 94.5783
68.1062974694078 1.71248
68.1473499618244 0.79836
68.1767105149463 0.523203
94.0286665781971 100.0
94.1166939988932 1.6309
94.1450051879643 0.869323
112.039594148037 2.5522

>collision 40.0
29.0134462923655 1.62394
37.0078903916343 1.64476
38.014471538747 2.30647
39.0234448762152 100.0
39.0802625005546 1.65126
39.0989323498792 0.94854
39.1317172298767 0.654588
39.1579990826384 0.511296
40.0189349115942 14.3123
41.0385335555491 36.1805
41.084108898738 0.85395
41.0985932837999 0.785458
42.0329145531204 1.01575
44.9976998993397 13.8447
52.0174395328522 0.553961
57.9346284745979 0.642404
59.9309532833683 0.568816
64.017917841399 2.43097
66.0337869773821 50.3276
66.1085409779413 1.04189
67.0416707807187 16.8234
68.0495875533374 8.94266
94.0284668433223 9.72521

