>compound DL-3,4-Dihydroxyphenyl glycol
>formula C8H10O4
>parentmass 153.05499199833
>charge -1

>ms1peaks
74.0976555270306 3.16178
77.037766291431 0.917254
107.051175664472 7.01061
111.043678512281 1.01465
112.007400739143 1.06428
135.042349737535 16.6237
135.104180956202 1.08686
136.104074613027 1.12932
152.080194445468 1.45341
152.126565332769 1.79072
152.951718139292 0.786763
153.054274559836 100.0
153.165351985748 1.76671
154.16535198575 1.0e-13

>collision 10.0
68.014142864431 1.46629
73.0632793325804 1.58273
74.098760950948 3.51001
77.0402005029374 10.6062
79.054476496382 27.7694
89.0385346629494 6.32012
107.049370777384 84.8474
107.145783884969 2.49279
107.181187985216 1.2949
109.026765261085 1.71998
111.042497854939 5.86596
112.004953479101 3.06262
117.035710256006 4.12611
117.085036685461 1.4574
135.044196931218 100.0
135.139863963005 1.95231
135.48811719732 1.33729
137.082399575968 3.5349
152.082640133947 2.65549
153.05499199833 22.628
154.05499199833 1.0e-13

>collision 20.0
45.2631562974852 1.92376
65.0388188682304 3.29134
68.9985745757735 2.21543
70.9782295456403 3.01165
74.0960382329511 7.93184
77.0387941895023 50.7721
79.0544618225747 69.6777
79.0981168477747 3.16866
81.032153668047 3.45041
82.2282438166614 1.89629
89.0386424691925 21.7473
93.0345968500034 2.21131
107.048930523355 100.0
107.130907119203 2.70807
107.313439246659 2.04515
109.031615576492 3.12244
110.035629188666 3.91602
116.056009063561 2.97835
117.032789037896 6.60729
135.04458987149 11.0562
136.04458987149 1.0e-13

>collision 40.0
39.0240594768042 6.87671
50.0173950724864 2.48694
51.0233940225703 46.8884
62.0159514892153 1.96459
63.023271742467 19.7323
64.0305665805968 6.21433
65.0372723241724 2.77266
67.9520434496713 4.29616
77.0386738939678 100.0
77.1218476110096 3.80641
78.0468033626939 6.23068
79.0536071168203 16.7889
81.0357834771905 3.56678
89.0414474743658 6.10284
92.023129223605 2.25174
95.0469933557816 2.54405
107.047858916569 4.2363
110.032798232461 2.11045
111.03279823246 1.0e-13

