>compound D-Fructose 1-phosphate
>formula C6H13O9P
>parentmass 283.018590272266
>charge 1

>ms1peaks
120.966112997451 1.22768
167.026334216297 0.541135
265.005735602054 5.25779
283.018715260577 100.0
283.170694232349 1.72416
283.22211430955 0.942074
283.344141080593 0.568761
283.518273794426 0.624145
283.697849893728 0.559915
312.69784989373 1.0e-13

>collision 10.0
107.084687669044 0.739671
120.965912821411 20.749
121.058230307729 0.535069
146.999849038969 2.20551
167.029377771446 9.64882
185.041402407459 1.74061
187.155639370176 0.521859
246.998019949613 1.24079
265.007476350012 67.829
265.152301450619 1.22876
265.199249257617 0.641113
265.251128153247 0.501454
265.453620589744 0.632724
265.489402225204 0.52822
265.542064245648 0.524349
283.018590272266 100.0
283.1569096116 1.9543
283.22038099449 1.08176
283.264132800895 0.621424
283.299034605084 0.678549
283.534579476178 0.902374
283.731702145598 1.0513
283.856185328341 0.62487
284.0144341578 0.722704
313.0144341578 1.0e-13

>collision 20.0
99.0415034214727 1.3747
120.965961269798 100.0
121.065576312406 1.77024
121.149971662896 1.0319
146.998631141836 1.99762
167.029891792764 28.7105
167.153898271413 1.05108
167.665653587743 1.09591
185.035575596178 4.49336
203.051316516922 5.77302
203.092721842348 1.11158
216.990639004727 1.20988
228.989493974767 1.61178
246.999672474165 1.54347
265.007423379561 49.1152
266.265544640602 1.16031
283.017965986068 15.0315
312.01796598607 1.0e-13

>collision 40.0
41.0403033521334 37.6736
53.0384939203733 100.0
55.0514865257258 30.9367
120.966076957955 86.4403
149.96607695796 1.0e-13

