>compound 3-hydroxy-3-methyl-Glutaric acid
>formula C6H10O5
>parentmass 163.060410370697
>charge 1

>ms1peaks
28.5867327683047 1.64175
43.0181056060055 8.71396
45.0344144347533 3.66654
70.0046538040636 4.79782
81.0337888306426 1.73894
85.0282560545845 48.8221
89.0563419141432 3.74688
90.5187310342094 3.20845
92.0013675129208 2.65227
99.0463404612332 7.78248
100.987747872392 2.76176
103.038944436963 60.2519
107.067574774232 2.35462
112.512990588165 2.57851
121.520368961311 70.6423
122.021910144651 9.60094
122.057400658961 16.2634
125.991517569027 1.87961
127.037712986496 40.5658
130.961358937937 2.21199
142.032768170638 42.7373
142.532344169867 15.1234
145.049558047215 100.0
146.003399682 1.56955
153.138911482377 2.1725
162.11982884971 1.60685
162.998910848483 4.40806
163.060410370697 57.5012
163.130740537143 6.27304

>collision 10.0
43.0190039416115 29.2894
43.0551591248525 9.26735
45.0340606825025 5.89843
53.0377465949925 2.94449
57.0692590082724 5.40529
61.0066004633477 2.11595
64.9939200420402 2.03613
67.5165365921812 2.27877
68.5250001540114 10.4062
68.9998060256739 5.74039
70.0712702456424 1.44349
71.0491914552792 2.35379
79.9516724079607 1.76595
81.0301623178911 2.05842
82.4848841556577 1.9354
84.9595946939591 2.45162
85.0283872405814 58.6135
89.0618879405874 3.06645
89.9727747151936 2.20126
90.0111459284655 1.7161
90.5194814386846 3.4315
90.6337044533027 2.45993
91.4824269701249 2.89276
91.5059778717416 2.07759
92.004408830992 8.26165
96.9981396396205 1.7929
97.99285247563 7.49635
98.9758939348368 3.31693
99.0427976683928 50.8406
101.011080801109 4.32786
103.038783215864 100.0
103.479512759122 3.28042
103.508743698235 3.89868
109.031751713124 2.59959
112.510756716593 6.74619
121.048280701869 1.87444
122.056032078043 6.48007
126.324696559513 1.46548
127.038464576204 91.8787
139.007592650711 4.54676
145.047215916873 4.65278
161.520815101829 1.7914

>collision 20.0
40.49466069786 11.4791
40.9732568832478 2.57991
41.0393019858742 7.49392
43.0189551611209 100.0
43.0555020337315 37.9952
43.0839174496096 1.57434
53.038895103918 21.1879
55.0029527484167 8.1973
55.0544655073402 5.36431
55.5049924291464 2.2637
56.9668075833115 9.12769
57.0348540381105 1.80848
57.0733988946177 3.18924
60.4802938151523 4.92106
67.5179499472646 5.13174
68.5267346272237 1.87523
68.9992535185604 17.2987
71.0483260349124 9.43959
81.0332743646336 22.4483
82.9955927632753 11.4609
83.4968288110078 5.23448
85.0278308687022 28.4737
89.5119623996061 3.06003
96.9967623433418 2.74345
99.0445585674675 61.9303
103.041366551421 8.90093
109.02778459172 21.1375
111.963960669407 1.85515
121.051996306836 1.87246
127.039631449201 9.33208
139.00682051433 1.60186
162.110564255697 1.80795

>collision 40.0
34.9846347377546 3.57586
36.2116036003431 3.47722
39.0235280295629 5.69571
39.4142349729873 2.40272
41.0389724670613 36.6921
42.0319702855924 4.1669
43.0186926493181 100.0
43.0541366507137 34.5843
43.4301239368269 2.7618
44.9961170255795 2.40302
45.0311242154542 2.46933
53.0111200083701 2.8291
53.0387163470863 77.0279
54.996999109134 7.56677
55.0183701030685 4.51605
56.9642534818725 10.0296
64.9745113645599 4.86669
96.998209116872 3.92471

