>compound &#38;alpha;-D-Glucose 1-phosphate
>formula C6H13O9P
>parentmass 283.018518641865
>charge 1

>ms1peaks
120.965946580008 4.09249
125.129722280882 0.548979
146.999120581807 1.00842
185.042229988325 7.03908
214.991069809549 0.814877
282.165338776084 0.512848
282.268278607281 0.595207
283.018547075627 100.0
283.151710709435 2.07028
283.227347682026 1.05207
283.254527824767 0.972371
283.294207479846 0.854647
283.463159599034 0.786624
283.583507910087 0.6096
283.658636141877 0.501604
283.765168201358 0.541556
312.76516820136 1.0e-13

>collision 10.0
56.2394192042941 0.811894
74.3379589416873 1.1204
75.5818660115766 1.17874
120.96609740164 100.0
121.376172249867 0.89527
121.680202978658 0.923723
147.003187753846 20.0455
155.016435284154 0.785916
185.041457060793 94.6075
185.121307361131 2.40065
185.169898942346 1.75988
185.220425567764 0.934268
214.988312069922 3.87676
261.143851917306 1.37755
283.018518641865 59.6098
283.152898994863 2.02501
283.226401184355 1.33836
312.22640118435 1.0e-13

>collision 20.0
83.0803812191325 4.04919
90.9738435083479 4.58224
95.08626609687 3.2139
100.076874650275 3.63162
120.965509986987 100.0
121.019076460828 4.19688
135.007522352293 3.14115
147.002751582413 52.249
147.057879456034 2.98129
164.928915846721 2.55515
169.811110753436 2.60855
178.181996413631 3.90769
185.043082986137 26.1822
282.163601581508 3.30965
311.16360158151 1.0e-13

>collision 40.0
29.2097802028908 78.6865
85.0302531382455 57.3362
126.112818085099 93.3842
135.981282533375 67.0988
148.109155670808 100.0
235.008815750592 65.83
264.00881575059 1.0e-13

