>compound 6-keto PGE1
>formula C20H32O6
>parentmass 351.215478402015
>charge -1

>ms1peaks
93.0722707143492 1.02396
98.2490567718686 0.752391
111.043567561577 0.819263
113.378604447908 0.531259
125.09508797835 0.771129
129.055915191394 1.35354
133.061169850295 0.807624
135.111416637945 0.748067
158.941859462441 0.611137
163.076727795469 1.09544
175.116738215356 1.00578
177.08951664675 0.743537
177.748128435397 0.5924
181.084592508215 0.897058
194.576937454086 0.510919
199.104764425448 0.590272
205.078115051245 0.704547
207.090277628515 0.722122
213.124499929884 0.934265
221.107371410455 0.579378
223.0934515017 0.775725
231.135588320297 1.56849
241.103951778929 0.556077
241.191144393053 0.865741
242.526364792842 0.534745
243.179822964863 0.634488
245.116041703572 3.77642
245.188254550121 1.32974
246.121486017989 1.63867
251.177999702944 0.614432
259.141157977103 0.59965
269.18882652145 7.10037
271.180891136281 0.501594
279.203425770603 0.867349
287.195840664565 1.91157
289.184334122806 0.695392
291.203798404202 0.502315
297.184934654784 11.1736
298.168926119225 0.639795
298.258865572563 0.753352
299.70248488048 0.77002
299.931392102586 0.539409
301.376336847777 0.558631
315.196511677821 22.8931
315.364258685281 0.974885
315.487700704061 0.510695
316.197527936934 1.53902
332.228609325806 1.07245
333.204966581122 64.2391
333.341460634425 1.86071
333.422643142508 0.774467
333.567988621679 0.576865
333.60969984909 0.541952
333.693000744161 0.637631
333.815406591893 0.506216
333.978920469639 0.530902
334.037732003023 0.545247
334.151746149322 0.583134
334.220678430016 0.515047
334.295453909609 0.543874
334.457989398682 0.626992
334.535357829635 0.581029
334.637184913073 0.686337
350.236147392116 1.22581
351.00082651241 0.566193
351.217025103137 100.0
351.352126918325 2.2208
351.433022614274 1.07237
351.482863740448 1.16472
351.523622985627 0.775933
351.608736432136 0.900116
351.667317467119 0.862552
351.77570591692 0.854053
352.081924069702 0.872204
353.0819240697 1.0e-13

>collision 10.0
41.0385225093932 2.02085
43.7296499596271 1.42385
55.0549185606568 1.37516
59.0486632447104 1.25272
65.037593948167 1.50578
67.0519338112665 2.5055
69.0690429827548 1.54853
71.0072061091007 1.51487
71.0910443604524 1.61664
79.0558778811582 1.7297
91.0521659191126 1.14496
93.0698904663734 1.09626
95.0834502909528 1.14359
99.0843195423383 1.3764
101.054189166552 1.77934
107.057335579757 2.99061
111.041677533115 11.0458
115.038012824588 1.08227
117.070629865884 1.16814
121.097856417766 1.51856
125.099388245058 2.92285
129.05400741153 1.52414
133.06456920086 10.798
133.095323260527 3.13854
139.079374342762 2.47637
145.101079478048 1.45049
147.072971102493 1.10511
147.113594832054 1.48805
149.13121060815 1.53942
151.069841914454 2.35285
157.094056335726 1.87995
161.052396768454 2.09288
161.091682565866 2.78754
161.134384001226 3.85324
163.072221590975 4.15312
169.09261410788 3.92654
171.081566800448 2.75738
173.140131737692 1.6236
175.136953907915 4.637
177.083481879623 3.74229
177.127734600157 2.04794
181.084507186739 5.71439
185.100147701006 2.49066
187.144836258996 3.63124
189.125916692391 6.02312
191.089745531126 1.78162
193.084591264588 1.40098
199.111470202779 1.54495
199.159544798707 1.59516
203.141005957776 9.46662
205.087163410355 4.98993
205.161343057739 1.93396
207.133603428748 1.99358
213.081669916102 1.50982
213.133220844349 4.44981
213.168319241678 1.5209
217.119381639428 7.57446
217.192772594926 3.61271
221.116201234564 2.91984
221.166211162288 1.66067
223.09228628634 5.75627
225.169417422731 2.02138
227.138593680836 2.24509
231.133883617284 21.3669
231.190188361423 3.18082
233.111355537204 1.72907
235.134043956156 1.42234
239.171709494015 2.3659
241.104790174374 5.16619
241.190089048062 5.78562
243.181411837941 1.11353
245.113470953613 13.6407
245.186955845621 3.85162
246.119121599236 2.3361
249.148546427899 12.8582
251.176038427937 3.83178
253.156816806548 1.43773
255.17175644491 3.91214
259.202504193877 2.78347
261.183655352748 3.59421
269.189681841631 100.0
269.29788742295 2.80683
269.340928382298 1.81341
269.391283573001 1.3244
269.74707602172 1.1095
269.847430109949 1.47646
270.332305920682 1.40221
271.186500672203 2.27308
273.150080447141 3.29745
274.153089129 1.53814
279.191884526441 4.80973
279.426161830711 1.08479
283.174237575284 4.71745
287.199201847487 16.4849
297.184499640868 69.2952
297.267020239647 2.37254
297.327334222433 1.27629
297.388275412257 1.19403
305.21099935767 1.23925
315.194251525588 78.5604
315.310125143971 1.61978
315.357130589424 2.66801
318.984306811332 1.47128
332.243120263633 2.60422
333.206720053524 92.9652
333.379253564678 1.80509
333.716458882067 1.72314
351.215478402015 21.8766
352.21547840201 1.0e-13

>collision 20.0
43.0554775340452 3.57665
55.0180523264414 2.17989
55.0544244746123 22.5832
57.034427745651 9.1127
57.0698397624271 3.37558
66.0765108052671 2.12471
67.0547421121064 7.35227
69.071583298785 7.74443
71.0875962739166 4.2917
79.053815092995 19.667
81.070472714793 19.3818
81.104351130652 2.62988
83.0479507569472 10.2577
83.0796364619841 2.12847
85.0694401469993 2.02135
91.0542821391406 7.62006
93.070979730589 13.3365
95.0479666382463 5.1761
95.087854725549 8.04003
97.0992943570077 2.45646
99.0747457347939 2.27124
101.057882728225 16.673
105.065858659803 7.15487
107.050611174801 10.2506
107.081736154905 5.50593
109.065366581018 3.35316
109.100099921861 16.1868
111.043085490089 58.4786
117.069936254963 16.3756
119.080979501608 16.3916
119.112819442244 3.94319
121.027954910883 4.03492
121.099006092891 2.16249
123.069203864943 3.00639
125.055190902004 5.38563
129.067079900345 16.5655
131.047708163742 2.47008
131.087513602197 6.78261
133.063848572156 63.3617
133.096849357023 16.9834
133.167563514792 2.03905
135.083693144271 10.1805
135.116296330255 10.0154
137.05686264737 3.99141
137.093891054048 3.86795
140.105482249163 2.83943
143.088819155513 7.44259
145.092147133228 3.26337
147.080503723171 21.7516
149.133323507315 5.56434
151.108141526801 4.6981
153.123433304895 2.28986
155.098499856284 2.31037
157.06583046737 7.0852
157.103351637097 10.5837
159.039190304104 2.00202
159.076646455538 4.0998
161.057519283788 4.29462
161.13022629583 4.56795
163.075266086934 6.14904
163.108481843492 2.99877
165.079838081518 3.74057
165.135997832167 3.57692
167.06835348554 2.40316
169.104527765256 2.38496
170.101884449666 3.07291
171.11630177097 16.3526
171.162906643765 2.53933
171.35219774283 1.97941
173.090879167141 6.53786
173.134851688605 2.79899
175.074646864208 16.55
175.111992689579 8.45565
177.086774935444 9.0503
177.123418367702 9.19842
179.106058899795 3.02369
181.097240240156 7.89281
183.106710382851 2.55702
185.113192070371 9.80026
186.10020927487 1.9694
187.130496011705 5.10326
189.105024234517 15.1832
191.134428762712 5.66352
195.113402001623 3.62042
195.769080505269 2.12229
199.113783345588 12.7876
201.123038148245 8.51465
203.142355622271 45.2131
203.20989161071 3.20865
203.904559887808 1.92394
205.084333380338 6.28134
205.164663075239 4.95656
206.204109796217 2.06207
207.135829125067 3.69471
209.129824811827 3.57008
212.115472880474 4.71077
213.108062018499 9.93674
215.180603118991 3.07932
217.125043416734 2.93115
221.149742275531 6.25049
223.093263861768 4.11669
225.158836291561 4.37934
227.149085579032 2.87208
231.137006480878 40.9836
241.122079321584 2.62318
241.1961812794 18.4316
243.176503801534 11.3671
245.11731037135 7.80492
247.214190495665 1.88711
249.149381845342 7.02071
251.173110089085 10.0517
253.156659411411 3.00576
255.177693624415 4.65862
259.21007841612 5.14786
269.191366670022 100.0
271.189747132551 4.62777
273.183571477127 4.83145
279.192425824549 2.92148
287.200277967736 32.6265
289.170709834886 3.90282
297.184273261745 8.42748
304.198831597292 2.58446
315.193386152059 21.4927
333.206043124566 6.44638
351.206236465784 2.54284
352.20623646578 1.0e-13

>collision 40.0
39.0200297893369 5.07253
41.04389988849 3.56154
43.0182882968402 30.3841
43.0550054614599 23.1332
55.0172870846169 10.1172
55.0538969913302 100.0
55.0906915792652 5.34689
57.0692617143881 11.9377
59.0513226071124 13.7048
65.0408583904262 4.35774
67.0542002488248 52.7797
69.0694182415828 16.896
71.0135836632537 6.97532
71.0880324276538 8.74331
77.0385737073582 21.1517
79.0535402686332 80.0751
79.1027491767501 3.60101
80.066086610011 5.02258
81.0714464889655 51.7124
83.0492473575272 51.1619
83.084020417273 11.7722
83.1485053081877 2.85433
85.0696804685559 6.39986
91.0540644658822 58.3497
91.227723495037 3.49694
93.0694854496375 31.0271
95.049904591398 19.971
95.0853082936548 16.6767
101.059315180825 34.8213
103.052388558131 6.8393
105.069656621084 63.067
107.048753048067 30.94
107.081679299492 10.9286
108.04911914572 4.75963
109.059529804816 5.60641
111.044924517219 43.7662
115.052779466151 7.35427
117.07165211402 19.8981
117.104292294108 3.57455
119.085351382048 42.3885
121.062119730271 17.0624
123.045044963594 16.9089
125.025520974696 4.03051
125.056264703998 7.53771
125.097857442618 5.58093
128.060525723071 5.95419
128.253141899346 2.87697
129.068313825039 29.3531
130.077554776607 8.79525
131.085338302562 18.4847
133.067262804438 60.799
134.069482844413 4.71056
135.076368737565 12.9434
142.078405517418 10.1229
143.087841969118 19.6705
144.097488812674 2.7908
145.063800275461 15.0795
145.09956570651 11.1665
147.08183504876 28.4404
149.059796243612 10.0464
151.046010111638 2.79207
152.054462615534 6.41745
153.082671194089 6.89014
155.083285803454 9.12344
156.09554712783 11.236
157.062237842122 26.2106
157.098178084932 10.6862
159.112984957098 8.31633
161.056491855239 4.75973
161.100752848641 8.49328
165.074320263278 5.44142
167.086778800296 9.60184
169.109732229005 7.11773
171.100188827967 5.60877
172.08894088552 8.10009
173.087041988942 17.9567
173.12483197639 7.48975
175.138893392175 4.60106
177.072470223528 3.83673
185.090792633675 16.2145
185.132129287543 9.07045
186.067086292133 4.76036
189.127076594063 6.019
193.104142933977 6.30169
213.123159322868 3.84108
213.163737386327 2.80051
217.19293259504 2.92963
227.174998493988 4.62231
231.151860509413 3.3685
257.193017039598 3.07786
269.180320521639 4.32205
270.18032052164 1.0e-13

