>compound &#38;delta;-12-PGJ2
>formula C20H30O4
>parentmass 335.222573893983
>charge 1

>ms1peaks
67.0543217713079 0.516637
143.090742202453 0.523226
176.912913154806 0.586169
178.90760260074 5.50368
189.133573531486 0.54177
199.116792280396 3.53116
215.1112361503 0.953306
217.12225532238 5.88668
235.132112826328 12.6642
254.926423806794 2.2268
256.92437896046 45.8819
257.190072810194 0.725406
257.969311370283 1.07503
281.195804923967 1.85928
299.203309861014 5.57005
317.211542197964 58.3013
317.3327246971 1.46006
317.374083175105 1.09572
317.799295613126 0.610118
334.936339355616 34.6872
335.111354245722 0.550981
335.222573893983 100.0
335.384164036038 1.56937
335.432029915139 1.02208
335.519783883764 0.991096
335.63367219469 1.15838
335.79331469319 0.872915
335.9347859183 1.18283
336.035685770705 0.873705
336.092032785333 0.686601
336.141170981571 0.677167
336.211892847722 0.621618

>collision 10.0
55.0554057505076 0.999959
67.0540865419746 1.04181
79.0217608118296 1.00672
79.0524282107903 0.59586
81.0717593814238 1.30075
83.0483617806707 0.512875
83.0861379848104 0.771072
91.0524670383222 1.10006
95.0850296607197 0.689629
97.063234799925 0.741583
105.07012074936 0.823439
107.084532825964 0.696409
109.100388724557 1.64176
119.082249111165 0.78055
121.066908601251 1.71602
123.113453785865 0.603216
129.070224074477 1.26715
131.08523511432 1.80565
133.06393956483 2.54698
135.079829588313 0.884774
143.085127955503 1.251
145.063088058624 2.14393
145.100414390298 1.0925
147.081132193026 1.62738
147.12351545635 0.593266
155.084225344618 1.0456
157.099134974049 1.29348
159.084837281901 1.11667
161.080951409752 0.620193
161.133627569549 0.886205
163.879902446013 0.943318
169.095830353609 1.9701
171.11473603422 8.59258
173.097058145893 2.50972
175.110854215901 1.3572
176.909273444652 2.19711
178.906244673907 32.6071
179.026151362368 0.710265
179.080748425018 0.986599
179.960584526335 1.12953
181.101543582932 0.779115
183.112288796382 1.77246
185.094966970578 2.38244
187.127643896318 1.04117
189.126724640332 5.59415
191.14233133461 0.878329
197.109680975767 1.46774
199.111297187831 29.6835
199.212275430144 0.75242
201.116260924607 1.17839
203.105846706342 2.23577
207.113654363367 1.22586
211.121886844861 0.78808
213.120364342275 0.683406
215.126445078972 6.34593
217.120599651289 33.6366
217.253101620348 0.652998
221.128532450047 0.509362
223.144143420476 0.598397
225.14186636437 0.762889
229.130841558869 1.28347
233.121509782633 0.835038
235.13141126243 26.8718
235.231385578618 0.792261
239.175774844615 1.00119
243.157879089324 0.624429
253.193186697489 2.3382
254.923377570766 2.62556
255.168042602783 0.603285
255.930170776675 0.692112
256.920340282573 66.1173
257.029011080863 1.30678
257.069931405353 0.96353
257.115536777964 0.633249
257.192872095782 1.19921
257.560052420561 0.567807
257.965487137463 0.757574
263.180786814755 0.820199
271.202838942232 3.86211
281.189597009731 7.02937
299.197820648631 32.8347
317.209772976642 100.0
317.371676057612 1.71327
317.412801762656 0.909475
317.465288154014 0.693692
317.719782362193 1.01079
318.18866212237 0.719473
334.931806182933 0.671371
335.220744319426 4.53306

>collision 20.0
43.0550082996699 1.37194
55.018879424811 6.03126
55.0559285604741 8.73128
57.0348228994964 0.790561
57.071892582052 1.44166
67.0545372374573 5.88503
69.0378049720424 0.670964
69.071461536511 3.96692
70.7536004494114 0.528713
71.0510351579774 1.34258
71.0840319947934 1.97626
79.023400699709 1.67254
79.0545179426462 2.14076
80.0158191571818 0.544341
81.0346022273161 1.12354
81.071487162445 4.78733
83.04869854603 1.781
83.0846733539906 3.78188
85.0652206085165 1.72895
85.0987999664514 0.575007
91.0554949538119 2.1321
93.0685252570943 2.83809
95.0490482790156 1.05437
95.0851794423088 3.85415
97.0626454501815 2.27371
97.1016725701766 0.667574
101.057520643114 0.663541
101.950851677538 0.85624
105.068684882377 6.74873
107.04785726896 5.66413
107.082267816659 2.58325
109.101762494554 10.3481
111.082105813014 1.67419
115.053354257634 1.13203
117.069741503636 4.70864
119.046274272341 1.88455
119.083534476115 4.78164
121.064687266611 11.7988
121.099733520194 2.85592
123.07865832624 1.44908
123.113256403443 0.779152
125.05406513095 0.523768
125.095759735002 0.821011
127.069440183914 0.840649
129.069864948057 6.71942
131.085226900728 6.47417
133.064572012988 11.8383
133.098140933274 5.49965
133.145754110892 0.855876
134.95384416935 3.00084
135.081230053231 7.15137
137.065572453419 0.628146
141.068941592366 3.61309
142.083413236366 1.11002
142.941743301738 0.790694
143.08783633723 7.32993
143.935217542691 0.59231
144.056970165932 0.638129
145.065034788018 6.56458
145.102237156717 7.52318
147.080842662715 7.12043
147.117506669084 2.7017
148.082256362547 0.523488
149.092513836836 1.43482
151.081295214383 0.825958
154.081077697973 0.881101
155.083406875101 3.36896
157.100800381359 7.95677
158.070121033447 1.12304
159.081725925041 6.24554
160.086196505563 0.767042
161.104389930373 5.88564
162.939313340366 1.46476
163.112106829601 2.27126
163.147348026413 1.12105
163.886947354164 1.86729
165.067123193636 0.835679
165.124409408248 0.784184
166.078661795331 0.797369
169.100876931978 4.98074
170.07773149684 0.683128
171.116039323406 32.6835
171.19583917448 1.17392
171.456754897427 0.528226
172.093543178433 0.616167
172.129729961372 0.572058
173.095204055076 8.40785
173.12594652705 3.25929
175.115910447205 6.41645
175.192256682349 0.593898
176.912124947788 9.55928
177.112540531117 0.656349
177.940256117869 0.622851
178.908698427388 100.0
179.026163360247 2.06937
179.088574120691 1.51904
179.141941078199 1.45837
179.195058090399 0.526085
179.236773360724 0.58336
179.387390457929 0.545563
179.569424669125 0.603331
179.910315289844 0.595669
179.963428722368 2.42135
180.030189220939 0.52193
181.100572872298 3.90411
182.073841086418 0.509845
183.115882856955 5.29211
184.091887629427 1.46112
185.095607986685 7.12082
187.111566676384 4.88283
189.127722498001 15.9115
191.145913809618 2.32696
193.099628439961 0.958629
197.106948337476 5.70991
199.112538564162 42.6996
199.551220836324 0.58487
199.717231708489 0.511316
200.06340275088 0.52514
201.122468844974 4.01476
203.108212774393 4.55187
203.1458687043 1.75336
205.130923106599 1.07238
207.124368374842 0.98491
209.147936855068 1.11857
211.114642863234 3.39353
213.154531759468 1.9342
215.128215560377 10.4985
215.278637308603 0.539069
217.122521280764 20.3635
217.226362964853 0.772696
217.529828363413 0.541702
219.105570174535 0.656282
221.124697035836 1.83925
225.133632449969 2.37058
229.127442245686 2.24241
231.141393152593 0.849503
233.113071243254 1.9707
233.155065526721 1.3787
234.134406078578 0.764152
235.135475325629 4.47193
239.177714690514 2.8835
239.24946733526 0.516283
243.199730376798 1.29393
253.195940942766 4.9183
254.920069662014 1.06028
255.18170255892 1.42641
256.925094702984 11.7239
257.188198102636 1.12565
261.153768875977 0.737345
263.182658628726 3.10373
271.206142857118 3.96398
281.191243374277 6.08195
299.201831644357 21.7854
299.335339575614 0.53343
317.212333030111 18.5598
317.533842965623 0.51669

>collision 40.0
26.6776324302861 0.801058
41.0398673139065 9.52876
43.0194974396287 4.01147
43.0560257074829 12.1593
45.0321468512589 1.3336
53.0374088941411 3.52526
55.0186041125637 30.0868
55.0547515354211 62.4443
55.1204039827378 1.11944
55.228924530118 1.13052
56.9409067680551 1.1228
56.9630290104363 0.816758
57.0353450802121 2.35174
57.0701416555222 3.17134
61.0116121987524 9.06452
62.9944970217818 2.0568
64.9901216520562 0.797577
65.0385553454219 1.82615
67.0545313429663 39.8598
67.1077259750487 1.06757
67.1285648016905 0.680962
68.6911104838083 0.753027
69.0317116065076 2.35449
69.0704057398728 11.3658
71.0507528493066 1.34593
71.0904222176664 0.962252
77.0397441277757 13.3853
78.0139667764369 0.909153
79.0546592604592 46.6211
79.1302445647882 0.676353
80.014289535838 1.02568
81.0705789738362 28.3318
81.1541908995874 0.674432
82.0457185113371 0.840302
83.0465941227175 5.44368
83.0844202606722 9.90855
83.9289376644202 0.740724
85.0250419160927 2.21542
85.0673312648049 5.78539
91.0554088026398 45.2961
91.1394150724688 0.800912
91.3496288656375 1.04133
91.876464297565 0.646947
93.069171389341 20.071
94.03971411011 2.20117
95.0508321673985 5.42505
95.086685360288 5.26208
97.065232112925 3.46478
98.8984223943054 3.03129
98.9800266002531 1.29818
99.0433646447503 0.688941
100.894477552687 10.6251
101.919127233824 0.702449
101.953081200813 6.91762
102.925440758478 1.6609
103.057097449289 5.48583
104.058675793808 1.39294
105.070539175245 50.848
105.13531241175 1.58796
105.16469854435 1.63414
105.196581726556 0.655146
106.037186784277 0.8332
106.083307682129 1.11471
107.04946936424 14.5722
107.084168191038 6.37864
107.123871122297 1.51085
108.055663375923 2.47809
109.081430770462 9.19016
111.042490836619 0.774896
111.079713955952 1.22034
115.05581881211 13.4206
116.061234170988 3.62969
117.069862378846 25.3454
117.158680097412 1.06668
119.085965907657 22.8387
119.286166483968 0.705651
119.965654158044 1.34029
120.056252510393 3.02872
120.088291359202 0.866554
121.065162608949 14.4621
123.034886118684 1.67223
123.080388047368 2.77387
125.055752614801 1.48869
127.055436356854 4.35125
128.063078613265 21.4519
129.069285129307 47.178
129.162432444302 0.897294
130.078068450965 4.70023
131.085234178019 33.6155
131.497572148328 0.763288
132.056954825421 2.56837
132.096860547233 0.865411
132.946514525111 0.64041
133.066087179809 46.2387
133.171447299998 0.832597
133.394699392726 0.743809
133.957193992073 1.54195
134.955398088475 7.35154
135.081820119993 6.45968
135.218453559441 0.769826
135.299127751935 0.705734
136.547923296575 0.793471
137.061748660968 0.881364
141.06944862314 14.5351
142.078287125106 17.2321
142.141293877922 1.0397
143.086231155907 34.0787
143.26611464442 0.659392
143.449168895653 0.707394
143.943273515803 1.01636
144.065310516113 2.6241
145.082699586986 18.3131
145.3287891283 0.904157
145.568383212487 0.657368
146.07366987617 1.69745
147.079593770409 20.0951
147.112390896426 7.19536
147.9101008626 0.760832
148.093590165622 3.91001
149.072218209658 2.94893
152.055476289955 1.12785
153.071053052281 4.67669
154.075068692175 6.07928
155.086202811158 13.2617
155.150720257875 1.02494
156.09030747537 4.28947
157.091982474352 10.9913
158.071129314288 7.55153
159.083689799266 12.1242
159.557579904296 0.674711
160.082855428945 1.24692
161.096307384069 7.47683
161.890271400121 5.64567
162.322070823884 0.699336
162.876009690652 2.18653
162.936365081614 1.04095
163.111242672365 1.98655
163.883993649813 74.4967
163.999153044251 1.28682
164.520861299403 0.81252
164.658917900096 1.721
165.068436270796 7.03003
166.080815115944 5.34942
166.351238052065 1.05968
166.572621739262 0.710219
167.083363102831 3.83954
168.0883988585 3.40626
169.097665382019 7.42194
170.068939675193 1.48448
171.110272053607 24.272
171.236669891219 0.702449
172.079865782849 2.33782
172.118090729847 0.992635
173.097588853299 7.07052
173.199791994633 0.688726
174.109257873023 2.45087
175.117997317798 2.08209
176.90941077735 6.744
178.908328701576 100.0
179.026967017598 1.89272
179.084346171974 1.32942
179.140200364534 1.20571
179.204608471642 0.936406
179.301913422659 0.659702
179.360523021323 0.83907
179.438789192952 0.730753
179.69665018169 0.641744
179.909677386023 1.04107
179.965201115155 2.54847
180.10503133352 1.05668
181.092507068703 2.25778
181.277878649156 1.01443
182.117016613975 0.89309
183.075197320767 3.88517
183.115174014442 3.86104
184.090175505394 8.51205
185.09489985376 2.78691
187.117345763804 2.55184
189.128152708797 4.00061
191.028593717955 1.09695
191.089465340443 1.28882
195.111087508954 1.50668
196.113020970245 1.10871
197.123357403808 2.10355
199.109862848095 9.57594
201.13546700171 2.35559
202.143281499777 0.67962
207.791742510747 0.680906
211.133906421863 1.46334
217.160473721894 1.40187
221.135265872393 0.711598
223.10702385774 0.849998
229.137882867202 1.02826
239.164389982239 1.05744
259.138412406629 1.88406

