>compound (&#38;plusmn;)8,9-DHET
>formula C20H34O4
>parentmass 339.252551311513
>charge 1

>ms1peaks
67.0552577956535 1.01749
81.0695912900824 2.46185
95.0857848770379 3.19432
97.065332978383 0.519023
105.070088336018 0.921249
109.103290016335 1.493
111.082534785206 0.937164
113.05767457049 0.856834
117.073386998547 0.555052
121.100475658629 0.753664
123.080277619544 1.39165
123.11633727948 0.707767
127.112629185654 1.02289
131.075960529439 0.770559
133.09958153003 1.08947
135.114658320833 1.43891
137.05847082903 1.88686
137.133126985242 5.36995
139.075923276601 2.49947
141.107557690177 0.618095
149.128554992847 0.877659
151.076645621808 0.785455
151.146158969704 0.77373
153.09135695855 1.20653
155.069343126548 0.635909
155.142642059213 7.95283
157.089625342753 1.50174
161.117038797239 0.812419
163.150194490831 0.902265
165.088811023717 0.712183
165.149254994075 0.527263
167.105792370245 1.09256
169.086907604509 3.68734
175.14722062013 2.05349
177.160618024466 1.33335
179.109493954051 1.28329
181.132689011973 1.03403
187.095766696996 1.40555
187.143207986701 0.960933
189.162869484375 0.68735
191.17678229964 2.57475
193.156279471173 3.49097
195.107038326733 1.43339
201.162636678825 3.33176
207.157868246943 0.645702
209.11851294387 1.09815
209.188977906335 2.24668
211.170160273134 0.970918
219.170527370826 1.60727
221.154863274243 1.26927
227.125015972769 0.66708
237.183461078438 1.40876
257.208229968762 0.746896
267.21112094773 2.95476
285.219777304753 5.35007
303.231549484761 37.873
303.388689056666 0.633247
321.24198280842 59.8593
321.35456817824 1.24913
321.404041344354 0.920244
322.040042261223 0.534968
322.230661070132 0.617855
338.340246578485 4.44004
339.252551311513 100.0
339.469090818629 1.13362
339.559124350335 0.550205
339.740142424101 0.660332
340.042517949149 0.565391
340.210610323555 0.554163

>collision 10.0
43.0184440527135 2.6059
43.0543606903224 1.96163
55.0165473627118 0.525467
55.0539711117949 4.53459
57.0323873358612 0.593306
57.0696245616116 6.13615
65.039117561598 1.03502
67.0549173335277 21.8362
67.1281273773278 0.557426
69.070957221248 4.89802
71.0495036908069 3.77388
71.084373468727 2.34235
79.0535780183347 5.85399
81.0315930283832 1.42812
81.0706898843651 29.3928
81.31749041549 0.613457
83.0480291535587 1.41262
83.0860986059939 9.45059
85.0274132916593 7.55513
85.0641297603175 3.86128
85.100502546803 3.68908
91.0568393060887 4.39557
93.068913665642 11.9661
95.0497897896205 2.28129
95.085805930989 33.4074
95.1527260038837 0.817101
95.1736296804177 0.526077
97.064891551495 3.66429
97.098782180554 4.61724
99.0408420946814 1.5766
99.080314159932 1.54784
101.024061328746 0.662648
101.059178297771 1.48656
105.069077379323 11.6234
107.084829678026 7.99737
109.063029006713 4.98198
109.101116410714 15.1795
109.495307815041 0.593763
111.041713827049 1.66596
111.078748137631 3.96789
111.113234496928 1.20538
113.06149122634 2.38437
113.09328347638 1.6009
117.069574374783 6.08649
119.085368766751 9.52964
121.06190003003 2.78689
121.101096164059 15.0504
123.080704460927 20.636
123.114228908271 7.07208
125.064197800075 4.04278
125.162176746512 0.51637
126.130884501423 0.999559
127.075862015246 3.04831
127.124300917729 0.545647
129.079173168604 1.32497
131.084814350598 13.9053
133.063115982423 5.13797
133.100925626238 8.68375
135.102663805298 3.90224
137.058053705934 8.37562
137.09257602844 1.70838
137.13194620743 23.6447
137.208334590018 0.511481
139.07471431097 13.1376
141.122766177596 2.83858
143.082191780514 1.83703
145.103309458078 4.91181
147.1155380762 9.77905
149.095653116203 8.53165
149.131678390935 6.39637
151.074329182463 15.1057
151.144891984352 4.05364
153.088976750886 4.24018
153.122677202459 1.28573
155.080792096071 1.77968
155.142022022499 13.0731
157.09448998374 7.68145
159.110805467145 4.272
161.121989860269 6.69747
163.140859434972 6.60592
165.090569412993 3.27046
165.161558723692 3.17865
167.11589075124 3.11426
167.172203840491 0.867118
168.08634822234 1.30421
169.087059712693 17.9444
169.151835498246 1.12297
169.372421466287 0.767447
170.626591570633 0.538474
171.114783371472 2.48341
173.130524124579 5.80612
175.14740645893 19.3373
177.148970673057 4.04104
179.114221073271 6.57069
179.176262624213 2.32745
181.148592463177 1.92931
183.117142464783 5.5734
185.133157301986 3.0027
187.130758386633 4.794
189.123169245765 1.40682
189.162762121099 8.88761
191.148370013539 6.36787
193.157597397256 14.5886
195.09879944764 3.81038
195.135316688926 1.923
197.131735770653 3.38167
199.15338980728 1.92448
200.902075169719 0.734404
201.162583743086 16.9121
201.266474913437 0.515793
203.147436543903 1.06294
205.143456377963 4.28546
207.153963473276 3.77837
209.176909174517 4.01302
211.033631038136 0.501028
211.157167146689 2.82793
213.161053119687 1.93179
215.142169583894 4.80919
217.152292366918 0.816048
219.17289751106 15.8508
219.253001354538 0.7188
219.77622660598 0.525043
221.154530299488 2.68077
224.207485939217 0.546872
225.160623022566 2.38359
229.180901188866 1.03681
233.149556225312 2.10224
235.168468422893 0.845408
237.181658317917 6.01468
237.255613115668 0.767047
237.738185256792 0.530036
239.173578986593 1.10745
241.196091389584 2.58727
243.20628352543 4.94764
247.17965075042 0.598887
249.184170525914 0.500359
257.218389732569 3.36328
259.199209343154 0.598364
261.182841904268 1.86463
267.210150659557 13.1336
267.713420249773 0.567039
275.237893505005 1.12959
277.218240949204 1.51331
285.221421511282 26.1656
285.329213401967 0.794477
285.437147922559 0.930642
293.244574135247 0.999469
303.230534819741 100.0
303.461424002658 1.08642
303.518459815706 0.792497
303.599673416346 1.04575
303.659149679078 0.637462
303.707782850047 0.698861
303.799563432233 0.65136
304.13930202458 0.598783
304.18441548584 0.570895
304.329851770054 0.735406
304.451067085646 0.887754
321.241692533335 42.1634
321.407415938181 0.51336
321.810116068571 0.649422
322.071993065594 0.589711
322.318170112964 0.684484
322.537858226518 0.624278
338.338850339519 11.7212
339.238437841347 8.12921
339.336174406819 2.28453

>collision 20.0
41.0397974687897 7.01325
43.0180973478023 7.048
43.0546128518227 10.9998
51.0234757045213 0.798679
55.0182544917093 5.25827
55.0549506605229 24.3009
55.1063307484296 0.617592
55.3855255610835 0.52487
57.035229701937 2.96877
57.069372121035 6.42277
59.05001781784 1.56101
60.0434222254662 0.890796
61.0256258532571 0.801771
65.0393024790385 0.889523
66.0486188941636 0.967659
67.0545635216489 67.2629
67.1130281835794 1.02167
67.162026683875 0.713259
67.2136161064807 0.572899
68.0584866715103 0.755232
69.0337551954914 1.42817
69.0704127408155 23.2259
71.0133511639978 1.48538
71.0491410760293 6.43142
71.0856755891769 9.43761
77.0376252669684 2.65807
79.054108756854 25.5243
80.0592199364126 1.53007
81.0330619259002 6.63884
81.0699682863033 92.3698
81.1816625505547 1.12648
81.2098565575033 0.576757
81.3502225593709 0.751167
81.4527229728952 0.544889
81.748144748878 0.567628
82.6680258008702 0.52838
83.0476550171612 4.05258
83.0854260230987 25.8948
83.2164330762849 0.576043
85.0282593756004 14.3169
85.065446072767 10.4797
85.0982828355367 3.50239
86.0987352420589 0.547203
87.0467003609872 5.20725
91.0538587572557 27.1446
91.0988689832993 1.37829
91.5543592122633 0.529705
93.0698684996517 42.3748
93.1365327273275 0.614013
93.1613140426538 0.604866
93.3770630396724 0.794986
94.0757047346393 0.54743
94.8932337197458 0.608951
95.0479601758715 10.2697
95.0852195795393 100.0
95.1719665795182 2.11735
95.2135480443714 1.0435
95.2644413543694 0.843912
95.356310171065 0.550782
95.4090811826558 1.24741
95.44018235646 0.538719
95.4746529632742 0.822123
95.5498429458637 0.842496
97.0655527904534 12.8204
97.1002988814936 8.02977
99.046797358934 2.78107
99.0805686932569 3.08828
100.077391844978 0.598787
101.059349292867 2.89643
105.06964746546 31.6551
105.16348100539 0.879712
105.328849475289 0.598424
107.049813527571 4.22809
107.085349298055 33.4798
107.178348746662 0.699456
107.207446019553 0.509733
109.065455477364 18.0
109.100209166108 27.7238
109.201478819641 0.509344
109.437726189732 0.53344
110.097212685635 0.793009
110.201371695293 0.509085
110.395403910123 0.631738
110.781889771677 0.592161
111.078064229851 14.4988
111.112538061887 3.72949
113.060381966987 10.6901
114.088716835367 0.994098
115.073564897591 0.572654
117.069984969867 15.7734
119.049042746044 0.764448
119.084478479077 27.5856
119.183850529121 0.705637
121.098706308828 25.6364
121.177974922481 0.547998
123.080757989331 49.8637
123.225644266042 0.600785
123.401791742917 0.780507
123.461928463948 0.558338
123.54825517541 0.538093
125.061263441109 7.08949
125.093404192663 2.1846
125.129509712025 1.06736
127.076718977459 2.29785
127.108934399521 2.07698
129.06977263878 8.51083
129.12737808659 0.563322
130.078636475625 0.54014
131.085538123954 22.8231
132.054119392466 0.835536
133.099838320322 24.5503
133.16226455826 0.763539
135.078692488454 16.4516
135.114902522013 15.5464
135.185517030128 0.600969
137.058996692419 9.55109
137.091379134086 3.52033
137.131819748311 13.7702
137.510966204055 0.643369
138.159033922531 0.535231
139.075428456066 12.5594
141.075336426314 2.94047
141.126082087205 0.549324
143.084505789625 7.48981
143.149134791118 0.526379
145.099239317241 19.7532
147.104589727383 8.87692
149.100496340238 12.8101
151.074431100944 20.307
151.144525573215 4.08754
153.09310816946 2.05088
153.12626373736 1.31781
155.084280500568 3.31834
155.139021573685 1.54854
157.099658699043 6.64808
159.115262892082 14.7933
159.168191756399 1.13263
159.64597614498 0.571906
160.086238290264 0.574245
161.119484926985 10.3167
163.072054386273 1.21201
163.144757059347 8.81008
163.297759037534 0.614013
165.091178261798 4.27175
165.16355558213 3.40322
165.870537202079 1.27776
167.103319514153 2.82861
169.091999145576 8.97159
171.117066495305 4.20225
173.131008976262 11.1887
173.655204460619 0.687934
173.968770777784 0.67499
175.107899419066 1.93413
175.149503607883 14.6676
177.102677952656 5.34179
177.161281398561 5.73296
177.212077684886 0.587073
177.389007970006 0.584118
179.102602562943 6.20912
179.139008200742 5.44372
179.17638756154 1.38732
181.103505835055 1.22898
183.115559297928 5.18851
185.135879815758 4.06802
186.182071024252 0.650818
187.12388337194 6.57842
189.155571552095 5.68878
191.105318302609 4.5551
191.138217596715 3.52841
191.176614922018 4.91638
193.15442157298 5.80357
195.097097872429 1.07043
195.169537619853 0.625943
197.13094147993 6.15793
199.140806712725 1.1673
201.159618501201 15.4501
201.248807487483 0.691427
203.136275539765 1.16056
205.151833408221 3.89012
207.171515016444 0.752237
209.105569576208 0.632722
209.182008397504 0.57879
211.148585002101 3.19732
213.163811161232 1.91514
215.137634816721 1.69843
215.181684725682 1.79253
217.156562918031 1.72989
219.170597437611 10.5236
221.146988827065 0.941698
223.090212140965 0.779658
223.162002250977 0.893977
225.161513426108 3.65324
228.088633235556 0.586441
229.193350051188 1.15128
231.202295964203 0.999741
233.16577762972 0.930255
235.173272065529 0.535008
237.182219216608 2.88032
239.184923208544 1.07156
241.194018094551 2.21634
243.212045102879 2.83932
247.159335135387 0.942252
255.190616318311 0.586002
257.221546368524 2.92869
259.203004861463 1.2182
261.059503924916 0.525912
267.21205349638 5.5883
268.279662137826 0.635102
273.224552703593 0.623966
275.239497575121 2.26125
279.118823304386 1.36386
285.218765481287 5.20401
293.2401378905 0.828674
303.228792959922 10.9017
303.296686333251 1.71849
321.246930090755 1.55435
321.316494619816 0.960026
338.338500065718 2.74278
339.128840139352 2.83232

>collision 40.0
39.0226350330389 0.842146
41.040029476825 13.6357
43.018492148844 7.76239
43.0552903887301 17.2572
44.0098403554773 0.528845
45.0344639576125 1.05471
51.0226180565412 1.39019
53.0396614654595 1.65068
55.0179780326628 11.7004
55.0544507494679 39.7059
55.1240329666392 0.704176
55.2934770255691 0.68021
56.0578888559101 0.747257
57.033691828592 4.36825
57.0693895925856 9.23024
61.0267008170178 0.995694
65.0389515509731 3.65106
67.054436151696 100.0
67.1308032695865 1.59115
67.193841018506 0.726842
67.2626586689911 0.577902
67.3856971268477 0.560266
67.6243187201809 0.530905
69.033100741259 2.31188
69.0701638034945 22.5345
69.1265768730374 0.705253
71.0476730302322 1.6592
71.086734189138 0.975758
73.0647536760111 0.667171
77.0383300299404 9.84847
77.0818114589775 0.523242
79.054695858207 48.4432
79.1369316345061 0.568461
79.3408710917992 0.503647
79.4183352991078 0.532061
81.0344540326345 5.80714
81.0702790027565 65.5011
81.1498447339367 1.03889
81.1799797794029 0.505169
81.2207403614746 0.659503
83.0492788375137 3.22884
83.0860135180351 5.87704
85.0291754766887 9.33
85.063528672137 4.28757
91.0539388616553 53.1782
91.1403819795305 1.01011
93.0696885505813 39.7919
93.1426040716965 0.57604
93.3195714385067 0.593334
93.3984747379283 0.550521
95.0485449935594 7.55209
95.0850700359643 62.7711
95.1724050659356 1.33597
95.2108668888797 0.678328
97.0256450804132 0.866797
97.0648255986265 7.31984
99.0773261748819 1.93281
103.053383154931 1.84455
104.061496950963 0.909479
105.069890891608 25.5025
107.049319090264 1.08105
107.084819027112 9.23467
109.065316791536 8.07869
109.099817583737 7.09472
110.111954303793 0.629092
111.041502252569 1.13471
111.082777772007 1.14535
113.056635415892 0.886323
115.055092579775 1.97799
116.062638790954 1.74657
117.069258719594 14.7737
119.085317624036 14.9431
120.089839004275 1.15474
121.063834850203 4.38106
121.100872851017 6.19491
123.07963944758 12.8977
125.058451669624 2.24332
125.094071678658 1.20437
128.058137636614 1.36648
129.070044606674 3.8996
130.076973067936 2.74176
131.083811001256 17.0121
133.101288108473 4.63002
135.080503873485 1.79889
135.111250033534 1.23432
137.098970670142 0.576594
141.070704389512 2.3571
143.083764992965 2.07231
144.095966966652 0.766352
145.055890770342 0.83195
145.098027264679 7.91917
147.118587881993 1.71996
149.02319817938 0.576053
149.094342245666 1.14911
151.071860622958 0.594117
155.084507817175 1.57746
157.096004750107 1.2334
159.119858840704 0.653709
162.098825464576 0.513569
163.11053396288 0.912694
166.039528925499 0.606852
167.079767385086 0.966216
168.088347993387 0.879822
169.10398334091 0.641908
171.103841997304 0.835959
172.586240497969 0.530927
175.142122288368 1.19034
187.118905972055 1.03653

