>compound (&#38;plusmn;)11,12-DHET
>formula C20H34O4
>parentmass 339.25328182343
>charge 1

>ms1peaks
67.0552123942597 0.755929
81.0702774214224 1.18357
93.0703367909355 0.795343
107.085364388135 1.39308
109.100253443093 0.614376
131.082398627978 1.17215
133.100193871988 1.44132
135.114604152544 1.52288
139.112358594703 0.796576
145.096923208109 0.582705
147.114491307242 0.706756
149.11546545692 0.927839
151.111432179271 1.91676
151.145150927985 0.598924
153.098874473072 2.70578
161.109728488925 0.61632
163.111990371144 0.556804
165.127557464109 1.10091
167.103929419553 0.537115
167.139624341543 0.519591
169.121981901607 0.594089
171.120035550482 1.68333
173.127555584761 0.578831
175.1230109239 0.973698
179.105644321532 0.833626
181.121760329272 0.64115
187.143982804592 0.966875
189.142676017334 0.709734
191.102694598104 0.743337
193.118138026981 0.504687
197.139257487145 1.79699
201.160197797354 0.8068
205.138016738655 0.880215
207.140455060546 1.77585
209.116204308241 1.64345
219.170525150243 0.984468
221.155945881621 0.679083
225.150856855688 0.613931
227.13125865345 0.970096
267.210996525845 2.46173
275.238409100374 0.541469
285.221645612395 5.46662
303.232421025792 37.2816
321.24278198137 43.3148
321.399503560023 0.623437
338.342926818498 6.4185
339.25328182343 100.0
339.423317447054 1.68684
339.474458308633 1.08572
339.528898803727 0.698427
339.752345037586 0.660168
339.955108661359 0.724915
340.013873848415 0.536838
340.106593424848 0.526249
340.183224559479 0.530862

>collision 10.0
43.0192537945778 0.886279
43.0550277112077 1.6422
55.0167196085211 0.875175
55.0546046491572 2.27496
57.0340948999197 1.89428
57.0706387919224 3.09268
67.0547731988085 5.45048
67.0839578898311 0.674905
69.0713578533361 10.3821
71.0502151339152 2.25514
71.0861424879477 1.29089
74.0954587234812 0.609917
77.0393506267786 0.873559
79.0534675361468 4.32261
81.0701231330377 10.2481
81.109037505307 0.739796
83.0486650717054 1.68754
83.0842042014194 2.6103
85.0661054723686 3.34126
85.101712087141 4.4664
91.0544546686885 8.2394
93.0700617826666 9.93885
95.0481702976004 1.26848
95.086204498576 10.0496
97.0658884864704 6.23946
97.098581072687 1.76696
99.0497847886376 0.618527
99.0820659564656 1.78293
101.062461194603 0.935029
105.069801548032 4.39943
107.0493760482 4.22484
107.083959536149 9.74
109.063130925346 0.937058
109.10156784765 3.40215
111.042962509514 0.900467
111.081624433863 4.49394
111.11417459866 1.372
113.058033547983 0.54464
113.097496023776 4.79346
115.046681178102 0.749861
117.069770423941 7.78099
119.085102097352 10.733
121.101493033625 12.119
123.081242653224 2.9607
123.115675096679 4.782
125.097580141971 2.18257
125.130591901202 1.61012
129.069772321529 1.86677
131.08647285434 14.9639
132.095903487974 0.682236
133.100635054753 17.6193
135.079488412774 8.30629
135.117139653462 22.5449
135.225396810009 0.72673
137.130510002449 5.05416
139.07422472695 3.75354
139.112109114602 9.33088
141.116408553355 1.45775
143.08140196873 0.550037
145.102082020108 5.37728
147.114705124099 10.6502
149.10897950411 9.08778
151.11395542651 8.31293
153.090705149435 19.626
153.124784640805 12.2323
155.087898977267 1.58392
155.138649452927 1.14964
157.100837539028 5.05119
159.108675349746 3.79221
161.108528573623 6.58579
163.108697182188 4.07534
163.148885895856 5.59912
165.119992634534 4.25587
167.108660928716 4.20976
169.105186110917 3.81185
169.158123634756 0.751572
171.121495606736 7.64133
173.126127662828 5.10659
173.757548715832 0.547975
175.145818538308 8.24188
177.089850013833 3.74278
177.162133775992 2.56788
179.108177352185 4.18586
179.174817479932 1.01347
179.46426081247 0.549628
181.12150952146 1.70724
183.115394137989 2.12223
185.131263938767 0.58627
187.141312621806 4.87453
189.16030289814 5.61405
191.113000907133 7.53854
191.177257759655 2.66234
193.136207039041 4.59768
193.189423113908 1.34302
195.097179391944 1.34965
195.136206353298 0.735073
197.145281981544 6.98007
199.147670250482 1.60695
201.160215022599 8.75849
203.062808406254 0.600917
203.165944145333 1.04341
205.143776091661 4.30237
207.140701749326 5.16747
209.120962800104 4.79408
211.154970806664 2.89694
213.162384490608 0.619147
215.140926051541 2.49248
215.178610658501 1.13649
217.15988130713 0.944372
219.170306162458 7.42143
221.15495722226 1.9263
223.161960394385 1.28867
225.153890693551 1.46254
227.129276537083 1.58702
228.111386462273 0.515478
229.194919673733 0.64688
233.154193775863 2.16804
235.169903174606 0.978411
237.185755298792 1.04396
239.179049534458 1.03255
241.190939716199 1.05048
243.209489150274 3.75587
247.170249541705 1.67036
254.249097818533 0.795741
257.220176335016 5.30238
261.191484517467 0.704211
267.211612759927 8.94583
275.239702895527 0.596957
277.214555548236 1.17358
279.105206889239 0.563834
285.221355419282 24.5665
303.231974079704 100.0
303.387436740961 1.72949
303.474531040196 0.824524
303.590377918058 0.815113
303.703434727585 1.00112
303.760708995973 0.529537
303.92584510592 0.566615
304.117688671296 0.630357
317.174569665701 0.619982
321.24179842803 52.9779
321.398778228752 0.86493
321.51285941675 0.742978
321.604773215625 0.649911
321.783819301585 0.564386
321.938450775553 0.51919
322.326999495742 1.24021
338.343204387567 11.0907
339.157648098688 3.26351
339.253059082936 8.52798
339.348017304183 3.95353

>collision 20.0
39.0218890096364 2.40649
41.0395923694064 10.1322
43.0203641587566 10.0069
43.0553062995808 27.2689
43.0994228823145 1.16497
46.0131687587093 1.26433
50.0155606791137 1.12508
53.0362036715382 3.00132
55.0179744652718 12.9554
55.0557028311291 53.2014
55.102607193263 1.63463
55.125052161714 1.22676
57.0346628726738 9.13318
57.0693769526534 15.637
58.0746538214125 2.42471
65.0381589934449 3.10194
67.055065804825 64.3545
67.1267536714258 1.63245
67.1499341694041 1.04573
69.0363744384583 7.28566
69.0705981633979 100.0
69.1440670983017 1.17073
69.4292209019408 1.08042
70.0733154348833 2.89017
71.0508745920738 8.29215
71.085642019331 12.4608
75.0383044851935 1.02649
77.0379445612957 9.02676
79.0542576456439 51.0876
79.1214474553755 1.103
81.0705215246758 66.563
81.1435065492028 1.45541
81.1560614194747 1.81215
81.287664115553 1.42454
81.3985255390488 1.33075
83.0487933215627 27.8948
83.0840673833585 20.8493
84.089459678358 1.25083
85.0281105314584 2.1889
85.0661300943577 10.6481
85.0997411927164 15.3419
86.1010978790609 2.7587
87.0468715265558 2.81162
91.054272911065 53.6359
91.2562985787141 1.53038
91.9323192231497 1.25905
93.0325087771563 2.5084
93.0705124746919 90.3944
93.1649149432097 1.02635
93.1815509100863 1.98564
95.0493999630867 17.7323
95.0851774701451 66.0458
95.1543030081963 2.06595
95.2240565431021 1.02622
97.0653567775144 32.955
97.096994903045 11.526
97.1825179407901 1.03699
99.044257682416 4.16102
99.0828259665445 4.29297
100.07819609989 3.16381
101.02364446152 1.53671
101.062258886623 4.18392
103.053583073927 3.57836
105.033195929342 1.26743
105.069445274482 55.3159
105.162081071651 1.07442
107.050112659295 15.8121
107.084762196777 82.5928
107.337308879698 1.28909
107.51585597006 1.68464
108.084401957151 1.64052
109.09944350746 29.4166
109.161718499747 1.02844
109.259655607235 1.36272
111.078423243411 17.0325
111.116223204588 16.1664
111.552566131963 1.22965
113.095272281335 14.4117
113.130683692871 4.05602
114.087323812978 3.63575
115.047496498088 3.30376
117.070874148732 40.1345
117.138753898946 1.06842
119.085470364511 62.4347
119.184343828576 1.35237
120.087393684496 1.0603
121.101103646666 54.2135
121.167663184169 1.42754
121.334617534469 1.08666
123.046051604744 2.09712
123.08156913144 15.046
123.113903777401 16.579
125.06066955082 4.27379
125.096122394579 12.265
127.071822919975 4.21818
127.112080908276 1.94381
129.068256760987 16.5665
129.598000184676 1.2754
130.772536444697 1.02888
131.085497790898 77.4283
131.167730639642 1.35362
131.190949866497 1.32131
132.091928329807 2.23492
133.100652576646 55.7655
133.194398055157 1.09993
135.079279256774 40.8603
135.116324919194 68.6773
135.221619839708 1.51057
135.431043694947 2.0722
135.821719394518 1.35193
137.055580563713 1.50604
137.094501226253 6.41308
137.134247546654 2.04467
139.073742363593 5.27248
139.112974313862 15.4125
139.593089575031 1.18563
141.070923275976 3.13007
141.124078579303 3.20208
141.405875479874 1.07655
143.084812267341 12.672
143.814226174261 1.45452
145.101155204649 44.0919
147.112514969763 31.9442
147.184855680176 1.67779
148.087998119138 1.1964
149.097226043886 56.5369
151.11202450099 7.6747
153.108189727178 24.6991
153.646985197553 1.25387
155.083152386753 17.6726
157.100924410244 16.6378
159.031514720694 1.32345
159.104492038307 21.1578
160.681551771362 1.24658
161.106957457468 19.5435
161.204213457856 1.04769
161.593507146916 1.12127
163.125755758422 11.7455
164.07888705863 2.04257
165.121060232314 7.03453
165.167885060172 1.73817
167.141712573861 8.40166
167.186918720258 1.7641
169.09781030666 5.7653
171.117284071839 17.2595
173.110707757349 23.2055
175.14305332597 15.5456
177.093000896636 16.0877
177.16213809219 5.97313
178.044957209627 1.07852
179.111194753814 11.9268
179.176614881241 1.5163
181.12198319895 4.18701
181.155752202717 2.2108
183.118481434679 10.3163
184.969039966813 1.50778
185.13065503104 6.92582
187.128523575773 8.79358
187.191908834272 1.65514
189.16222114026 9.69329
189.381545058701 1.25556
191.107597486005 20.6831
191.183329729871 6.99779
193.143790664517 8.66322
195.143472247121 1.84785
197.13627869546 10.0583
199.148093394035 8.32963
201.15469009526 17.9195
202.071423982176 1.36325
203.182403648842 2.93951
205.155657840045 4.60737
207.169841218635 2.98793
209.116069790552 1.84763
211.149411384903 3.47513
213.161555538626 1.73386
215.143687536742 4.28797
217.16038023087 1.55718
219.170254978151 12.5328
221.153248257587 1.41875
223.157285720604 1.53475
225.162416221255 3.40327
229.177970224674 4.9431
231.174908778208 3.99315
233.149823491381 3.6897
233.433986479696 1.55592
235.140803580917 1.18654
237.218203616722 1.13946
239.17479553105 2.01306
241.198489601705 5.39064
243.204364165414 7.42355
247.164083215448 1.46579
249.19027566351 1.64595
257.228987661036 5.10678
267.210829760601 9.45105
279.024248220024 1.50687
281.092614248634 1.88047
285.221803041655 13.2179
303.23153579059 31.9587
303.350176185078 1.22745
321.245441361055 3.58262
321.297295085976 1.31433
338.34640153924 4.65031
339.156012348775 3.60518
339.258214130841 4.3802
339.34788922721 1.59146

>collision 40.0
39.0242886732651 2.53263
40.9634589865147 0.72727
41.0396472551187 25.7951
41.0984011021324 0.718005
43.0186091772257 14.6012
43.0550339176796 29.0356
43.5168236813575 0.695602
51.0248912846236 0.925434
53.0399485139188 5.29187
55.0196469543629 20.4402
55.0548298030973 62.3937
55.1139910460792 1.12461
55.9193636227645 0.923535
57.0341489441292 7.74877
57.0708396858647 14.9522
57.3157247852274 0.682515
59.0501011501494 1.86848
65.0392517085042 2.9384
67.0548408987479 80.5735
67.1312694661448 1.14515
68.3229987068986 0.673687
69.0350630324864 2.41073
69.0707003180286 73.0132
69.1281075435268 1.40233
69.146963759295 0.884397
70.5790006108932 0.732943
70.8090593709374 0.773317
71.0119184520988 1.56629
71.0496769454099 13.3285
72.0791494293657 2.31612
77.0386256762508 29.49
78.0418773998695 0.844458
79.0545136006243 100.0
79.1380037179771 1.57773
79.1632591420484 0.705312
79.1971327976803 0.966231
79.2647526641495 1.07788
79.3059827824227 0.806851
79.563545771992 0.810169
81.0299868764987 2.31706
81.0699992711273 65.2076
81.1312157930858 1.34142
81.1539007889058 1.266
81.17411949233 1.00341
83.0484470440577 11.8562
83.0861301675132 7.19005
85.026700917295 0.805592
85.0654380783053 6.03917
91.0551896991768 92.8465
91.1433565739022 1.33183
91.164611252895 0.718599
91.1990841530429 0.998598
91.3472043237771 0.699547
91.3752575365502 1.58445
91.5132610021657 0.739718
93.0341767322225 1.19302
93.070256069561 82.874
93.1394404602418 1.78557
93.183835721347 0.908389
95.0494336518464 10.5051
95.085593846041 21.2563
95.1358206679238 0.813652
97.0655751095006 20.3837
97.097448464406 4.90171
103.053548693508 1.88093
104.060627474353 1.54338
105.070509337837 48.3283
105.165869643853 1.63026
105.228265913095 0.689401
105.351809431813 1.09285
107.084856794319 41.8143
107.178383137664 0.825118
107.311686389916 0.766068
109.064353511987 4.547
109.101070629987 6.05279
110.104562438953 0.723774
111.040758906564 0.96677
111.07765298251 2.68579
113.091708745611 3.12518
115.053049446706 5.57797
116.062359815266 5.06954
117.068822317351 32.2186
117.166378794263 0.998854
117.19529069522 0.736601
117.532479790424 0.884818
118.076998260984 0.836557
119.08592580918 25.7538
121.061423947448 4.56194
121.099651600334 11.9752
121.87541673042 0.775922
123.107461083723 3.22945
123.149416824407 0.724823
125.094621652849 1.30915
128.060594434155 3.94632
129.06890688771 17.0761
130.073509367396 1.70682
131.085723346526 26.9315
131.141963939736 1.20967
131.168376100974 1.07599
133.062377335626 1.21835
133.099817144203 14.5207
134.105314705186 0.925434
135.081614509673 8.69821
135.112744686378 3.121
141.067814697914 5.59061
143.085206134584 5.58115
144.092139075593 3.0808
145.062603861041 1.98499
145.099881790636 14.4563
147.11350208333 3.88892
149.098165741035 5.44152
151.111699872016 1.46837
153.081662696759 0.73183
153.117742701862 0.863849
154.076042905046 1.97716
155.084764806887 4.7195
157.106014230382 2.51812
159.111307591204 3.59404
161.108159702574 2.73095
163.124013337694 0.866221
168.091517938548 1.86154
169.101789850803 0.805892
171.110882161361 2.22212
173.109256501241 2.04083
175.105305008267 1.99592
181.094133396706 0.733764
183.121791878956 0.923184
187.148317689666 0.925592
191.140636220571 1.20304
191.18399790692 0.691466
196.128192314592 0.732865
197.133172511914 1.00602
205.155314756804 0.710587
219.173350431166 1.36277
265.021770092765 1.0057

