>compound (&#38;plusmn;)14,15-DHET
>formula C20H34O4
>parentmass 339.252690503868
>charge 1

>ms1peaks
57.0708348293442 0.506815
81.068435765201 0.634579
85.1015261021675 0.775892
91.0528555616829 0.736737
93.070716436968 0.595813
95.0859618189653 2.26862
99.0797654211556 1.47215
107.086629074973 0.723684
113.095245344232 2.45939
117.069069556778 0.688138
121.101333302092 1.06929
123.079895623306 0.649643
123.114842933899 1.05457
131.085415404915 1.31745
133.100566816755 0.7178
135.113121856901 0.916044
137.108033107813 0.592168
139.102180819501 0.655457
147.113545885439 0.734356
149.131988291406 1.1075
151.107440381653 0.550677
153.121668105019 0.513947
157.108082461288 2.15301
161.126473256315 0.919988
165.133765425089 0.836511
167.112824034219 0.549687
171.1261230266 1.44714
173.131668613938 2.32747
175.126706865536 1.77621
183.113495028208 1.24409
187.146749589491 2.19768
189.157184385487 1.04592
191.14126829224 1.81525
191.175112697477 0.932698
193.121767219631 4.05056
197.137656431679 0.676278
199.145095762954 0.599671
201.156982965046 2.06077
203.143116747248 0.76196
205.159150473581 2.22126
207.140797196901 1.18238
209.153299905285 2.36016
211.132533856355 1.89441
219.17064283483 2.16071
221.153197284935 1.32363
257.220679406927 0.887894
267.208535885405 2.97157
285.220322945084 12.7621
303.231454382411 35.1114
303.390058124996 0.54332
321.242542335899 33.586
338.339677499026 3.80338
339.252690503868 100.0
339.416711446701 1.56144
339.519024719281 0.991551
339.636678655317 0.726499
339.745423902391 0.661897
339.866037807135 0.519144

>collision 10.0
43.0548776172394 10.5514
55.0548060138458 2.71715
57.0366449480805 1.0925
57.0705373693194 2.62301
67.0546836781136 12.8732
69.031859123517 0.575711
69.0706281057224 4.4809
71.0508586810358 2.30533
71.0856879934954 9.52489
71.1332372772437 0.65459
77.0378663310411 0.872837
79.0539880830219 4.47814
81.070397673128 14.3699
81.5276196067472 0.606178
83.0457974816994 0.713665
83.0854801949002 4.52374
85.0657997225185 1.75367
85.1020984365652 12.9681
85.1472632262504 0.58432
91.0549624240358 8.84919
93.0702131388683 10.0048
93.396826087152 0.576317
95.0858474904875 13.4587
95.136724269328 0.756141
97.065754831996 4.32232
99.0424533922889 0.973939
99.08050978488 16.1874
101.064481308025 0.761372
105.069470841904 12.5601
107.086176854148 12.714
109.098780404226 7.07772
109.872534624016 0.512637
111.08141439699 2.74654
111.114995973946 2.10208
113.056519072252 0.811943
113.096608579363 20.6611
113.181205319738 0.540132
115.059648822222 0.868673
117.070963760714 10.2209
119.085167905929 9.04291
121.063594276857 1.29701
121.100796529018 10.9381
123.115989999736 5.6746
125.05871325873 0.808443
129.070976326427 5.78259
129.124833041115 1.29115
131.086046264732 13.9452
133.102331027258 15.9759
135.078352949107 4.88628
135.115847594394 7.78439
137.126997195417 5.59778
139.075895459394 3.12328
139.111503790407 3.30863
141.070465600309 2.16502
141.125694882444 6.14502
143.086467865065 4.48887
145.100569640783 10.6391
147.115291944138 10.6885
149.095213129642 6.85118
149.129246831283 6.54829
151.132710280546 2.92558
153.089492532571 4.52982
153.1238337261 2.86107
155.084195780544 1.9144
155.147091370821 1.03052
157.101852571701 25.8561
157.170623553255 1.6388
159.117851124679 7.49803
161.128902863751 7.57798
163.11067741067 4.03722
163.144557300634 3.52302
165.10314445222 3.37647
165.163965316486 1.31689
167.120983539439 2.8943
169.101726379075 5.17125
171.116960496072 17.1777
173.131967321778 21.434
175.1129804419 24.0509
175.229270089134 0.541344
175.782369741823 0.523701
177.122142431103 1.7176
177.161901534139 3.91574
179.106583625274 1.53361
179.140085681673 1.41698
181.131046720535 1.45698
183.116147909055 9.99291
185.130777115565 4.69432
187.14556368671 11.8865
187.214800137479 0.816864
189.137990058152 10.3149
189.226017854514 0.585017
191.146772075371 10.9737
193.122444431563 26.1478
193.24537522017 0.642399
195.132392804234 0.649568
197.132712288192 4.82437
199.15135330594 1.57655
201.159630187129 20.0823
203.144575564837 6.28042
205.15660433008 8.61889
207.140505557057 8.42595
209.155565828729 3.83038
211.143250680018 4.24345
213.156444731147 1.10137
215.147918322046 3.3141
217.163615797765 0.748608
219.168722677936 8.33723
221.154273350979 7.30311
223.166954897111 2.27879
225.15593991569 0.589946
227.177476974579 0.599511
229.177943170727 0.84452
231.17182421848 1.53248
233.154622831044 2.57248
237.183118382975 2.01506
239.18038548132 1.98773
241.195353778019 2.73561
243.208437751067 4.66246
247.171585329029 2.84039
255.208845109856 0.64657
257.226300668771 6.55516
261.217681259102 0.789662
267.209694152958 17.7712
275.233913428893 1.00759
285.220938824063 54.296
285.371960390484 0.53585
285.42155950134 0.865703
285.594652885264 0.699997
285.673462324217 0.545359
285.777412393432 0.506818
285.826060017363 0.516891
286.223888749547 0.741214
301.96393482655 0.51063
303.231453670417 100.0
303.45132935792 0.90303
303.517776775124 0.884598
303.585539369601 0.555795
303.634546055416 1.00508
303.7076545252 0.970848
303.942904328443 0.587469
304.142141816446 0.611362
304.251297387805 0.546102
304.411272912308 0.540921
304.605212004564 0.516712
321.242190266461 32.1064
321.984914955336 0.515818
322.31760487083 0.507696
338.339448423067 5.60426
339.215328570823 6.38015
339.340236874186 2.16893

>collision 20.0
27.6476292862335 1.54304
32.9011721295601 1.41034
38.8515205628624 2.29074
41.0406511153825 7.13054
43.0158677756999 6.81895
43.0552381618571 93.3207
45.0342701133521 2.97955
51.0236263036972 3.03649
52.3915235513901 2.438
55.0174670104883 3.31696
55.0548761955151 16.9158
57.0330741407151 2.17278
57.069996838126 41.1462
59.0495675325538 3.69906
67.0553390192334 70.0669
67.1285735570704 1.7686
67.1701774962027 1.5697
69.0702432948912 32.4949
70.0704313344815 2.1864
71.0490644770581 10.8809
71.0856249259875 60.2593
71.1633290685849 1.65175
73.065537114484 2.04191
77.0394827619064 4.3181
79.0559099368821 47.4747
79.1119413653927 2.18675
79.1330653748969 1.27659
81.070230110491 92.3613
81.1309178008538 2.16583
81.1507893693627 1.82253
81.3629190805263 1.67386
82.0317051032383 2.21065
83.0483290628643 10.8812
83.085886694292 21.6727
85.0310825529132 3.21875
85.0632904944359 8.89845
85.101306373045 56.8173
85.2927779571656 1.24496
86.3794264137154 2.16341
87.0432025094573 1.43474
88.4173289484105 1.25701
91.0544965992675 76.5269
91.1774448404188 1.58856
91.3335950922392 1.44107
92.3599295540895 1.42725
93.0377977254763 1.52513
93.0696691217682 84.625
95.0852392518335 100.0
95.1583806052697 2.25459
95.1776370429442 1.66279
95.2064659280802 1.21893
95.6066096411457 1.26546
95.6711601347557 1.40546
95.880888367048 1.35817
97.063141718326 21.4133
97.0990970470743 10.178
99.0387404277147 1.3631
99.081468812533 51.8673
99.1978500684156 1.22266
101.058834323879 4.61926
101.091194310242 1.23904
103.964284692315 1.53513
105.069585056429 71.4401
105.14429668277 1.67885
105.480313971476 1.25054
107.085254123328 69.8358
107.249566374909 1.49276
107.903859442568 1.41867
109.100708674476 24.7747
109.159764177937 1.43543
109.257430001321 1.34289
111.078817193278 6.76549
113.059106162451 2.21815
113.095543526985 46.108
113.187168742163 1.57418
117.068912013569 30.8547
118.349485752483 1.22101
119.085915198407 67.0168
119.14614858944 2.35328
119.548372817879 1.37168
121.100526814087 47.6441
121.15477627037 2.40559
123.079381419182 8.24803
123.114170814998 11.0308
123.155715429185 1.54627
125.092423857679 3.15818
127.083246491098 4.9068
129.069467899602 36.671
129.127871038801 2.09536
131.086638787443 73.807
131.195874246501 1.55425
131.627700054222 1.39763
133.059281200713 2.27897
133.100441261822 71.9183
133.377396532244 2.40671
133.753077793 1.4631
135.078109841558 13.9394
135.117245390695 19.9587
135.168685109733 1.59336
135.974517115374 1.28629
136.122138913654 1.4392
137.114880284061 6.38567
139.073652370343 8.20991
139.109360138697 5.63214
141.0690173589 10.5395
141.124546785607 9.1306
142.078787175489 3.84466
143.087998405769 14.1612
145.099935588275 53.1211
145.172792637868 1.21839
147.116274169142 53.8654
147.192209392186 1.25927
147.230710693161 1.61411
149.110021538328 24.8101
150.092775899758 1.68732
151.109246449572 12.1121
153.089954931621 3.35058
153.127650859528 3.18723
154.069560545519 1.54379
155.085610583143 10.1668
155.141803202402 5.86656
157.100953603433 69.4902
157.214434551982 1.90034
158.123926472768 1.58627
159.017104352706 1.26204
159.118389327417 26.7938
159.231256103074 1.43002
161.123278069357 29.6467
163.131199227514 12.226
163.217766369634 1.24559
165.085304050805 2.58177
165.128235822111 3.27277
167.10327714343 4.60844
169.101160606657 19.2708
171.116460244142 45.1608
171.226465082432 1.81051
173.1295299723 43.0844
173.205632063413 1.7085
175.11322196997 52.2404
175.398894652925 1.28627
175.556057198025 1.76337
176.506880815633 1.27587
177.143782250241 4.84042
178.06060827402 1.4204
179.105621841035 5.1106
179.170276311489 2.21094
181.113997514168 1.50401
183.115706405656 15.7728
183.179922619947 2.53206
185.128844369865 12.2067
187.14205606637 17.5125
189.142467478448 17.141
190.163311886023 2.06715
191.139624957153 8.90071
191.199153303558 1.93671
193.052448540466 1.6742
193.120617522625 24.6188
195.118740015791 3.58185
197.131271792751 12.8989
197.180444097436 3.25407
199.144475467428 2.09897
201.158622543737 33.8625
201.846583152919 1.24513
202.161153652641 1.46131
203.141272297606 14.7001
203.181080466022 5.28783
203.246310866948 1.41781
205.146484529399 12.8007
207.135344774057 8.08007
209.152491214128 8.3321
211.144303704606 4.68147
215.144411536545 12.4477
219.169097465908 16.3402
220.139199430377 1.5524
220.634397064235 1.32636
221.152704824099 6.26276
224.157798478103 1.21544
225.163985941222 2.0076
228.148291337614 2.12566
229.190522565421 2.80815
233.149811882406 5.7536
234.668814092406 1.28058
239.174100555367 5.48269
241.195814465148 6.59283
242.271286373726 1.62794
243.21162304544 8.28991
243.278710173475 1.30949
247.166018744593 3.39965
257.198089807734 6.6493
261.192152336238 3.61684
267.211411534651 16.1373
285.221849310456 16.8777
303.230198127678 30.1178
321.239695976135 2.97652
338.339421201705 1.9438
338.426528547956 1.28035
339.187487957255 6.90787
339.247018871985 3.13191

>collision 40.0
39.0218240260448 1.27525
39.1745318805486 0.701231
41.0398580022881 21.4905
43.0184444561735 10.2487
43.0549398324614 100.0
43.1160812169981 2.00218
43.1339059470628 1.22493
43.2166704371771 0.921547
43.2651259643923 0.712591
45.0341791800287 2.22765
53.0367397603297 1.8017
55.0191532944362 12.1864
55.0550176768954 38.7189
55.124887801508 0.954198
57.0339859652475 3.65183
57.0706644284142 17.6588
58.0642580082736 1.71283
65.0386660972416 7.23264
67.0549203905874 78.313
67.1269617723523 1.45457
69.0692884763439 25.8292
69.1278962069748 0.872605
69.354711699685 0.679437
71.0502513128011 3.8099
71.0859600774468 7.54162
71.4596417366426 0.685978
72.081530931591 0.778787
72.9938908032362 1.29193
73.0637383847873 1.6472
77.0386109383561 20.7439
79.054379140364 62.4035
79.1203972502207 1.01767
81.0338668270146 1.45439
81.0698165047757 48.5123
81.1542879900779 1.03347
81.6954418957765 1.07056
83.0456025606661 4.56549
83.08523760694 6.894
85.0656538035006 2.72974
85.1009669457118 5.22748
91.0541574268238 99.8112
91.139660030588 1.87361
91.1635923842234 1.13147
91.2613872553185 0.758824
91.7545593017668 0.724631
92.1358101975246 0.805334
93.0701935707161 62.0977
93.1500858296912 1.05197
93.3502427639308 1.03856
95.0465272691727 1.65623
95.0856573041048 33.5015
95.1472861253018 0.648989
95.1748808268046 0.653222
97.0647446927985 7.52357
103.053360906814 2.43735
105.070025709473 78.454
105.124313940328 2.58639
105.16499711779 1.3539
105.201077584139 0.725716
105.254383661959 1.03603
105.563914424351 0.743278
106.079722488301 2.09477
107.084031587982 11.2874
109.067037732268 1.74322
109.09984291885 4.74895
110.979006799472 0.985314
111.039118143349 1.19448
113.0966282132 1.00167
115.055774183474 4.64993
116.060923998744 1.5716
117.069200457214 27.1576
117.130057268611 0.823386
118.08637587158 0.791469
119.085090819376 27.2441
119.164235007857 1.11252
120.524092396052 0.652083
121.062956245328 4.8881
121.10065666267 10.3905
123.076174962061 0.692733
123.114317194861 1.30201
125.058414467381 0.958233
127.056801600762 0.794809
128.061970348377 8.0255
129.070592663882 16.0363
130.07687004219 3.89655
130.463628192368 1.62057
131.085086718549 30.522
132.093888399556 1.12633
132.196024918185 0.863728
133.10215926884 17.5622
134.089517460324 1.07121
135.079164369467 2.81128
135.116424845069 1.25902
137.091332087783 1.82031
137.119105343476 0.72276
139.109386488954 0.856082
141.068183357502 14.327
142.077368256425 9.44087
143.084933664471 13.6238
144.089728053708 0.987405
145.101532305436 19.6927
147.118117615248 6.54431
149.099056025808 3.39151
149.128109085456 1.20081
151.10969736925 0.66895
154.076962748887 1.9961
155.085019298873 7.09844
156.092114000514 2.95377
157.100187316287 9.86395
157.906721172916 0.674449
158.112172202923 1.21242
159.101752928627 4.45304
161.102975715639 1.6506
169.099443673612 3.33738
171.116838451538 3.67816
173.097378637903 2.09894
173.133277366469 0.942212
175.120533652512 1.55018
183.111766330419 1.41852
185.136051209996 1.36125
189.126599809635 1.12095
191.106549885315 0.88953
205.159478849497 1.51298
211.146032614424 1.39213
215.180985608446 0.704809
301.001279060642 0.743143

