>compound Brompheniramine
>formula C16H19BrN2
>parentmass 319.080477520021
>charge 1

>ms1peaks
274.02151751217 11.9349
319.080634895619 100.0
319.300995560057 7.5397

>collision 10.0
167.072599779928 0.595206
274.022983000903 100.0
274.225087522863 6.40259
319.080477520021 54.2745
319.30084551066 2.25807

>collision 20.0
162.97395615388 0.829883
167.072885452197 2.19161
274.02453267362 100.0
274.226661199632 8.20456
319.080707692012 0.979373

>collision 40.0
84.9600597000898 3.22806
91.0547193135773 2.09534
92.0496282135803 0.853545
117.057128047216 2.73105
118.065062425708 8.04219
119.072528041812 1.37488
166.064697258921 1.27071
167.072690803615 100.0
167.230239991753 4.80549
168.964384327265 6.56745
180.079969705404 9.54015
193.087543485658 1.29474
194.096234955261 13.0594
195.103739898998 4.18621
244.982907670649 10.0891
245.990963916924 7.40774
272.006622085235 0.907145
274.02203162929 79.2945
274.22440521431 3.0533

