>compound 20-HETE
>formula C20H32O3
>parentmass 321.241983411022
>charge 1

>ms1peaks
71.0485032451664 0.550223
81.0698930200049 0.611574
85.0654117401772 1.33981
99.080866738411 1.4015
121.101283543396 1.00407
133.100010823347 0.500082
135.11650307416 1.42908
149.127749664614 0.761627
161.126717234409 0.7742
167.105516334682 1.45067
175.142588991653 0.648389
181.123216932044 0.649374
185.130028057106 0.594009
187.145329095981 0.568504
189.160906930937 0.575254
201.159714598712 0.592798
207.138851335434 1.0676
219.17100451699 0.556638
221.154704317484 1.46619
235.167201156048 0.526858
267.209006639864 2.54442
285.220314339589 6.96776
303.231082546467 19.4891
321.242013251722 100.0
321.403984067613 1.74764
321.454647210074 0.958403
321.53609685951 0.635193
321.619896523949 0.543489
321.76584256172 0.539533

>collision 10.0
43.0213420567124 0.857702
43.0553948945688 0.802307
55.0178831550332 0.623269
55.0555728010118 2.24404
67.0547913197225 9.18696
69.0706450518624 2.30242
71.0499603675711 6.58626
77.0408975477649 0.733926
79.0554817407732 4.11378
81.0707423253849 11.4855
83.0487448321391 1.43979
83.085642926304 2.91531
85.0651587495033 15.9175
91.0548713650807 6.27047
93.0697159783321 8.29866
95.0856488162973 10.202
97.0643783294869 3.66502
97.0980026528984 1.24439
99.0803805423614 9.33247
101.059264099567 0.655723
105.06915564294 6.48497
107.085634518083 9.62719
109.101105867957 3.60173
111.080781735924 1.87439
111.115361418543 0.920687
117.068856185546 3.16405
119.085740057621 7.93604
121.100658483457 20.3273
123.112033528349 2.29985
125.097957729188 1.80426
125.129007369409 0.89155
127.077104222869 0.553304
129.069531848746 2.58857
131.085600808312 8.52719
133.100007866563 7.11205
135.116457648806 15.3199
137.09531243354 1.24617
137.131837931772 0.937877
139.075856942853 1.58966
139.109946946895 0.988223
143.089914646632 1.58076
145.100731478345 7.57678
147.115708035 9.49771
149.119601243974 8.93711
153.092927779678 2.00486
155.085917956087 1.3843
157.099654232069 3.14341
159.116674389992 5.01133
161.12698409346 10.1001
163.118413615268 3.03701
165.123150333009 1.06934
167.106237877363 8.58877
169.104730203656 2.03333
171.115550635276 7.29132
173.129523242834 6.10227
175.144598481163 8.2118
177.135817177701 1.31167
179.113776106362 2.44336
181.123146642219 5.23897
183.116767732264 3.74469
185.131972051332 7.99733
187.148114148682 5.51325
189.150494638195 5.21906
191.139179328006 1.85855
193.139839270122 2.73103
195.137436976582 1.29024
197.130259328375 6.03219
199.148386362086 4.29518
201.161236110955 7.92661
203.143295017958 4.32854
205.146725988096 2.25467
207.136700376926 8.3999
209.151689242036 1.15874
211.147238165647 3.45752
213.165737747202 1.5073
215.144029720025 2.62445
217.157591143114 2.17829
219.172399558298 6.76009
221.153084927569 18.0262
223.170071420387 0.736511
225.16431018176 2.86621
229.158015920733 1.25234
233.152091358023 2.35148
235.167808563775 5.19438
237.183285168395 0.503122
239.176229262125 1.55255
241.192145099293 1.03589
243.196876406749 1.44999
247.166051191071 2.19233
257.193050401385 2.4762
259.200400216307 0.933825
261.21460582626 3.14894
267.210392241334 17.119
275.233564815024 2.6776
285.221272699277 50.2771
285.379341496829 0.695577
303.230951380908 75.4009
303.384757689392 1.25154
303.422591475123 0.635993
303.527687568384 0.545434
303.608457192674 0.566727
303.706949277355 0.583356
304.199786124038 0.633188
321.241983411022 100.0
321.397338994387 1.77073
321.447508178383 0.898313
321.525619948267 0.689236
321.579573332476 0.692056
321.679096185547 0.556699
321.828111559372 0.795022
322.026768824692 0.506961
322.236845115971 0.514728

>collision 20.0
41.039325078919 2.69246
43.0187660207606 5.24019
43.0551332811859 7.18771
51.0216953770284 0.78112
53.0410187302168 1.14489
55.019060098522 4.09515
55.0548900643441 26.5521
55.1174448486876 0.651231
57.0345640433488 3.5409
57.0697048017899 7.41573
59.0517847555788 1.50513
65.0374589080602 1.39269
67.0552499388191 69.6504
67.1151736514227 1.35167
67.1531871525951 0.553587
67.4743049255203 0.521207
69.0340780393376 1.9553
69.0699856368621 24.5215
69.1275690375207 0.886191
69.2228388057402 0.739712
71.0500617847659 32.9972
71.126423149747 0.598688
73.0268835059951 0.630092
73.0658883575148 0.774563
77.0389603166963 5.89354
79.0540755545887 45.1659
79.137444257103 0.741916
79.2980359590873 0.882783
81.0706574789431 100.0
81.152884527193 2.49442
81.1814570520172 0.838725
81.3171732635963 0.506358
81.4157464037589 0.545087
81.597838830358 0.574792
82.026085688792 0.523696
83.0486986018517 5.4398
83.0855817772456 16.6176
83.1518911366934 0.712235
85.0281690841447 0.664989
85.0652778562201 47.046
85.133034865395 0.996792
85.40509084884 0.552125
85.6791341645944 0.735412
87.0435617909616 4.61621
87.0731654536151 0.597338
91.0545835606627 65.7846
91.1434038161113 1.28755
91.1918210477866 0.531346
91.214967887468 0.539393
91.94508119129 0.554242
93.0699691385187 82.8078
93.1365765839537 1.88168
93.1994086103146 0.863574
93.2902462748404 0.586437
93.5982442948873 0.643132
93.7186592021188 1.02002
95.0857468296826 60.4808
95.1551512427802 1.66464
95.1741658542376 0.999932
95.268909610418 0.675404
95.5429577291142 0.773306
95.7335026829082 0.885
97.0654819593818 19.4978
97.0981493920389 10.1025
99.041916061943 0.553168
99.0798460314625 20.3405
101.058565939567 4.24201
102.126380157778 0.610083
103.055292064111 0.929509
105.070151915348 58.1192
105.190644025615 0.733066
105.683415561123 0.582636
105.850054200715 0.890958
107.048057885185 0.88245
107.085705129596 68.9936
107.177711577081 1.1338
107.202771577782 0.633586
107.273022009168 0.571602
107.335908895702 0.557027
107.455073746639 0.832273
107.55798521783 0.751825
109.101354388518 27.1884
111.079599329415 8.62387
111.123223072133 0.609227
113.054936975267 0.514295
115.054048696483 0.608859
117.069527671988 22.855
119.085143664637 71.8212
119.184834024191 1.32217
119.322897392349 0.698096
119.415830634005 0.531136
119.692599232352 0.565294
121.100821661404 79.8936
121.234711063559 1.04678
121.365226849818 0.600932
121.404160593504 0.586462
121.510427798596 0.605211
121.657924083875 0.984391
123.079355300024 8.47226
123.116170097533 8.15744
125.095551401395 5.8118
126.70344262278 0.541945
127.089573523821 0.832707
128.064586336336 1.75328
128.142391603248 0.509226
129.070014111997 26.7088
129.132070262917 1.29677
130.077402286583 0.983253
131.085548119291 61.6346
131.188310099168 1.23628
131.331598420975 0.57381
131.42573087536 0.507587
132.213632329874 0.627834
133.100653251314 49.433
133.204857601946 0.853916
133.235926890427 0.973842
133.970712830045 0.549626
135.078017835378 11.1036
135.116467404924 43.2035
135.212701312113 1.01974
135.294277639584 0.509084
135.361706709275 1.1096
135.399823535816 0.698999
135.423684231651 0.601393
137.045799777374 0.731431
137.098206016141 4.34844
139.077300649435 2.05245
139.111123721596 4.81431
140.115493094023 0.688055
140.758548198894 0.542222
141.068083737027 6.28698
141.147965868795 0.610642
142.081935074407 0.965845
143.08411630326 15.011
144.090162968642 0.712813
145.101013697042 39.7971
145.206894802768 0.576699
147.115770597196 41.5575
147.221019985338 0.600011
147.822882514812 0.734882
149.102828128322 27.3231
149.204553488507 0.840568
149.595467277789 0.762886
151.111978287142 4.56922
153.089296442339 4.39701
153.127174977811 1.36313
155.08288456741 6.23836
156.091607154753 0.57789
157.100543917846 19.0579
157.19729593449 0.530977
157.279868560569 0.520475
159.11581625344 28.1807
159.268646505516 0.502221
161.123645199926 35.3799
161.204929322732 1.62225
161.250588923906 0.821187
161.406478473207 0.742491
161.464136591653 0.63803
161.701304328192 0.695562
161.840853434838 0.502573
163.131683160759 3.85123
165.090818018165 4.60429
167.105448140615 3.46368
168.089894848253 1.57791
169.100446877166 13.8602
169.956807971471 0.895908
171.116650693139 36.0597
171.184593812453 1.02633
171.237314312826 0.742607
171.467272803342 0.575125
173.126515305523 19.0357
173.211581981846 1.0158
173.291876670355 0.509994
173.572762282243 0.658714
175.137273908468 23.7033
175.268594556531 0.508765
177.122926948964 3.13048
177.161538024786 1.51566
179.109196455427 7.0249
181.1407390099 2.01913
183.118205701505 22.9865
183.189003247567 0.974941
184.131762216202 1.12113
185.131613006449 30.5653
185.259178474728 0.775164
185.299667964497 0.663648
185.697866712173 0.732519
187.145257906556 14.1963
187.220933934746 0.896066
188.10803588589 0.619458
189.133354488594 13.0573
191.111154519387 3.23143
193.123075582232 12.4512
193.645448555404 0.547475
197.131034862663 14.5524
197.972590229169 0.608306
199.147574173707 12.8329
200.117140755688 0.564065
201.152035482926 11.6758
203.142685899098 10.9563
205.141554106388 4.16584
207.139025246561 11.852
209.147667531147 0.803701
211.147872753168 8.6518
213.162602438009 6.1583
215.147778794476 6.70197
217.155934877424 3.8624
219.168589006788 8.08534
221.153714406295 28.9727
223.160032490165 1.08635
224.154414458262 1.1171
225.16158409863 7.73196
229.156633709509 3.94324
231.214893309723 0.708166
233.161039563693 4.8027
235.167435318433 6.68049
239.177096237158 3.73512
241.191599222766 3.55844
243.206632677932 4.3413
247.168446187135 3.14409
257.192878947586 5.22962
259.202606940877 2.75179
261.219004571101 8.96405
261.319769333064 0.537106
263.167579830204 0.540725
267.21088975894 15.5157
275.234120319334 5.01146
285.220581570432 44.9347
285.348424349089 0.876084
286.049196696387 0.629197
303.231160118092 41.0835
303.375546827371 0.8915
303.734529475682 0.520286
304.353282374302 0.502744
321.240994145842 24.2027

>collision 40.0
39.0251561005357 0.599701
41.0395770992133 12.3598
43.0188130859609 6.3674
43.0555849477604 10.3836
45.0326169991065 1.29875
51.0256926818491 0.582367
53.039732198131 2.00521
55.0188447542321 8.14968
55.0549366106303 42.2219
55.1071044147354 0.868441
55.1237507334475 0.808061
55.1415724369824 0.520782
57.0345693470387 2.46836
57.0709925492638 5.79155
59.0495957247265 0.674681
65.0394508203262 3.85497
67.0551076537235 75.3025
67.1300914323927 1.62722
67.15167991487 0.67535
69.0297021005868 0.853294
69.0700341246464 16.5604
71.0494947489951 12.0257
73.0280383679923 0.634369
77.038989807635 21.3304
77.0923676872794 0.637218
79.0545583681219 78.2412
79.1366202065372 1.42514
79.1688577650283 0.681314
79.2500979446786 0.587544
79.3788243292853 0.593368
81.0704235597951 62.0227
81.1514226662053 1.18149
82.0766406428972 0.636922
83.0495128297796 2.19795
83.0871478715561 1.83744
85.0302656830464 0.591208
85.0653756482235 10.1263
87.0448509217894 1.5179
91.0545480487464 100.0
91.1420827109137 1.56361
91.1691769003984 0.766473
91.2121136181777 0.637575
91.2523308598086 0.702654
91.3260171111636 0.686859
92.0587990003716 0.70577
93.0699074436798 71.8496
93.1890515253456 0.711109
93.5814692996069 0.731602
95.0855106436772 34.7188
95.1738466428935 0.681465
97.0668102879688 1.83575
99.0758497637039 0.869798
103.05233350628 2.41687
104.060217218054 0.588804
105.069468307814 66.1295
105.16473336351 1.1592
105.187648476794 0.545117
107.085497833573 23.1141
109.100578948401 4.10037
111.079547746638 1.12957
115.052080805401 3.96326
116.061671370945 1.9214
117.069386375256 23.7161
118.075303673118 1.15141
119.084963116466 36.5033
119.183998148118 0.761876
121.064952218173 3.97848
121.100390211045 12.9788
123.078615629628 0.638452
127.053423816736 0.911659
128.061699447246 7.31486
129.069402271209 21.92
130.077793252083 3.15487
131.08494268218 32.0083
131.165439896564 0.912575
131.216737676447 0.641638
132.094012390507 0.78059
133.06212762325 0.528855
133.100868378764 16.0719
135.077820888066 1.57227
135.118770519176 2.49437
137.098172195383 1.17397
141.071082616306 3.79002
142.076786596103 1.90758
143.085964331845 11.2169
144.088874994253 0.907446
145.100844597977 21.1146
147.11827904032 7.49191
149.093538870613 0.743786
149.128399244381 0.932177
153.072608567394 1.30308
154.076834526031 1.47745
155.086444508965 5.44156
156.093636862566 0.760552
157.100821134445 5.77661
158.107662777708 0.704616
159.116079459277 4.56109
161.112740557989 3.15491
163.107383822789 0.614054
167.083230222722 1.35984
168.090528573349 1.44937
169.100824362136 4.90779
170.109068724813 0.563516
171.11780160762 2.41722
173.113608092059 2.50284
175.110598319884 2.03658
175.151953810717 0.982602
181.098628877613 0.651935
182.110305089249 1.23595
183.114788429192 3.40335
185.132418181828 1.25511
189.127635734888 1.15137
197.128988711075 1.07556
211.142115749001 1.01518
221.154020132389 0.529612
275.198216197212 0.97611

