>compound 5-Oxo-ETE
>formula C20H30O3
>parentmass 319.225287241887
>charge 1

>ms1peaks
43.0181643662515 0.726318
67.0547878028584 1.12932
81.068168357476 0.729664
85.0635334347395 1.18869
85.1019378863327 0.607515
87.0440032051732 3.64463
91.0549274464306 0.949954
93.0718117548082 1.18712
95.0858572083504 1.91659
97.0653125372603 0.83581
105.069424635191 1.01452
107.085458264132 0.584205
109.101527593721 0.633184
111.079152660863 1.63193
113.060893896353 2.69029
115.039484668314 7.29045
117.068892570152 1.46246
119.085223715324 2.33775
121.100690252917 1.53701
123.076876205728 0.711488
123.117683566272 0.552637
125.058797140821 1.60969
125.085930704992 0.570732
131.077849605921 0.945024
133.101970718269 0.707465
135.079993372601 1.09726
135.120546379794 1.90975
139.074681473798 5.26334
143.081295472747 0.590576
149.132510988391 2.00856
151.07635570958 0.624333
161.096276981882 0.567905
163.143718193014 0.517049
165.088116948498 0.637489
169.084084366661 0.700249
171.11261256793 0.626148
173.127367976982 0.554252
175.118587082209 1.00162
177.092453221089 1.75381
185.100386782359 0.882822
187.145401798786 0.869319
189.163514807865 23.3804
195.111595720162 0.555953
199.148240321781 0.547396
203.102698220494 0.67503
203.174286232611 0.616696
205.194499767647 6.03222
217.154903474235 0.932788
223.163210862885 0.647858
231.140037037638 1.0822
235.17039119079 2.29519
241.194332302203 0.707779
253.178360808618 6.48028
255.205053937655 0.872529
259.204620647345 0.953545
265.18920358375 2.91281
283.205275795865 2.8529
301.214982507155 25.9653
301.990939807459 0.512601
302.179449340942 0.664674
318.192141606428 9.05786
319.22646972462 100.0
319.387228554503 1.54318
319.456943266976 0.718429
319.593084798327 0.71383
319.884330675717 0.792665
320.147450004686 0.528963

>collision 10.0
41.0382210417102 1.81489
41.3670258706415 0.738435
43.0184133561382 11.5719
43.0548111458474 9.80649
55.0184406478303 2.47352
55.0535777538752 3.02619
57.0697722865883 1.9563
67.0543730020004 12.0479
69.0703603096743 2.7424
71.0492775646289 6.10759
71.0811723170422 1.88819
72.0463987000871 1.12047
77.043862403441 1.10196
79.053727225603 10.1222
81.0334678124438 0.788181
81.0699252117734 16.2804
83.0860186818039 2.29337
85.1012065052748 12.639
85.1670762167102 0.855503
87.0440701463785 39.197
89.4243369336829 1.20472
90.9700871901459 0.839031
91.053913465758 10.228
93.0693702149441 17.3592
93.1343603083432 0.738037
95.0860957869054 6.40468
95.289872698536 0.843089
97.0642325737277 21.0256
99.042525948944 10.8055
99.0765836344085 2.82321
101.057576184287 6.76707
103.038939210015 1.44246
105.029772704495 0.757459
105.06937684582 17.7073
105.130857783918 0.874072
107.050576865898 1.78882
107.08378162024 8.20842
109.099226832454 10.2567
109.145245069089 1.43356
111.079273918309 19.2549
113.058346529008 13.0524
113.482148715029 0.718017
115.038059656503 58.8852
115.118363061249 1.50336
116.06685050193 1.05389
116.163294751216 1.16366
117.069954506794 16.5358
119.085454167927 23.6408
121.0586015768 2.2601
121.101764555172 6.79252
122.078787224181 0.782222
122.592341189381 0.711926
123.080000831735 10.4812
123.114583358812 9.32602
125.059387379736 22.3698
125.131143681367 1.17989
129.066348344353 2.81604
131.084263335211 7.61911
133.099102684647 18.3297
133.17014444118 0.713108
135.109724951168 13.6758
135.169446250039 1.24785
137.09710385683 3.35248
138.870658690766 0.754522
139.075603531438 24.1112
141.067504038149 0.8768
141.129045135418 1.45368
143.088635086732 4.0935
145.098775886486 1.93754
147.078563440873 4.4754
147.116470466011 10.451
149.094478699345 11.8565
149.128314354718 5.5436
151.075348281126 24.3847
151.145062711477 2.16871
151.17503674567 0.815725
151.969107702578 0.935745
153.125745991259 1.79452
155.090439547105 1.24737
157.09453826904 6.64306
157.564242727605 0.805528
158.089143868203 0.749771
159.113374315452 2.23887
161.11178992395 7.10692
163.145569361221 5.89534
165.089749459083 3.57522
165.161206190938 1.83788
167.094721936793 3.29058
169.091683383588 5.46931
171.114048709502 3.63975
172.10712196163 1.17115
173.132617994375 3.06208
175.12088159766 6.12505
177.089085418364 21.5436
177.162716416308 3.31325
179.104664492697 1.59976
179.142237273135 1.03955
181.097033107278 2.84406
183.114221957373 4.07632
185.108306806506 4.17549
187.147462397302 6.61469
188.153156798811 0.814997
189.162241509719 100.0
189.286030018745 1.77375
189.326486127099 0.749704
189.412769798833 1.03555
189.515665217139 1.36343
189.743069014176 0.874303
189.795585187002 1.24821
189.848376205126 0.789089
189.949992392264 0.916754
191.137580280052 1.34057
195.121730732341 4.36996
197.143344318685 0.806257
199.125055625251 3.39122
201.159868792728 2.97941
203.110317332903 2.64625
203.178106386673 3.84666
205.191603775797 16.0772
207.119628516994 1.6584
209.130496197626 3.52406
211.134797574766 1.36732
213.126406495855 4.88317
213.168318937929 3.20052
216.898923488394 0.927523
217.13585326392 4.43244
219.176054625949 1.96024
221.156730545344 2.91962
221.721691430027 0.796524
223.153550389903 2.3955
225.147752858426 1.4552
231.149040129747 2.96582
235.053708030627 0.990068
235.167342078389 18.0713
237.164302599283 5.39078
238.143186698939 0.699193
239.177428916297 0.916234
241.068850072011 1.50009
241.191985786877 3.00799
245.19230227225 1.57325
247.162444719077 1.16147
249.14077281663 0.776916
251.113919679419 1.35854
253.180204758945 7.486
253.54317176298 0.882003
255.201412392241 3.78104
257.184476281126 0.832102
259.20386063579 3.12153
265.194447332866 8.09322
266.176928344193 0.891679
272.215164375312 0.705124
273.216256146279 3.66904
283.201995492365 12.5894
284.156839291352 1.13692
301.216225291425 52.5246
301.373513159572 0.790626
302.209078327671 2.27797
318.190540946292 6.87178
318.299916479102 2.69189
318.353300722317 0.724539
319.063269124621 0.790962
319.225287241887 28.1148
319.949888141981 0.753619

>collision 20.0
41.0398072538142 2.0935
43.018698731047 19.1271
43.0550326541937 13.2086
45.0326608241231 2.52411
55.0183440129918 9.24732
55.054894632571 17.5288
57.0337951795736 3.20356
57.0707595765064 14.1721
67.054159650448 18.8061
69.0342887714289 3.66952
69.0699399491903 9.47275
69.4436635512419 0.769095
71.048877900621 19.1663
72.1909438257924 0.920008
77.0412197589404 2.97125
79.054102126646 20.6069
79.6817261306317 0.840375
79.868919852968 0.932394
81.0322215426418 4.1103
81.0701784804229 25.7954
83.0487036428856 4.11729
83.0842519543262 3.2529
85.0664208262256 3.33232
85.0987917287748 2.52495
87.044282224925 100.0
87.1299798338972 2.04278
87.309826334519 1.07785
91.0546651251582 33.5418
91.3778366610112 0.937253
93.0686531462503 21.5619
94.2180098311259 0.836643
95.0483896704471 1.77623
95.0851488248622 18.8908
97.0648529402564 57.0582
97.1529743889458 1.14061
97.1771636156686 0.733561
97.2722321506905 0.736781
99.0454759683444 6.54557
99.0803071810299 2.82177
101.057734002772 3.28812
103.047315299775 0.853997
105.0696584221 49.2039
105.182853222741 1.042
107.050580461505 5.65244
107.085493237974 11.0898
109.065477653209 2.95303
109.103032714909 11.1746
111.042877653255 1.5126
111.080294441766 17.351
112.121407142717 0.795919
113.059429501732 17.7646
113.123889362888 0.808899
115.039640478025 21.4683
116.070097597514 1.11096
117.071159288679 19.2538
119.08388620292 44.9021
119.410409681483 1.28124
121.098442906744 8.04496
123.079003429337 36.6211
123.111103505585 11.9302
123.174886192782 0.971329
125.060017578751 13.3382
125.094775907055 4.66786
127.110127888184 1.51062
129.068695892977 11.8806
130.882123824033 0.786799
131.085189850862 21.4815
132.095214690297 1.08672
132.187568800241 0.75303
133.100902935312 21.4909
135.114123542471 12.6671
137.059141396737 1.93741
137.103103864379 0.932089
139.074634629738 9.17154
141.083305493331 0.972277
142.071819002223 0.765424
143.082559095798 9.04629
147.111764958061 5.78066
149.095531006613 26.1111
150.099690309928 1.76709
151.074836362473 30.5108
151.139692305357 1.80037
151.177891945818 0.897382
155.082594346016 2.68781
157.098656837165 7.51308
159.114944950268 4.85868
161.094058236078 8.61147
161.129119689162 5.69173
163.140821314069 3.27971
165.078219796863 1.27298
167.086527040266 3.17181
167.14029875651 1.53746
168.094723116191 1.10028
169.09998084153 6.51057
171.112848246134 5.65296
173.127822832612 2.50578
175.124442562519 4.24392
177.089932973394 15.5149
177.157691257654 1.87155
179.106948248449 0.8226
181.098352505242 5.27961
185.133334707599 5.83999
187.1085072859 1.41307
187.14758631109 2.94161
189.089265016393 7.89984
189.163297955146 36.1883
190.090208110186 1.11522
190.666788122381 0.7654
191.101045736395 1.89048
195.113970890445 0.767936
198.108039415761 1.20595
199.14376966618 4.52492
201.153397904878 0.896307
203.110113898323 6.94861
205.19968010351 0.786473
207.173598730429 2.18831
211.140996701135 1.91839
213.157375422917 5.43703
215.175169679652 0.813181
217.119782188039 2.10107
219.176755232341 1.0047
225.119164598828 1.08225
227.182340493647 1.19194
229.079686633432 1.15693
229.156881174769 1.31307
230.406806295508 0.866031
231.16786872369 1.27441
235.16541727308 3.14699
237.144642992669 0.943811
239.178691255261 1.48057
241.192500843497 2.61834
244.122332416939 0.793649
255.166977402682 1.75238
255.207505306516 0.989596
255.288501120992 0.834042
257.204382307675 1.48529
265.18294118307 2.54194
273.221428138845 4.3988
283.208057267952 0.800108
301.219141886836 7.85536
318.291934658594 2.77687
319.159051469198 1.33808

>collision 40.0
41.039369721343 25.225
43.0197002995444 34.5701
43.0543842585617 34.3765
43.1025870657688 1.31675
43.1514605485046 1.10091
44.0216655234375 1.78304
45.0343730914014 19.7854
51.0224997584041 3.10203
53.0386921144111 21.4469
53.0776549985478 1.16474
55.0185070135756 62.4429
55.0543440998558 28.763
55.1065375302915 0.92492
55.1696659385572 1.13949
57.0697928812824 5.96663
58.068058642389 1.63554
59.0478670848465 0.970632
65.0406757007937 4.61085
67.0537926475939 58.7811
67.1066399073175 1.65563
67.1291415611036 1.01741
68.0629269072486 0.874336
69.0349757804711 10.0756
69.0694481710882 12.5799
71.0503134525297 19.4029
71.3173231424648 1.16479
71.38935885768 0.897142
71.99779105714 0.991269
73.8132556312125 1.11969
77.0381273602027 14.4923
78.0464536654546 2.24256
79.0541214783412 61.4464
79.1389845489335 0.862854
80.0604750803565 2.9298
81.033175271584 20.8875
81.0696403385514 26.6106
83.011298788991 1.1191
83.0506304664189 3.6905
83.084997829746 2.11207
84.938939735805 2.08551
87.0438971545425 35.9278
91.0540442402515 100.0
91.1317365051525 1.61586
91.4335468623753 0.921997
91.4961959537737 1.04543
92.0572958130899 1.14769
92.5329244281074 1.05064
93.029860276312 1.47939
93.0687168877767 21.5683
95.0482885585718 2.89489
95.0848637971945 49.219
96.0712408118971 0.942108
97.0641641035377 43.8506
97.1546869207803 0.879409
99.0418521472321 1.51351
99.0769144258927 1.21865
103.057105884062 2.90659
105.069946125815 47.5443
105.453229943272 0.96917
106.078611651811 4.08425
107.048652374202 33.8236
107.082695244285 8.59565
107.149980192823 1.00879
109.064112780962 4.64308
109.100293761316 4.83855
111.079051142767 5.65161
112.04518360931 1.85523
113.057214999084 12.3314
115.054654062463 7.16895
116.054917248764 3.30722
117.07000721356 17.8365
117.137944931019 0.946918
118.000425237335 0.915907
119.047684632296 6.56569
119.08406659951 18.0764
119.13329806763 0.872429
120.056552099091 1.44367
121.020805766918 1.1297
121.061839151394 1.81466
121.101405937497 3.50334
123.079925446834 17.3285
127.062735902267 1.99411
127.132948863832 0.901155
128.061473749447 11.2749
129.066882617479 21.1426
130.075583053949 2.65027
131.083389030077 12.3428
133.063553041823 4.18712
133.09940696365 9.55261
136.082929580831 1.24192
141.07016582324 5.21481
142.078704627058 6.45084
143.086080301428 3.66752
144.092273659633 2.02579
145.091322992597 1.45857
147.095006354239 4.15484
149.094510729225 10.2911
151.107545333708 1.12864
155.084088858816 0.892425
156.090408603205 1.20751
156.871498061232 0.924585
157.10274550764 4.79391
159.075123708592 1.5019
161.099141069122 3.42677
162.1011666211 1.35784
165.069246444135 1.68916
166.077871727937 2.27175
167.081124938748 2.18923
171.11588329217 1.52708
173.091143829356 0.986316
175.141568461127 0.880812
185.128256624766 0.975936
186.107566776782 0.971381
197.138579965286 1.24529
292.48988486265 0.887066

