>compound 12(S)-HpETE
>formula C20H32O4
>parentmass 319.225331292623
>charge -1

>ms1peaks
69.069764870026 1.02936
79.0567197715772 0.672671
83.0471834987703 0.55525
93.0716069581699 0.594138
102.126624757824 2.19859
103.132243726787 1.83439
117.068674407042 0.926737
121.101815065031 0.589184
123.078561741851 0.571379
131.084910507162 2.12845
133.100925671057 1.56168
139.110464421018 0.79983
145.099193099435 0.872551
147.079391535613 0.802127
159.114217802265 0.66408
161.110178821881 0.856382
163.109535509128 0.955231
165.091168769836 1.10753
165.126811946791 0.677587
171.115595341692 1.11429
175.146348958826 0.536282
179.112939459454 0.781912
185.101078223462 0.993084
187.146121678459 0.81287
189.163528360294 0.8363
191.126905458916 0.673727
195.105450235592 1.66679
199.111292603083 1.80926
209.11488669222 0.525351
217.15433950722 2.68065
219.135026596664 0.54658
233.152802789532 0.74786
235.166195366321 0.691831
241.199369843778 0.543245
245.151246883106 0.585879
255.206440888751 0.914268
265.19407621159 0.891897
273.223116328177 0.578267
283.205686887543 6.18687
291.225666677154 0.887748
301.215775198538 31.2893
301.370797511893 0.544952
318.243363368875 4.14425
319.226114231542 100.0
319.455056801123 0.94919
319.5149964657 0.529319
319.681668018823 0.553215
319.801872595119 0.67009
320.80187259512 1.0e-13

>collision 10.0
29.8587570242341 1.16478
38.9635336223941 1.57669
43.4840162651119 0.681487
55.0165198235023 3.00688
55.0533272434122 3.62777
57.0355091059794 0.822551
57.0696697577295 5.25671
62.5261209920203 0.706345
67.0542850283973 8.35899
69.0336858672577 2.16744
69.0703896516781 16.9611
69.1219915536623 1.1778
71.0500043224163 1.59792
71.0856787332482 1.70366
74.1003197883584 1.23846
77.038586140996 1.87688
79.0546955839918 9.45736
80.053957436128 1.10981
81.0713763450992 7.08535
83.0486822990661 7.92735
83.0839754830799 3.91072
83.1109106146686 0.862395
84.3610459641363 1.35693
85.0651665364897 4.88025
85.1039670025271 2.28075
91.0535134838102 13.1305
93.0705558429883 9.503
95.0498144637709 10.7343
95.0835959620227 8.21643
97.0635956987356 4.6573
97.1014433746275 0.924141
99.0448117112407 5.22495
99.0792046383934 4.28272
101.061103406813 0.942986
102.127230940795 21.6873
102.534746724466 0.738126
103.131012801956 17.9651
104.087480655299 0.919696
104.129134594809 1.00511
105.067990969173 10.4039
105.923420320544 1.05026
107.048522129878 8.08371
107.083547095282 6.73588
107.129438210955 0.746851
109.106685439627 0.859925
111.043677852511 1.91054
111.080761244348 1.67704
111.117085972493 7.22004
113.062363408855 0.868497
113.093924261997 1.51839
116.044451393579 1.11076
117.069303600782 11.6211
119.084915304597 8.07553
121.087307163567 5.8851
123.096330383398 4.72803
124.111608465618 0.834519
125.064167090265 0.689579
127.073374368267 1.63423
129.068877723425 5.05951
130.075538519992 0.946476
130.158506784293 1.27381
131.085324183483 17.3161
133.099256584068 13.8948
133.164420419309 0.908624
135.102124374858 7.69493
137.058793351778 2.5768
137.091625205364 2.51551
137.13015611945 3.04511
139.110343831751 6.37137
140.143555828062 2.12765
141.065204507322 0.85504
141.123438637776 1.62168
142.074677690918 0.739173
143.085897462989 8.80585
145.100188768427 15.2207
145.161030208722 0.955013
145.276604862106 0.718233
147.081342798874 10.4531
149.095785138374 9.1562
149.129611606165 4.08586
151.108905165999 8.16667
153.090557408534 0.737729
153.128354911861 2.76033
155.082597675228 5.56464
157.099268709042 9.47753
159.115172954191 4.98818
161.097517544909 11.623
163.120981247861 5.32935
165.094957931153 9.02032
167.117114872966 3.10344
169.097471375608 4.15483
171.115843641985 6.49002
172.119328838301 0.726609
173.089071029398 1.53147
173.129393753866 5.57069
174.110556801327 1.0014
175.13638207203 4.27719
175.381696620789 0.70764
177.090292971264 5.96974
177.157988276655 2.26152
179.108024702037 7.54288
181.10057523765 4.66435
183.120003406197 2.99239
185.131105400314 5.8399
187.147035355356 3.3634
189.087340127233 1.96245
189.16482018496 3.87101
191.143706474126 6.42181
193.124416718009 3.86288
193.198027662606 0.686963
195.10870022669 5.04809
195.166051088251 1.24836
197.131097420533 2.45601
199.108835395673 15.5515
199.143471443753 7.54482
201.127706681813 5.38263
203.143895678776 3.3869
205.138264793128 2.7461
205.724649527356 0.930086
207.110354619979 1.64198
209.126553235931 3.69078
213.133522029528 4.07087
217.156461397158 16.0201
217.251493001439 0.820838
219.13617829248 5.83369
221.115241491083 2.0901
222.135609159548 1.20365
223.142266082433 1.43818
227.172302079435 1.50769
229.20417634449 1.16896
231.127926598923 2.11693
233.158050032222 0.888543
234.085528504721 1.08753
235.168108128453 1.49027
237.164737021562 1.21048
239.177438226507 3.26883
241.19280825511 7.7601
245.132771295231 2.81254
247.207221179657 1.29357
251.152068724318 1.26254
255.207942525808 6.27506
256.324952375233 0.738884
259.202438949626 3.84631
265.195989825843 10.733
273.114467635721 1.25126
273.220891709496 14.4977
275.198992214205 3.15837
277.211446443432 1.27135
278.237412887377 0.822034
282.804195730852 0.839463
283.204196241516 35.9196
283.316476820293 0.862717
283.367509206032 0.872888
289.218522908124 2.29173
291.2310657107 4.51399
301.215138783773 100.0
301.368311596882 1.44484
301.454882381692 1.10227
301.526946724951 1.12961
301.639081339572 0.863901
301.787819961569 0.872961
301.964635394128 0.670969
302.012946404307 0.958794
302.132867865189 1.20725
318.232879845253 1.17095
319.225331292623 71.148
319.394319955271 1.16863
319.432438449423 0.875197
319.712358462082 0.760113
319.891982774518 0.723637
320.083288476151 0.819284
321.08328847615 1.0e-13

>collision 20.0
31.2283171792603 2.00253
41.0390157142711 6.87292
43.0175634863555 9.31531
43.0548771884934 22.8165
44.0495117489471 5.11324
55.0178047552636 20.2961
55.0556341187767 26.0175
57.0326275102463 11.4564
57.069819091159 14.7838
61.0978118630719 2.19881
65.1963380889389 2.19881
67.0542154580959 96.6629
69.0309152073465 3.23665
69.0700278483766 100.0
69.5788912860194 2.94982
71.0496177892258 23.6499
71.0814263960439 4.59356
73.0255442070248 2.29052
77.0396962748412 12.1871
79.0539396433946 76.0843
79.2874767918357 2.31856
81.0333603531094 19.1392
81.0697962834497 68.9001
81.151369376937 2.13696
82.0320833888341 4.01911
83.0495177430417 21.489
83.0853069677617 13.6931
85.0260790659206 5.7321
85.059075736336 3.60031
85.1031320455313 4.6472
87.0796630971295 2.14742
91.0539074857491 88.3208
91.1209752836244 2.30438
93.0706669972609 49.472
93.1443126189467 2.16676
95.0489311494897 57.6089
95.0849309625086 46.0048
95.135329241997 2.66355
95.1760321883587 2.2217
97.0659324709086 33.2183
99.0429695332398 4.3953
99.8341897245678 2.02566
101.061366410201 3.19874
102.127737414025 67.4277
102.194348104048 2.08196
102.267295170718 2.29326
103.129774294583 51.3255
105.033211979258 2.44034
105.069230781611 80.006
107.080540524508 54.41
109.065295611894 10.1728
109.098944122309 12.3122
111.039396232222 2.25359
111.081314347544 9.73102
111.111335510825 6.77588
113.057355667984 2.1968
115.074376774219 2.05242
117.068655055858 70.7001
117.235119149232 2.70835
119.085456211529 44.9685
119.137331915019 2.84599
121.063136695911 25.8902
121.099350383614 35.2188
123.076332463889 18.2806
123.114804832125 6.47648
123.655669918974 1.99313
125.058914008516 2.6115
127.072931302687 2.52141
128.05619608991 3.72081
129.06869224502 51.5819
131.084880382059 88.2897
132.108510389353 4.24869
133.097506299404 41.1919
134.06273876997 2.49588
135.080327676558 26.1469
135.114917375072 13.6599
135.160251907877 2.05046
137.129541026296 4.69855
139.118390638777 3.18985
141.069415974222 2.58425
142.074003609583 2.95132
143.084726115396 58.2977
145.099567078886 38.738
147.08284444124 45.7511
147.14380571037 3.03164
148.010134274199 2.0433
148.081543335982 6.6188
149.056186014378 3.52058
149.095984099905 20.2864
149.127078883261 10.5769
151.106438920725 9.13926
153.082626919652 3.53542
155.084694608018 21.502
157.101850490226 41.0494
157.482569626503 2.38972
159.112187389452 10.9405
161.100048195874 26.7061
163.110417668268 12.5097
163.146761754923 3.8977
165.118547824979 8.91168
167.09001449899 3.90197
169.100471719944 18.2105
171.115631284713 27.7806
171.387020849005 2.14791
173.096670829548 13.8552
173.132085374708 12.9712
175.133648771106 5.37702
177.115656964736 3.68416
177.16583330887 3.78589
179.103510180524 2.1856
180.084401076196 2.54185
181.099547890193 13.9044
183.117842887499 2.04745
185.115417321242 19.5665
187.110375892504 9.36841
187.150733895725 11.0299
188.110424068622 4.9076
189.120229100663 8.10986
191.13416262482 12.9444
195.110524520407 5.94245
197.136104987483 4.89732
199.116889760834 32.1276
201.136723733322 13.6044
203.128328408536 9.35982
205.160717219407 8.51541
207.104829512543 2.40082
207.177168607215 2.90003
207.500096552008 4.36291
209.136851166176 2.39097
211.139320668996 2.06719
213.131997592942 12.339
217.159683559019 40.2948
219.139752479936 6.14234
223.144143529965 8.24831
231.127925155533 3.18743
235.165753069402 6.75147
237.177760493596 2.55646
239.177773534207 3.80862
241.195809505575 17.6259
243.177881490229 2.61376
255.210558190551 11.5666
257.173709744136 2.53357
259.203048192167 3.09238
261.180044502772 2.29015
265.197134411559 5.5698
272.985419605907 3.13878
273.103529875798 2.57642
273.221558357317 2.40144
283.203985226308 21.229
291.2315566406 6.68981
301.212803708597 42.0075
319.219338424661 13.6912
320.21933842466 1.0e-13

>collision 40.0
39.0244272758069 3.38432
41.0393944979748 27.2888
43.0181575098119 3.06428
43.0547037345608 6.65721
45.0323710825692 2.05049
51.0230244442456 1.64642
53.0399379968676 6.17485
55.0188297047375 24.1034
55.0549434789308 44.7649
55.1260600268092 1.23832
55.2171517809371 1.05144
55.3709840084872 1.10455
57.0326754418267 3.07655
57.0696130343126 6.51867
58.0680915139198 2.36904
60.0799752660736 1.38335
65.0376404976625 2.93936
66.0393010712553 1.31341
67.0550424286927 55.3577
69.0340994234997 2.09807
69.0700222350767 48.9046
69.1083357222678 1.69583
69.1440227897072 1.28135
69.4541618866642 1.25632
71.0516122130244 5.63564
77.0390332190165 20.1613
79.0545905174085 52.2998
79.1071956031762 1.76371
81.0332121974857 4.35774
81.0707605555626 46.3126
81.1379301008545 1.79084
83.0485759072793 16.5377
83.0936689569707 1.12143
85.0619495940006 3.62697
87.0412596068917 1.20076
91.05423132691 100.0
91.1403861873129 1.88225
91.1658655660833 1.00577
91.4605055169188 0.964283
91.6750790073997 1.02966
93.0704854216064 27.9549
93.1761521845881 1.22012
95.0492183130745 18.584
95.0862632343594 15.0071
95.139403196739 1.20458
95.9299281648166 1.05077
97.0653756752786 10.1013
99.0839962456945 1.41561
102.127833988046 17.7024
103.054550454955 8.0954
103.129711115597 11.8645
103.220505978088 1.05409
104.130805194569 0.976187
105.031062832007 1.48001
105.069427278163 43.6443
107.049921216887 13.0826
107.08248357623 8.1543
109.063523213583 3.4169
115.053208186932 13.845
116.062749622147 5.09876
117.069555277053 35.9314
119.083590876936 25.8089
120.088800376095 1.74262
121.064586776708 7.97934
121.102625436572 3.86967
127.054048327927 1.75892
128.060822806287 11.2878
129.069121769956 22.4508
130.075158697691 4.94949
131.043138061619 1.28095
131.084049775515 18.1454
133.0614490192 4.10232
133.101163896339 7.05988
135.078809898 5.19351
141.069852814191 7.46534
142.075434565457 3.58332
142.104694489143 1.00116
143.084015945772 6.64384
143.127454221146 1.25672
145.099348188969 6.07144
147.07955349404 4.63805
149.102893442607 1.71428
153.070144718655 3.14291
153.134199446675 1.05357
155.085992405347 6.31334
156.096869134334 1.81309
157.100698846238 5.51154
159.107542692007 2.93985
160.088158400247 1.1543
165.079354660259 2.82034
168.094523524671 1.73837
169.102876677108 1.74684
171.111130324943 5.94025
173.090136800458 1.2873
176.079968058828 1.10714
181.099613052005 1.43327
185.127330937957 3.16833
203.143987118759 0.978833
213.161619323485 2.5742
214.16161932349 1.0e-13

