>compound (&#38;plusmn;)5(6)-EET
>formula C20H32O3
>parentmass 343.222310393057
>charge 1

>ms1peaks
219.099210013992 1.80171
263.640241045623 1.43505
264.125467625588 2.5186
264.159515363512 1.44145
264.953675526216 19.1803
264.993075560537 1.82516
265.017622095258 1.18284
265.046946377911 1.16399
303.133395452924 2.58108
304.178276080753 1.75148
342.207230826393 1.48022
342.270191642919 3.73906
342.971168588603 6.44777
343.036040256631 2.41745
343.222310393057 100.0
343.2807302056 10.8491
343.322854705469 3.24381
343.347196356724 2.5066
343.394612324711 2.59979
343.449781744978 1.66441
343.504800533526 1.76488
343.530707700628 1.79512
343.663697428638 1.2324
343.699923727212 1.12523
343.764506922624 1.33956
343.860513866158 1.1078
344.040467795163 1.95844
373.04046779516 1.0e-13

>collision 10.0
71.0910505763713 2.61549
142.950999234369 8.3764
186.940157845359 17.1351
186.977848815887 2.72885
187.640742190547 1.63609
224.12992304024 6.54266
263.138646405797 1.88428
264.134583711885 6.23853
264.156259373994 2.92329
264.95964655708 22.9472
296.340742326063 1.72122
339.818461330634 2.33557
342.185918381717 2.25385
343.018173365493 2.11567
343.226814124704 100.0
343.314603652373 4.00425
343.362448492195 2.44708
343.406525025273 1.92211
343.59761913266 1.85831
372.59761913266 1.0e-13

>collision 20.0
79.0175816678384 7.141
115.979843730801 4.99555
138.383337669937 4.74868
142.950228964472 30.8824
142.968505015931 7.48507
186.936623171038 100.0
186.972790386802 10.87
186.993368446068 4.66633
191.03326828254 3.81715
209.017161833491 6.91649
220.961529929328 7.44486
316.064946341681 5.40915
333.646534393289 4.60152
343.227544880942 48.4847
343.260563692451 6.42162
372.26056369245 1.0e-13

>collision 40.0
61.011269222791 6.59053
63.9973176736815 15.3818
72.9367970120497 7.02448
79.0493653271743 5.75231
79.5917782633893 6.17246
86.9759879772979 8.69849
131.000600993401 4.91047
142.94715705058 100.0
142.984278749485 9.68853
143.004482755135 6.47942
143.632306579878 5.9063
342.264224381866 6.37617
371.26422438187 1.0e-13

