>compound (&#38;plusmn;)8(9)-EET
>formula C20H32O3
>parentmass 343.224345728092
>charge 1

>ms1peaks
183.077426765238 0.526984
218.946488220177 0.521727
264.949878594545 3.29927
264.978670888275 0.926021
342.965211848228 0.732573
343.224345728092 100.0
343.397285886253 1.48329
343.44819212583 1.21006
343.477247873384 1.00727
343.49992020306 0.774512
343.527400446886 0.930285
343.632982172133 0.871625
343.72636107504 1.36539
343.754759916807 0.901759
343.80409317786 1.06893
343.839302492411 0.624377
343.861117966548 0.831414
343.897526410906 0.658424
343.942882712229 0.639684
344.012498594054 0.783636
344.081235354033 0.657432
344.140267440393 0.746333
373.14026744039 1.0e-13

>collision 10.0
79.023869153934 0.849875
87.0399120431395 0.571661
136.954427461268 0.701635
142.951248399977 2.40631
186.942789675728 4.61192
186.994605782192 0.515098
218.950517243007 0.594421
224.633028431433 0.975144
264.95874216366 5.02447
342.293812910216 0.597935
343.165341815409 0.967512
343.22718669689 100.0
343.351966393245 2.74136
343.39747369173 2.34199
343.453977766287 2.17348
343.543325637472 1.0302
343.591798163803 1.29327
343.648082384275 0.972688
343.739100740596 1.47252
343.794297685914 0.821201
343.835972075129 1.25676
343.85865924809 0.78953
343.938113938913 1.00893
343.999038456862 0.85411
344.074478029155 0.981086
344.133962290884 0.654188
373.13396229088 1.0e-13

>collision 20.0
79.0213765593182 5.89902
102.123455593175 1.58915
116.052489825753 2.20152
128.140696238873 2.00817
130.996292868947 2.69946
142.948422432098 20.1597
142.966941020668 3.71594
143.121130977869 1.5595
143.556073726963 1.61897
146.097415203932 1.91149
179.065378689459 2.70806
186.9400860659 49.0668
186.974625550347 3.47371
186.998940927117 2.5925
187.710281124134 1.62326
216.619661279581 1.75821
218.964913239352 1.55534
264.950576208164 6.46168
342.235454523421 2.72297
343.223023678537 100.0
343.275313039876 12.4872
343.298797757065 9.03205
343.324671971922 4.74266
343.398727750519 2.57174
343.461663396094 1.78526
343.525242459242 2.65491
343.626573175425 1.65242
343.805394898899 4.18257
343.969702153479 1.47209
344.215716362197 1.45165
373.2157163622 1.0e-13

>collision 40.0
56.966470669449 7.03047
57.0875739035254 3.86776
57.9988342331157 5.24584
58.066306563982 8.74768
64.0034807675785 10.378
79.0211004050057 75.7181
79.0501948395132 5.66528
79.195373579066 5.32825
110.920206936019 9.42827
127.923587115201 4.01033
134.989118758145 6.7988
142.950833054821 100.0
142.978888673849 11.3665
143.013878032862 4.02932
143.058684925148 4.17293
342.305330198674 6.79148
371.30533019867 1.0e-13

