>compound (&#38;plusmn;)11(12)-EET
>formula C20H32O3
>parentmass 343.226128287323
>charge 1

>ms1peaks
71.085707700652 0.600677
186.938147090859 1.33726
250.527218535728 0.51896
263.633286749057 1.0634
264.125634825648 0.674806
264.953158738908 7.83237
264.990151824947 1.03004
342.625198699244 0.507794
342.97741410199 2.88241
343.222594243462 100.0
343.386105927019 1.88636
343.436309322199 1.43351
343.483597354989 0.987059
343.509731645371 0.901631
343.56420882395 1.50781
343.655310674222 1.28382
343.701705823036 0.941056
343.747593243992 0.790939
343.839349608721 1.24813
343.889403764398 0.930081
343.971217199318 0.620882
344.063612651477 0.949906
344.102944660112 0.539963
344.197925279894 0.935312
373.19792527989 1.0e-13

>collision 10.0
71.0850524005322 0.596866
142.950054736012 0.971258
186.941740577521 3.04897
186.98436121483 0.558679
220.960823017647 0.94641
263.627303088722 1.05608
264.952618430144 5.75727
264.99189998949 1.25659
304.152245653569 0.833526
342.968695910141 0.79302
343.226128287323 100.0
343.330203814618 4.50495
343.367538975248 2.31431
343.387771768991 2.21469
343.421765565855 1.55891
343.453524794481 1.45423
343.491920401805 1.41708
343.553321126259 1.48576
343.584415644088 0.867364
343.633680939462 1.02766
343.651530164205 0.971956
343.729002833562 1.10649
343.784530801143 0.922248
343.861288492809 1.05781
343.921009968462 1.03898
343.985362883088 1.12068
344.033128522896 0.845111
344.087353062296 1.10126
344.108647386079 0.732397
344.130136588541 0.508551
344.166127419362 0.648562
373.16612741936 1.0e-13

>collision 20.0
57.0708313934016 1.40458
82.9803493044873 2.64334
112.109681621342 1.47193
129.200235789343 1.74856
142.952531511457 6.84158
186.936550208352 27.8346
186.974757276084 3.03137
188.946555140723 1.61473
211.013761402617 1.76176
215.139941809244 2.44547
219.009606555425 2.98306
219.093268216985 1.92197
240.234979500702 2.6564
264.944030531496 3.81322
269.013802714716 2.45634
343.222232611893 100.0
343.313112593702 5.217
343.343848488987 2.78014
343.378700965578 3.60375
343.444543785373 1.77453
343.497532191909 2.06313
343.736095856516 1.61276
343.767865146586 1.91366
343.829194242026 1.5978
344.146728620875 1.552
373.14672862088 1.0e-13

>collision 40.0
61.0130030061671 14.267
70.7515111724205 12.5932
78.8742778016582 10.2468
79.0225776506795 54.8195
100.075237704924 8.87066
126.95236850089 9.24027
130.99837474332 16.9392
133.946440763672 17.2536
138.937803378217 9.52326
142.94925656786 100.0
142.96720946956 16.4682
146.997783048588 8.97356
153.99494786236 9.92046
184.900073259245 8.02914
186.903397647351 8.95316
227.122915214518 8.15454
256.12291521452 1.0e-13

