>compound (&#38;plusmn;)14(15)-EET
>formula C20H32O3
>parentmass 343.226197105028
>charge 1

>ms1peaks
89.0612587715742 0.612902
133.082878080062 0.666224
186.935444944182 1.74779
188.937428505468 0.513714
199.053630181103 0.743715
224.619858101788 0.542228
263.131469896969 1.73134
263.631720186348 2.43891
263.959388885886 0.576944
264.128799032144 1.60089
264.952437539943 14.2171
265.120575108879 0.927009
265.644735779986 0.512848
265.952938902858 0.888768
266.087157236796 5.09659
266.588543073795 1.58186
266.947897042828 7.27119
267.070359587866 1.04386
267.132791825598 0.864611
267.172621153723 0.582203
267.949314235902 0.740419
299.973709176627 0.504506
302.140022519379 1.98739
302.642237925704 2.96553
302.697125135709 0.574684
303.138130722948 1.54352
303.219223287495 0.516145
303.630204259862 0.742338
304.123650852982 0.709295
304.223672794734 0.538783
304.642213890662 0.554806
305.09338950714 8.86915
305.599140234699 2.20361
306.091984715741 1.50601
327.200789014479 7.14198
328.205380868459 0.963209
341.654340979628 0.503834
341.975480043575 0.54648
342.179498661001 0.834638
342.304902469871 0.686419
342.96686373509 2.1982
343.221271027418 100.0
343.388831961304 2.25455
343.446843161569 1.40427
343.514861083374 1.17985
343.633416365152 1.12292
343.756264621483 0.760671
343.830670865485 0.935003
344.036723413191 1.90881
373.03672341319 1.0e-13

>collision 10.0
57.0710113325185 0.736458
89.0583060145869 5.46397
131.00975605054 0.628835
132.018084957451 1.16622
133.084843568143 4.37704
142.950052601019 1.89828
177.111086991703 1.01915
186.938769619643 7.93484
188.937154820454 4.67523
199.052002715159 4.94592
199.548850058088 0.666542
209.009696583129 0.598019
221.13679298173 1.10047
222.964277951146 0.509975
224.129263131139 0.812141
224.625456058153 2.61692
225.130835551807 0.897849
225.604525871513 0.626493
227.076843648612 0.506848
227.581610904874 0.678248
263.135560968457 2.32536
263.638431222852 3.52784
263.988396568739 1.01168
264.132439029801 2.3995
264.636048999212 0.792958
264.95425329317 6.25315
265.070491487919 0.51164
265.137009196819 1.5418
265.956656341941 0.830906
266.090022002761 6.34887
266.173836025006 0.559809
266.590752366916 1.61527
266.952403661003 3.66096
267.03034267199 1.15446
303.230734949188 0.670713
327.204011493596 17.5433
328.206096197997 3.06314
342.296448867966 0.625201
343.226197105028 100.0
343.386004820587 1.65209
343.443844431324 1.32116
343.527280350358 1.24828
343.680665989331 1.22974
343.907309281397 1.0339
344.010299616486 0.883758
344.111739217127 0.636073
373.11173921713 1.0e-13

>collision 20.0
57.0686626953622 4.64803
60.9545484252948 0.849092
61.0084742839449 1.64737
67.0534231474191 1.02618
69.0669222318321 1.90277
71.0863158436635 1.0781
77.035606179696 1.22637
79.0180322670377 22.5187
79.0634317326784 0.937527
81.016837287379 0.681637
81.0651076866074 1.42387
83.0868460202836 0.927186
84.7676365954098 0.803352
85.0986473318368 3.84083
87.0425016395946 3.07184
87.107078081909 0.812753
89.058342575652 62.4524
89.114055385549 1.3128
89.145092241574 1.40854
89.2826632921045 0.880877
89.526368182615 0.832547
89.603562403182 0.667528
90.0613697555573 2.84972
91.0462736932033 0.719689
93.0670345963243 0.844808
95.0834056760113 3.15838
97.0666725035628 0.732098
98.978698990693 3.02042
101.026761368594 1.03151
103.03835658262 0.85116
105.008095909471 12.5122
105.063931920169 2.82179
105.508935164879 1.78061
106.00946237003 0.930633
109.097558276624 1.14187
109.998741368402 1.49847
110.503742159753 1.87487
111.020388546916 1.45661
112.988206827034 1.17535
113.088889030349 1.95472
114.09361935628 1.69025
115.025415808808 2.01854
119.081330596127 1.72202
121.061712539479 0.767255
123.115936848119 0.861697
124.992083513292 0.860506
130.997710463262 9.52133
131.060404585316 1.28129
132.010702795853 6.19248
133.082758160668 21.7341
133.149360726154 1.00253
134.086625836923 2.20289
134.679049747802 0.737268
134.953947472704 1.50822
135.074812018091 0.665506
135.956442190384 1.14364
136.937122179699 0.944473
136.99082217402 2.63078
140.079102541603 0.720724
140.988093416554 2.16832
141.940716018633 0.728789
142.947599466212 27.3107
143.95527150254 2.36639
144.943465903148 6.84952
145.044227447378 1.88712
147.989861261362 1.89074
149.941772898186 1.18755
150.951951863528 4.26388
152.946829702858 0.67626
153.555858177181 1.63901
154.919228629488 0.695102
155.080707398006 0.893408
158.963147841851 1.28275
160.041393631836 8.60623
160.536205233066 1.04283
160.975912095786 2.25117
161.039690854879 1.62005
161.126413658097 1.40645
161.936793586327 1.07554
162.095316493002 1.82869
164.963843729575 0.718862
166.075614185894 3.03767
174.947649534516 1.00952
175.110276652814 0.728789
176.014531145885 0.689588
176.984057672312 1.93394
177.024880935669 0.931815
177.109714017968 4.71314
178.109122111832 1.06816
178.998072301107 0.790481
183.076583388297 2.1508
184.896140733761 1.04242
184.931276166325 0.993266
185.012727320324 1.52256
185.981615916263 1.276
186.937453132406 42.643
187.024860252533 1.34383
187.063536883417 0.744506
187.170331052151 1.10958
188.000854485806 2.83858
188.933858501598 23.3625
189.02945179054 1.10849
189.054362333022 0.704726
189.930829242048 1.20598
191.022481790791 0.933253
191.06206791569 0.744506
191.952474333799 0.827229
193.992610159755 0.663851
198.108951204755 0.795519
199.045211748834 7.21445
199.546928897224 1.12672
200.038126877092 1.07953
204.971474483237 1.19137
205.004045224721 0.877552
206.027138457695 1.0623
206.973364760944 1.14227
207.523775126917 1.28686
207.965130732046 1.02714
209.014717797916 4.40435
210.009624357676 2.947
211.003203294581 2.16372
218.946351797357 1.24705
218.996690260871 0.969926
223.019693825448 1.31033
224.123659965788 8.71442
224.622868129599 8.0019
224.814779202297 0.811926
225.022685257881 1.01392
225.121855942609 2.2025
225.61037720202 0.968892
226.121303015299 2.25213
227.083279629908 2.23822
227.129163545131 0.787936
227.584690334205 0.764773
227.647949753523 1.07938
233.859364920603 1.04254
234.156526367412 0.812753
235.008470260428 0.8162
237.980298574303 0.811719
239.153510869414 1.79563
239.232447986466 1.35045
240.225254990221 3.12448
241.193308753693 1.29233
246.95916916839 1.08421
249.043595849423 0.803446
249.401898483962 0.711417
253.094455437277 1.07709
253.955126532804 0.700617
257.184670074401 0.811098
259.125050460373 1.05754
259.160488661857 0.757742
259.869844980619 0.680396
263.120544191554 1.12503
263.639757690251 1.33184
264.134865392866 1.18989
264.952804540126 3.78945
265.05317038198 1.48026
265.097485049249 0.862977
265.124398373434 0.727962
265.983757837194 1.40798
266.943750797281 1.53037
267.073496868095 1.40077
267.158272953376 1.44208
270.838570141022 0.66592
281.186766099091 0.718862
286.07688226642 0.818071
286.99608000403 1.14778
289.20222012597 0.794328
293.119693365633 0.711831
295.187550924492 3.09502
296.187942737222 1.55989
298.220883840957 0.664442
301.147696750041 0.696251
303.223384188669 3.20251
304.873877801546 0.712451
327.196510323065 5.94084
328.207126687545 2.05256
340.193089503986 0.697532
342.307502224843 2.81534
343.220533949754 100.0
343.382646398062 1.93444
343.423004572011 1.14689
343.505200759843 1.64189
343.64372822314 1.63826
343.848093373351 1.25908
343.959753771763 0.96579
344.222908373782 27.1979
373.22290837378 1.0e-13

>collision 40.0
55.0530557022899 2.13851
56.9648467026719 13.9402
57.0344250550228 1.82987
57.0701039116671 17.1051
57.1041625816928 1.42834
58.0655200341042 8.70862
58.9615370308474 1.9319
58.9868989020495 2.8463
59.0463345547628 2.32462
60.0433240143985 2.83214
61.0086107418718 6.75622
62.9852741619602 6.07706
63.9958306811436 4.43992
67.0519378843893 2.83571
68.050790870313 2.43861
69.0692159116877 8.74583
69.9477840195809 1.29349
70.0617322134071 1.19975
71.0831980816297 4.56108
72.9334242199584 1.58401
73.0292672283051 1.85768
73.9963594402913 1.84162
74.9327682979585 2.50279
76.9295753395699 1.38746
78.0095281076429 3.83625
79.0192303795312 100.0
79.0837476208019 2.01733
79.1022916207465 2.40613
80.026447433404 1.3329
81.0165393592868 3.54242
81.06801216675 2.61258
82.0641311027191 1.74303
82.9781341105659 3.77995
83.084742636691 2.47421
83.9550186343162 1.60008
85.0474905417209 3.76707
85.0951254239673 1.27819
86.9709942672959 1.66539
87.0159333344755 1.51904
87.0393052969713 1.92107
89.0579407887642 21.5405
89.1028416091652 1.72914
90.4835974988966 1.82899
91.053992207323 1.9496
93.9866257467517 1.77535
94.5254209929569 1.60008
94.9777966487557 1.77112
95.0102735076147 2.41735
95.0823188446133 4.21296
96.0298505114169 2.27591
96.0910146144123 1.65595
97.9991768436732 1.19189
98.9788226101843 13.4447
99.042376586549 1.4622
99.9399880519243 1.36424
100.009687899363 4.22696
100.930409017596 1.67083
100.988786189036 2.43925
102.027006293567 2.64502
102.119748367384 1.66756
102.926582317912 2.52674
105.076162226932 1.37004
107.076074653025 2.53835
109.931589061245 1.42526
110.05082586604 1.31586
111.015420221638 1.41918
111.970450754765 2.05084
112.985539994631 9.61113
113.018361230486 2.2314
113.992819832563 2.78677
116.098695641812 1.30659
116.969354224895 2.64502
117.061306411639 2.38137
118.011559874425 1.60298
118.083568326053 1.95057
119.083498542271 3.83156
121.057096959884 2.49626
124.991569072891 2.67293
126.967615180944 2.24207
130.958956731104 1.50937
131.000201409024 37.9246
131.06024936674 1.56794
131.762235764087 1.45183
132.002604383107 5.06872
132.999916794324 4.71522
133.979450618037 1.89397
134.974857862169 3.68658
135.078211466174 2.28022
140.938788751236 1.22999
140.988198994688 1.54202
141.03007890395 1.21185
141.943876034859 1.27756
142.946593766524 53.4379
143.003624190639 2.35694
143.027769617181 1.59766
143.084383083355 1.29167
143.945463300882 1.36675
144.944559290674 22.8264
144.993639534596 1.87427
145.946050551416 6.7342
146.957543328299 1.71328
148.997465838736 1.34174
149.956716777826 1.94528
152.941654250384 3.65445
152.996213695202 1.42262
153.960124503162 2.64403
161.12509594807 1.19588
176.984514947409 2.35528
177.992749109387 1.33573
186.930915215185 3.21956
188.653531646655 2.12717
189.027252060913 2.87409
189.090667569222 1.30618
191.941751808147 1.40868
209.845203086318 1.39359
213.001859323406 1.48034
218.966058147675 1.86585
241.222623697658 1.42262
244.20459358208 1.25781
272.068316107359 1.61967
282.27531801718 1.82906
295.1939986655 3.68997
296.202581696779 3.36063
303.221550212657 2.12618
319.153312921858 1.16138
331.765970643319 1.1906
337.732347480445 1.16287
343.203805745167 1.30981
372.20380574517 1.0e-13

