>compound Sphingosine-1-phosphate
>formula C18H38NO5P
>parentmass 380.254932773881
>charge 1

>ms1peaks
25.0142252739133 2.1983
79.0525536255391 0.693912
82.0677258394173 1.27091
89.0578450061126 1.02136
91.053814452893 0.740947
121.106856043963 0.646193
135.117360018293 1.61831
226.950222196258 0.863007
243.94023511869 3.55541
247.242075888022 3.43277
251.037733011285 0.969309
264.268066441791 37.0068
265.270786456638 1.03332
282.279214397915 1.4687
294.952233790876 0.546779
339.160985579692 2.43672
359.888576296394 0.665683
362.247485478392 4.05616
363.30292136266 0.672217
379.272480418768 0.794382
379.921526537817 0.550757
380.256405145295 100.0
380.620350264089 0.837772
380.890475032972 0.745669
381.063572938673 0.868322

>collision 10.0
57.0708570811104 0.72672
69.0705756015067 0.586847
71.0882973495325 1.34657
77.038676190146 0.956553
79.05551621134 1.71378
82.0678540987288 1.71067
93.0685186837792 1.47933
95.0836913011821 0.598254
107.967884074101 1.68266
121.098158302186 1.6031
123.117090102837 0.733937
135.117040784623 1.05511
149.13154025916 0.821468
158.959883999339 1.68367
163.155754560549 0.52233
175.955869944379 0.559518
226.948784127119 1.28032
243.937105948829 1.19366
247.241673206608 7.38022
264.268156172035 100.0
264.469327471105 0.659499
265.021054963976 0.841778
265.269928501939 0.726812
282.276198240056 4.03841
294.932825630932 0.614051
312.241338728652 0.647432
339.157651349091 0.61446
362.244750824781 4.9676
379.695557633995 0.7399
380.254932773881 24.8384

>collision 20.0
56.0491703354087 1.79276
57.0729275864437 3.62227
62.982548763279 0.774847
67.0562150919087 2.61364
69.0685549262422 0.840564
70.0670208242379 0.949407
79.0530366401336 2.50322
81.070239717843 2.03506
82.065986277724 7.71712
83.0863830106464 1.01053
85.1012015290093 0.711587
90.9777262931783 2.79236
91.0538804041096 1.88797
93.0706379840661 4.40516
95.0811726023985 1.65737
96.0812307720683 1.67885
97.099504151431 0.806011
107.079077192482 0.623717
107.965724896142 2.286
108.084064911125 0.61936
109.101801412108 0.822329
121.101844521374 1.4337
135.116480009901 3.78547
142.936406310047 0.763756
172.091660300554 1.19338
173.081666623422 1.13771
185.199936029597 0.648342
195.111040109227 1.07296
247.243744643782 0.768345
262.251660203568 1.74626
264.268095915798 100.0
264.469327471105 0.784958
264.878989772356 0.843931
265.14350635294 0.699705
265.274146582087 1.17606
339.153296179899 0.700435
362.23815112629 1.26905
380.264548105064 1.06815

>collision 40.0
30.0351133378416 2.95604
41.0375390300311 1.99652
43.056834607674 17.8831
44.0503104895183 2.66736
45.0341130131963 10.5339
55.055502294939 20.2793
56.048537451259 6.91187
57.0717036840039 16.4515
65.041369097254 2.6998
67.0558345055664 14.2031
69.0694950374082 4.2207
70.0661910985695 8.63478
71.0581454472447 2.15957
71.0875335899084 2.47277
77.0396170847262 11.5885
79.0546350258365 21.6083
80.0500286528085 8.30373
81.0590179982063 9.25733
82.0660840732665 100.0
83.0871491297538 3.58883
90.9761712107754 2.98558
91.0535209928024 16.4157
91.9809712295134 5.42217
93.0720880160171 11.5333
95.0827397276399 8.87624
96.0799154408468 32.7444
104.041931071262 4.75677
106.064364829347 2.47207
107.086041286224 3.0112
108.077839659486 3.82836
109.091920744107 4.0931
110.095842725353 2.79744
122.092943932798 4.36801
123.111553942668 3.52748
136.103435956437 2.06741
156.087881643086 3.42357
157.099779250237 3.20774
173.838773193208 2.27306
232.108809876663 1.96859
262.256436466943 5.01302
264.267366037601 11.4626

