>compound 5,6&#38;alpha; epoxy-cholesterol
>formula C27H46O2
>parentmass 403.359084576812
>charge 1

>ms1peaks
81.0694200149162 0.631651
159.112604787964 0.775045
255.207268875443 0.568934
367.336663983873 11.1649
368.336366311437 0.689934
385.348770271061 44.849
385.510768989387 0.678564
386.34833732757 1.98544
403.359084576812 100.0
403.633018579405 0.601762
403.757715554693 0.597993
403.946963466452 0.584746
404.112806471141 0.744455

>collision 10.0
57.0669880225953 1.48979
67.0525519149867 0.714097
81.0698907476161 1.06723
95.0856073084066 1.52175
105.068580278449 1.73383
109.099045188117 1.07304
121.09553049763 0.540897
123.111421549751 0.68119
131.081430164782 0.598954
133.098493791078 1.578
135.116056062752 0.605765
145.100900635068 2.18274
147.113361735969 1.04524
149.127393953946 1.94669
151.107575653069 0.622268
159.115961303667 4.36406
161.126821314052 1.76627
163.147735820747 0.674945
173.132332941753 1.27024
175.142792689069 0.695314
177.127269118127 2.34211
187.14570118604 2.03314
191.143546160224 0.559291
193.194492162745 0.635853
199.142249874441 0.587868
201.16081636378 2.12241
205.184686919162 1.05834
207.207683352903 1.01591
213.162328720008 2.82653
215.179280888295 1.00813
217.205754748633 0.591726
219.194837884708 1.50986
227.172835653331 0.699068
231.168471290136 1.95969
233.220863523196 1.99131
241.194512019626 2.80192
243.208229080732 0.507212
255.20770751347 1.41182
257.218527378034 1.0337
259.22990863549 1.13721
273.253398245638 1.49468
285.255358347285 0.5486
287.277434576119 0.555553
297.255377515478 0.578639
313.293090225571 0.582837
325.295402091831 0.736125
327.298177654182 0.614826
367.332530204744 53.8987
367.508143205433 0.764333
368.330229011148 1.53625
385.343222339542 100.0
385.625341539129 0.866983
385.744115021493 0.654919
385.843485942894 0.680663
385.892510405253 0.757413
385.968976808878 0.618328
386.080340247876 0.526607
386.345029864137 2.07254
403.353335708465 33.3005

>collision 20.0
43.0197143023234 1.1539
43.0567352404201 0.573897
55.0559196844831 2.36278
57.0705170374154 6.59738
67.0558429600025 3.61837
69.0709107261485 4.23984
71.0500007947002 1.80587
71.0866112968316 8.87294
71.6204949665996 0.607858
79.0535659396347 1.50162
81.0699567146531 9.3617
83.0500303805274 0.574203
83.0849808012612 7.10693
85.0995744835677 2.76283
91.0569437417413 1.79136
93.0697759324479 5.0862
95.0854636578177 11.2078
97.1007782026218 8.80869
105.068471716132 16.0201
105.676889743864 0.619687
107.082836485839 5.14
109.102200197886 11.4196
111.11571214136 8.41359
117.068757835825 1.53893
119.084813032118 4.62405
121.102564871988 4.68209
123.081288117322 0.674645
123.115837660798 4.33223
125.133425200089 1.53876
131.083901006499 9.16967
133.100454168025 16.1553
135.113123623888 7.77423
137.131596020441 2.85661
143.084862018643 1.8761
145.100024769066 13.2381
147.115934985614 13.8143
149.132495483107 3.39009
151.106505285369 0.580315
151.148168745205 2.62637
157.099777572764 2.48144
159.116395336947 40.8756
159.227787308612 0.566876
161.130578534171 7.0736
163.144234533442 4.01283
165.167573074944 2.35239
171.113855364602 1.83346
173.130332029108 10.5305
175.148416762517 6.247
177.13056048194 5.50868
177.158414252098 4.1211
177.497682543535 0.662462
179.173095679709 1.84271
185.129501056591 4.25816
187.146951899271 12.1565
189.160009415491 3.25578
191.143923864038 1.56271
193.19337657495 2.37803
199.143750594438 8.84744
201.162079703105 14.2433
202.164571176573 0.70501
203.175928782127 5.1915
205.188894072773 5.00012
207.208209667621 0.920544
213.162857247749 18.6204
215.178342058592 7.81154
217.163457594994 3.66068
219.206909203202 5.19305
221.220177451579 1.79985
227.179899122788 10.0376
229.196374262657 1.30376
231.192934853217 3.06666
233.224396765744 6.09537
241.194357451584 9.93145
243.208912442495 2.982
245.22636325764 3.18472
247.240746741259 2.83765
254.190197332308 0.706715
255.20754985928 7.17753
257.234334083551 1.90455
259.235391684234 5.14908
261.249033001295 1.03042
269.224108664529 0.740076
271.235376428552 2.03002
273.242211496394 1.86458
275.272949682441 0.592895
283.235260168982 2.77528
285.255057986936 3.59249
287.271838434738 2.08973
297.262306524593 1.02168
299.275258039101 0.891537
301.28308924633 2.19863
311.269815462115 1.62236
313.286605526164 1.38085
325.288328349336 2.69659
327.302396354447 3.35874
334.807251524438 0.809203
335.125202551375 1.13912
339.298482922831 0.989106
343.346824089705 0.557281
356.322043776478 0.688371
367.334724742597 100.0
367.509184930508 1.56941
367.639625479885 0.659371
367.889243765004 0.60471
368.035527297021 0.660961
368.195449221365 0.563785
368.331975748198 3.36421
368.494399622837 0.687532
368.851456810309 0.690604
385.343659371771 97.0727
385.481848164192 1.75942
385.520729659782 1.26856
385.575187273586 1.00438
385.647941836822 0.620368
385.754344424663 0.674825
385.935196849808 0.876483
386.346256820761 2.07977
388.267161089501 0.578199
403.366919566832 2.62685

>collision 40.0
41.0387243979416 14.2548
43.0172431883241 2.19383
43.0564915126309 15.5065
55.0549843454982 36.0984
57.0719371210113 38.6015
67.0559622770484 30.9291
69.0717795372839 55.2791
71.085587992193 25.978
77.0400979553185 5.17277
79.0564975374945 24.2679
81.0706137067098 100.0
81.1524596090965 1.99118
83.0509007218371 3.59621
83.08650284705 37.2993
85.1011827741693 6.48364
91.0548651547022 25.06
93.0706993394451 49.365
95.08577739443 95.2759
97.0999723944509 26.4602
105.070614040265 88.7807
107.08588748435 40.6654
107.403308070249 2.00507
109.063917586689 2.19388
109.101371054739 43.0977
111.111391113113 7.59574
115.057259767 3.18412
117.070070997581 21.6645
119.085954128378 24.2744
121.101311265811 21.8156
123.077381823503 3.67259
123.118014813479 18.9197
129.072016400369 7.19865
131.085652872716 36.9374
133.103098556512 46.4763
135.115706592909 22.7383
137.128472559442 5.75831
143.089084213655 10.1993
144.097669671815 6.0064
145.103842711876 47.7726
147.118155803795 24.953
149.131720711615 17.8076
156.091177893234 1.96699
157.101344004517 10.6503
158.106234201151 2.9615
159.116705545486 75.528
161.086916852332 1.96058
161.130696318293 9.14389
163.143601675197 2.50621
171.122034750624 8.79766
173.135299797971 17.9325
175.146549181951 7.39192
177.128687335368 3.43684
183.112921211869 2.26132
184.123655980428 5.88173
185.131528447764 7.63692
187.148194729389 13.6546
189.164760114732 2.56489
191.1379436904 3.47846
191.178747960189 3.97995
197.131169027424 3.53755
199.149530325683 13.908
201.167290054317 11.7386
203.172217607415 3.34542
204.73040603064 1.99365
213.164151391741 21.5735
215.182093931077 1.90453
219.21025234532 1.84268
227.179836967692 2.86765
229.200418999682 2.10248
239.184833572334 4.02462
241.196204902931 2.41637
242.199795240836 1.91963
245.23764969531 1.96509
254.207920403491 2.22532
255.208433859322 2.56489
297.269532491238 3.30466
301.236469852957 2.7694
301.269376710415 2.57949
367.336551167744 3.61599

