>compound acetohexamide
>formula C15H20N2O4S
>parentmass 325.120880186686
>charge 1

>ms1peaks
61.8415900276952 0.709134
89.0597214858361 0.685239
200.039112983091 0.668325
243.043598972464 10.1766
246.929536094905 3.7836
247.178714977134 0.626474
280.091564837994 0.764794
285.139748590516 1.61011
285.654839424757 0.621434
324.081463741713 0.596628
324.180984098835 1.99887
324.685266386718 1.95488
324.944737259578 3.90639
325.119671694792 100.0

>collision 10.0
43.0542994072558 2.63676
57.0698123683298 2.51638
83.0839469439154 7.62676
85.0990285839655 2.00675
109.052353527467 1.98289
119.051875091234 3.50838
121.058836200375 1.89786
131.150113243273 3.29621
152.942897657117 2.97857
168.915736184084 4.03056
183.008638958468 6.54007
200.036515809276 28.4138
243.042817799237 100.0
244.937496838841 2.92966
245.937521655377 1.75536
246.678972921316 2.72567
246.930028953724 22.1321
324.943089795618 5.90226
325.120880186686 87.7908
325.260448225503 3.05478

>collision 20.0
53.038543007895 7.35141
54.1060662562602 5.78525
55.055155581729 18.7324
69.0705113213475 6.55966
83.0851871355626 52.8673
91.053870859017 39.3822
100.117010393145 13.5347
119.04837932779 97.0726
119.68930233251 5.91689
152.947872332849 42.1513
160.935719173316 13.6361
167.138325188369 11.249
168.917183697923 70.6895
183.00962503675 100.0
200.037179888739 82.106
201.045785237681 5.53208
230.95699329648 7.28494
243.042085139452 36.9343
246.929579499342 24.2702
325.223287302791 9.06538

>collision 40.0
41.0394082324178 6.96689
43.0192723449914 15.8604
55.0544021362283 22.0747
57.0692422435249 4.58571
65.0393956849187 7.29685
67.054722819732 3.67052
77.0372780480418 17.7647
83.0806262975096 3.35201
90.9029840874916 3.3579
91.0540166491432 100.0
119.04905587393 64.9534
120.957738039501 6.46522
132.940437699392 4.10864
146.999151604536 3.69768
152.945639989889 6.4559
153.893348170972 16.3498
167.925646828192 3.36951
168.917392005052 19.4804
183.005550564702 3.59126
308.2859914704 7.0614

