>compound antipyrine
>formula C11H12N2O
>parentmass 189.101747601968
>charge 1

>ms1peaks
189.101747601968 100.0
189.223905952212 2.11802
189.267866005402 1.03161

>collision 10.0
56.0502889110025 1.33781
58.0653562994543 0.90711
104.048718819556 0.801222
131.07022180589 1.06499
144.07883342429 0.670616
146.085825651375 0.836595
147.089376133863 1.03893
161.104788420463 0.867013
189.099478374014 100.0
189.223870286711 2.08019
189.266972408923 0.892795

>collision 20.0
42.0352212029148 1.13516
44.0501741675703 2.79265
55.0199714489475 0.692515
55.0520976513618 0.906818
56.0502027497968 19.6792
58.0661778360703 15.7152
65.0401241986271 1.54549
69.059404110428 0.707459
70.0658235885891 0.81751
77.0394131585096 4.55857
78.0252996624496 0.547372
79.0546594763374 0.676981
81.0454297244447 0.802003
91.0540586780055 3.31121
92.049943731669 1.17555
93.0489748758729 0.730432
95.0602183613133 1.24552
96.0684530063114 5.724
98.0596421331451 1.72609
103.055521008495 1.38964
104.049359655126 9.71327
105.062907670146 0.974251
106.065058676209 8.74986
110.977049759957 0.515034
115.05422748032 1.14251
117.067409691904 3.93037
118.064943426491 6.05662
120.078947071583 4.42311
129.056190827032 0.540316
130.064920855488 6.55261
131.071736660135 9.40934
132.080477953868 3.65959
133.057856694409 1.60018
134.096566487266 0.757785
144.079851528459 5.45208
145.06749899094 4.86974
146.087017346941 8.32041
147.090862215024 12.1363
148.074975141528 0.944307
149.071518037819 1.03967
157.051642507121 0.771632
158.05650946961 0.583433
161.106003878177 7.13985
172.073321225439 1.78876
174.07781049302 5.30298
189.10125993085 100.0
189.222994787268 1.64815
189.268139666744 0.814322
189.313928452476 0.596299
189.527256592836 0.531189

>collision 40.0
28.017440294496 0.501074
30.0341042079531 0.909079
39.0230928643461 1.99305
41.040422248006 3.21769
42.0355323934994 6.14499
43.0435614402565 3.77248
44.0132890473571 0.537906
44.0500577296356 1.95629
51.0238338688684 7.72437
54.0348592084768 2.27829
55.0186991228027 2.18077
55.0425841394471 1.74142
56.0507171566826 100.0
56.1196350432157 1.46955
56.1399659783982 0.800011
56.1639325279533 0.581091
58.0659295886715 19.2507
62.9917225145691 1.52464
65.039817834242 13.9057
67.0186952065229 1.4575
68.0489908095779 1.80964
69.0587789985085 3.23813
77.0391172744509 88.3626
77.1189270567884 1.48634
77.1463864874008 0.694035
78.0450213639219 3.88833
79.0547896660161 8.84491
80.0492830159528 0.783926
81.047676995715 3.47707
82.0279583787748 0.553531
89.0409199953163 1.45585
90.0467271665364 2.11417
91.0546938731589 12.4676
92.0506019581627 3.686
93.0575696754403 1.62566
94.0666496885734 2.15979
95.0602420615794 5.85887
96.068973632674 1.27104
98.0594979878684 3.79974
102.048160325032 1.86231
103.054503001258 5.66099
104.050096927782 18.7816
105.054020584944 1.71313
106.064749680042 23.0799
107.063275166722 0.564574
115.053229914383 9.53233
116.053759579146 1.45338
117.063845381893 6.89414
118.066753118499 5.92085
119.06654048068 0.726447
120.080385013273 2.50975
127.697040807932 0.61996
128.053115059583 1.98317
129.056692915083 2.9549
130.064889124218 13.5277
131.062965078244 11.9717
132.068824092772 5.47339
133.062799033408 0.87374
143.070036113351 0.512998
144.07952370369 3.25556
145.07523118961 5.27869
146.086008596108 2.29289
147.091312330861 2.4533
159.071136355455 0.509625

