>compound butamben
>formula C11H15NO2
>parentmass 194.117866428471
>charge 1

>ms1peaks
138.054752518932 13.8443
194.117866428471 100.0

>collision 10.0
31.7417325427896 50.6584
79.0242873372677 31.126
103.036222968416 30.7964
116.107090050894 35.076
138.053847172461 100.0
194.11983533964 67.3887

>collision 20.0
60.0435950825158 30.0969
79.0192721123968 35.1355
94.063054208177 35.2182
138.056031375281 100.0

>collision 40.0
41.0383834083331 44.1029
65.0383457268143 100.0
77.039453609442 70.4407

