>compound carisoprodol
>formula C12H24N2O4
>parentmass 261.180213460863
>charge 1

>ms1peaks
55.055711595946 0.659082
62.0247932628888 5.04563
97.1013161395882 3.43435
115.11245714803 3.36242
158.116984098279 9.77465
176.127708525121 42.3811
200.164640097802 6.61951
261.180213460863 100.0
261.381736073089 0.672871

>collision 10.0
29.0395278305684 0.525316
55.0555286479373 17.2981
59.0505170437119 2.88935
62.0245496420428 67.2655
62.1228706456591 1.35709
69.0706780780128 3.4695
71.0859699251026 0.895933
73.0666576466748 0.995898
79.022815262208 0.613066
97.1018353047698 58.9259
104.070585239421 4.68949
115.112132952823 16.7136
133.122816114268 1.14476
158.11772965823 50.2132
158.274828428033 0.673023
176.128344911533 100.0
176.29643754707 0.860405
178.948134057125 0.934565
200.164692293881 34.4468
200.341431010017 0.633494
214.949556629831 0.550562
261.175418750095 8.3244

>collision 20.0
43.05462143711 1.25947
44.0143209220511 1.06364
45.0346870824918 1.86491
55.0557289651097 67.5984
59.0500858095218 9.93281
62.0250055190282 100.0
62.1228706486179 1.56533
69.0708217270847 11.4092
71.0856735075214 1.55591
73.0658126869355 2.99441
97.1019636852834 69.0455
97.2260186217658 0.506587
104.071705683843 10.3567
115.11227099501 10.2666
134.957905457146 0.509986
158.117441346067 13.8534
176.129852539248 2.78242
200.165171830882 6.46914
261.130486969697 2.53981

>collision 40.0
29.0391124876133 0.574378
39.0244183003483 1.30794
41.0400562863962 5.39798
43.055414429177 6.81081
44.0153870231049 1.58626
45.0341385724484 3.97035
55.0551803026338 100.0
55.1492336388293 1.34357
57.0707454097006 0.70606
59.0493741936258 4.40049
62.0245823899481 46.0005
62.1228706475958 0.795553
69.070931225772 6.25665
97.1015177636659 1.4353

