>compound cefadroxil
>formula C16H17N3O5S
>parentmass 364.09512555472
>charge 1

>ms1peaks
101.999270155471 0.561782
114.000585994546 21.3505
114.062745681142 0.640002
158.024995016157 13.6911
190.048850336781 3.79743
207.077426087722 2.81696
208.041517256636 47.4305
208.165631425562 0.867055
208.219970621591 0.507503
208.869883754774 0.759061
256.056772644957 0.539724
273.064458001188 0.694945
286.028933387998 0.52745
286.30503079136 0.505359
319.074510560986 9.21575
319.163937722395 1.00286
347.069643917081 15.7505
364.09512555472 100.0
364.255397153697 1.85327
364.328823345907 1.40128
364.399146794526 0.869677
364.565708706465 0.741315
364.636391363342 0.7727
364.72086750721 0.936489
364.825908231938 0.933667
364.906035532576 0.727348
365.051634268118 0.913061

>collision 10.0
68.0492754527318 4.91903
86.0041728170736 0.545903
87.0236957850503 0.52012
102.001332771248 0.819681
113.028890939806 1.6029
114.00086193235 100.0
114.097011719963 1.50138
114.134330816473 0.752523
114.18698523087 0.568896
114.227339351662 0.634564
114.288944779149 0.512356
114.320410508384 0.722883
114.46549955781 0.861832
114.731500683009 0.561861
117.035769448019 0.531592
122.060586127517 1.42756
134.061753353735 1.42512
137.002630813377 0.578873
137.168334666267 0.562191
140.031882374095 3.79668
158.027882435803 29.0067
159.102373669668 0.505246
162.057225733606 0.753755
177.810671051626 0.536373
180.045670855485 1.3005
181.061407601751 0.589863
185.037069138404 0.835194
190.048794688605 10.3252
194.024390418121 1.08887
207.032758163393 3.10371
207.077152995123 1.26488
208.041555696095 60.5593
208.212490118432 0.608757
208.477412483729 0.828506
208.543739553056 0.505736
209.050767489404 0.548548
225.03354363883 0.664587
235.010289059553 0.744709
253.029998357624 0.811342
256.057996059279 4.24269
268.043456622506 0.584502
270.053750265061 0.513071
273.067331354441 0.581564
275.088105726508 1.3284
301.068694195387 0.950114
302.049239910619 0.909046
303.076779170624 0.664489
318.091455876771 0.513252
319.075139735596 22.6898
347.069395562078 5.05744
364.094373591508 6.8647

>collision 20.0
34.0147969271713 0.555823
63.0206288684688 0.529288
68.0497046971692 9.71134
77.0061427773064 0.511759
84.0442388739288 0.918304
85.0357725084593 0.821935
86.005845837794 3.35547
94.0682441860051 0.58547
107.050458231644 0.536783
113.030784258833 0.910292
113.999759117027 100.0
114.098349605354 1.59995
114.121920498034 0.962506
114.290417078162 0.858084
114.471130973767 0.577405
114.780546329573 0.509758
122.058206012247 3.21189
126.046159056818 0.852414
131.015130059569 0.507359
134.041202512254 5.46713
136.998528147527 0.515636
140.022017281582 8.06281
153.039505202978 0.656372
158.025352941837 12.469
161.990113628816 0.551773
162.056506306379 2.2987
163.014617867832 0.505128
166.029755954743 0.943149
170.034010555558 0.597021
173.070719037572 1.46753
174.046302193911 1.09738
180.04461183666 2.66626
185.035576977994 2.27165
187.05063876297 0.523855
189.064381733114 0.681359
190.043722714086 4.25417
194.027641650711 1.00091
198.08167892721 0.509483
202.036096647806 0.635739
207.030197782688 4.30197
208.041876657787 4.56704
213.027643689928 0.703773
218.063189574032 0.501354
230.054292619884 1.14157
256.054563188207 0.68225
258.054259295678 1.28814
273.066455744512 2.55916
277.967645189787 0.68722
291.078979331911 0.888378
303.077027276422 1.05947
319.074494839535 4.57171
364.087740703293 2.10249

>collision 40.0
41.0388658863546 6.12405
44.9805614742679 2.09911
56.9655530829687 0.904249
58.995283518384 3.0092
68.0504399311612 26.3861
69.0349332018159 0.870049
71.0524486617127 0.77094
77.0406325196168 1.1821
82.0620716151745 1.50869
85.0426933962364 1.38079
85.7782350641908 0.604982
85.8271523840597 0.85802
86.0062406329423 26.1513
87.029422405774 1.45552
95.0491389006332 0.618472
97.0303141456977 0.616181
100.051622321454 0.780637
106.042732078878 4.95763
107.047519092161 8.39998
108.04845019246 0.592566
109.102811204645 0.607416
112.023063331817 6.48829
113.001175024412 0.805967
114.000879448641 100.0
114.096437655335 1.74064
114.127476724226 0.711958
114.157961923016 0.503366
114.222598336452 0.849174
114.276800755163 0.67403
114.417636571628 0.50261
114.678309205514 0.578763
116.050905029179 2.4289
122.05896758061 4.70772
123.049437484871 0.515072
128.013449277575 0.65746
128.885674404835 0.92783
133.052209098833 2.94007
134.04946268658 18.5089
135.036857498217 1.2705
139.019352558432 3.35109
140.018350657606 7.40843
141.047296342087 0.857334
145.038617996657 0.868145
146.053700163043 2.48597
152.016116695305 0.691089
157.096422747697 1.09194
158.03962193243 1.12831
161.070902148888 2.22759
162.05239056494 1.46771
163.019013367919 0.571352
166.036249030788 0.868512
170.058149818105 0.92526
173.070781930311 5.86457
178.034955397889 0.591474
197.084305725795 1.1753
214.067150966743 0.888914
216.031568826352 1.30427
218.068680893825 1.81708
230.023756422427 0.537099
246.832698086931 0.574676
257.09968125964 0.663245
258.060528468501 1.12814
323.217934012874 0.596136

