>compound Sphinganine
>formula C18H39NO2
>parentmass 302.304627203401
>charge 1

>ms1peaks
60.0446290471141 2.1865
284.292935312095 3.76041
302.305353225379 100.0

>collision 10.0
30.0330069360815 0.87364
60.0453634112169 16.1857
67.0546824156153 1.13939
81.0693249226047 0.983844
83.0852887211946 0.719447
95.085847516732 3.05558
97.1004662017584 1.28181
109.100222034104 1.32448
111.114393106906 0.892265
240.270987571469 0.562035
254.284771179662 1.83729
266.284430483115 4.71
284.294546846983 48.1967
302.304627203401 100.0

>collision 20.0
30.0359243066178 2.35393
42.0336033012033 3.32343
43.0176849352973 2.02603
43.0552236949311 2.42681
45.0325288543564 0.607731
55.0561915971807 6.46923
56.0484475309782 2.51567
57.0711897293058 5.06169
60.04482730221 100.0
60.1157869188618 0.907747
60.2720383010424 0.545661
65.0374372567474 0.791898
67.054012312945 12.2665
69.0710159155917 12.7439
70.0657050554902 1.61253
71.0860909396123 2.78885
79.0559058475637 0.852571
81.0702581534567 13.0691
83.0866389339464 10.9769
85.1018548136858 0.934361
95.0862865171567 23.7838
97.1006075975136 6.2234
103.009749607224 1.37854
109.101687432485 7.19221
111.118987439983 1.49239
123.120891045544 3.62847
124.107611931109 0.529553
125.129495883061 0.907903
137.129101234945 0.960559
138.94296240313 0.662148
165.163236642963 0.769095
187.092144794315 1.31217
240.266430680709 5.42042
254.283194947685 24.4203
254.588252656834 0.74592
254.920640699014 0.696172
266.287683926706 13.4413
284.294282986717 83.4319
284.631974091648 0.890642
284.874846315907 0.518477
285.078590210963 0.832115
285.333893738549 0.90074
302.303939090275 4.33661
302.398515761303 0.72721

>collision 40.0
29.0390261033211 3.71248
30.0326979298709 1.54501
41.0386374898316 13.9337
42.0344764596915 6.54341
43.0174377273397 6.62643
43.0549099575936 19.0984
44.0485960943364 4.84212
45.0340714267366 0.90524
46.0284457280428 4.17656
53.0393084269357 1.34688
55.0549658462432 25.6293
55.2989221654254 0.684102
56.0504472929167 7.14105
57.0342161265529 1.98865
57.0706522852465 21.4433
60.0454790529094 100.0
60.9280272031724 0.620947
61.0275028408406 0.678224
65.037257822419 0.638434
67.0539616426044 19.7619
69.0698851450731 10.5479
70.0664395710616 8.65552
71.0498523757174 5.33276
71.0891194023708 2.01189
74.0593633345252 2.1196
79.0558536383364 5.35523
81.0708438893253 17.447
83.0838382115468 3.5578
84.0809485983135 0.777559
93.0692295830393 2.11839
95.0854266508761 12.1196
104.902108992106 0.80609
254.283723854405 4.87328

