>compound clemastine
>formula C21H26ClNO
>parentmass 344.177259208031
>charge 1

>ms1peaks
130.122504579899 22.3421
130.263434066664 0.996908
179.084967065343 0.607329
180.092871521312 0.793193
215.062007420574 31.7909
215.247229780516 1.28629
344.178406635757 100.0
344.40954693938 7.64588

>collision 10.0
103.054013689017 1.04906
130.122612640062 45.1712
130.263455433678 2.65944
137.014710170898 1.58695
165.069415908773 0.835993
179.08488746156 2.15129
180.092828058442 2.33869
215.062623625059 100.0
215.247200080565 7.63067
216.064803227516 0.530761
344.177259208031 17.7202
344.409470998442 0.524672

>collision 20.0
102.046642836702 0.511227
103.054117991836 2.98317
130.122425752029 20.6502
130.263423720993 0.940019
137.014799433817 4.66842
165.069783193929 2.05254
178.076533609436 0.745256
179.0848397934 5.9993
180.092668513797 7.43115
215.062818660679 100.0
215.247179015732 8.48082

>collision 40.0
44.0506018127171 3.88641
51.0237155347345 0.847458
58.0662432601258 0.786963
75.0234868178883 1.67742
77.039020289844 5.47639
79.0547259452082 0.881548
81.0702592362876 2.72878
84.0808666705956 1.76866
101.038750037778 8.54274
102.046453409032 15.946
103.054253207355 66.0615
103.1791346921 2.76193
112.111359072958 1.78335
130.122339433824 24.075
130.263448771269 0.74306
137.014947890779 91.7324
137.158472671889 4.06412
152.060849951921 0.628312
165.069596161217 56.8008
165.232575442779 1.82769
166.074152014555 0.511045
177.06913926881 1.1901
178.076997853786 21.6701
179.085090587833 83.7428
179.249049926369 2.92446
180.092968290975 100.0
180.258409078525 4.60099
199.029911030332 1.5646
200.038531527675 2.45148
213.046022297639 1.06253
215.061988036333 60.5516
215.247288766726 1.82101

