>compound Crotamiton
>formula C13H17NO
>parentmass 204.137550011504
>charge 1

>ms1peaks
204.137077258113 100.0

>collision 10.0
136.108417581917 45.8961
204.137550011504 100.0

>collision 20.0
108.075308073009 100.0
204.136223549075 81.3117

>collision 40.0
106.064283569295 100.0

