>compound Naloxone
>formula C19H21NO4
>parentmass 328.155869591073
>charge 1

>ms1peaks
310.143905355225 6.48702
328.156377343095 100.0
328.377681204088 8.45098
328.604632089854 0.517842

>collision 10.0
212.070491798643 0.588342
253.109414248723 1.90413
268.132410689051 1.48318
269.103928417893 0.633346
310.144026904333 29.9156
310.35908529407 1.19588
328.155869591073 100.0
328.3772847318 8.01285

>collision 20.0
96.081042454243 1.65861
161.059601652783 1.10881
173.05933760469 1.25938
181.065086948039 0.920521
199.075457985849 1.26973
212.070731933471 3.24874
213.085659551983 0.93963
227.074628387789 1.93668
251.095611252346 0.84894
253.109580324578 10.4728
268.132794405763 8.08786
269.10487594444 3.48191
292.132926585966 0.826518
310.144897501514 100.0
310.360235477004 6.00518
328.154939274593 47.1206
328.376494961099 1.94754

>collision 40.0
41.0394556281319 8.02852
153.069402078037 9.72303
161.059541870975 18.4236
173.05945313793 7.8661
181.065797594971 13.7646
183.071686734748 6.61055
184.062380802139 10.2142
185.060062289186 12.0152
199.075253534657 12.7622
211.07050062459 11.6039
212.07099080014 100.0
213.08428758015 9.98925
226.085969140084 18.5901
227.087315877523 11.0265
240.102795858365 9.51898
252.101380054765 9.12436
253.109728066332 32.434
268.131250655977 23.1947
269.104609983937 10.1743
310.144449812035 18.4529

