>compound cyclobenzaprine
>formula C20H21N
>parentmass 276.174138152869
>charge 1

>ms1peaks
231.117636076151 0.692172
276.174279397423 100.0
276.322488855355 5.65715
276.385758719946 2.51267
276.485841523302 1.27063
276.527268022284 1.35226
276.582745661568 0.919756
276.647254838747 0.836237
276.686429065585 0.833667
276.73214191495 0.778497
276.840934807437 0.662671
276.914502712941 0.595111
277.003821772853 0.51008

>collision 10.0
58.0663598495609 2.52572
84.0817948021473 1.44638
191.086395753915 1.80627
205.101999141254 1.14155
215.08624729035 1.07367
216.094241667697 2.35574
231.117933749442 6.96931
233.13301056307 0.652015
276.174138152869 100.0
276.323227550052 5.74008
276.385456566715 2.46247
276.486617142251 1.21759
276.527545565725 1.35927
276.583959299886 0.874858
276.647518603294 0.804512
276.687399694398 0.814937
276.72592888743 0.755767
276.810126712253 0.661211
276.843834718048 0.626856
276.88740583786 0.603918
276.969841124853 0.516704

>collision 20.0
42.034547559592 0.574406
58.0657996206188 41.905
58.1358111603624 1.52664
58.156437614123 0.570821
72.0808540992485 0.768858
84.0809775529233 34.7324
84.165536286701 0.98728
85.0883710915367 0.593286
91.0540920746735 1.83508
98.096210525538 0.688487
103.053902150132 1.63197
105.069379248555 1.62664
115.053562031261 8.16666
117.069310497734 4.54623
129.068794633125 0.762469
153.068779898528 8.46711
155.084362879351 1.99754
165.068805143236 0.543675
178.076159159766 0.960586
179.08458097538 0.992332
190.0760143503 1.02467
191.084350973926 27.3735
191.210420932143 0.67619
202.07613320695 1.96981
203.084104383867 5.94071
204.091798427434 1.76077
205.099967849759 32.6721
205.230607391073 0.810078
215.084283669565 25.4808
215.217819155362 0.634425
216.090416920967 78.1197
216.225863941267 3.00495
216.26925099291 1.41985
216.334623919542 0.52903
216.369821214148 0.511239
216.404748416841 0.522706
228.091684489986 0.637256
229.099679812415 10.0714
230.10716865222 0.943541
231.113382777469 88.101
231.253366473833 3.72497
231.301178810942 1.49812
231.367941117098 0.606061
231.401921700935 0.560401
231.43833284302 0.603247
233.130691562687 3.95784
276.170976046925 100.0
276.323624594786 4.19131
276.377008239037 1.79112
276.4448364507 0.672402
276.486258457849 0.638136
276.526416019639 0.722586
276.601174859774 0.526665

>collision 40.0
42.0351080763897 2.3097
58.0663706619039 10.5897
70.0660253781002 1.52527
77.0395965240408 0.843039
84.0817607446897 11.1857
91.054894146677 0.989257
103.05498855633 2.40665
115.054873056825 9.52278
117.070525653902 0.561613
127.054845027763 1.64228
128.062326297238 0.545441
129.070339902654 0.774605
152.062146367936 2.17143
153.070301095995 6.85693
165.070229572386 2.44009
178.0782804133 3.76978
179.086046831221 0.759293
189.07036341677 3.37141
190.078200207426 5.66275
191.086224568694 13.8049
202.078253665862 8.17177
203.086157040648 9.30432
204.093948631948 6.75871
205.101955665204 4.43706
213.070830855532 0.62646
215.084450533959 100.0
215.21783648246 4.88073
215.2655279935 2.13552
215.32601287454 0.853782
215.361472433634 0.78166
215.397277152781 0.887595
215.443367722229 0.573499
215.505755763667 0.537709
215.568294480785 0.534127
216.094226495377 29.0651
216.226252540294 1.20405
216.27308522883 0.625374
227.086443494542 0.559976
228.094014670093 5.62585
229.101984684653 4.62034
230.109694166181 0.725418

