>compound cyclopentolate
>formula C17H25NO3
>parentmass 292.19133620653
>charge 1

>ms1peaks
72.0809950869646 2.03099
274.178852206529 3.89422
292.190929322514 100.0
292.405943559043 7.62784

>collision 10.0
72.0817505504205 36.3396
72.1863133022758 1.10727
90.0920830065392 3.62516
91.0549065229125 0.841757
129.069871506052 1.06824
157.101184454352 3.30871
163.07521576315 1.1446
208.13367549474 1.1441
229.121834478291 3.22747
274.180410337644 53.5836
274.384461389198 1.59832
292.19133620653 100.0
292.407866020123 4.94158

>collision 20.0
44.0507766930336 0.678191
67.0553960844986 0.527998
70.0665205013048 0.636752
72.0820282516407 100.0
72.1870623395975 4.40597
85.0655341159813 1.53756
90.0923501527633 14.256
91.0550404065508 6.65383
115.054173701384 0.724046
129.070250724974 9.8361
157.101523962109 20.5243
163.075769164249 5.32283
175.111852027853 0.79867
185.096076424635 1.06799
208.134143868772 0.691059
229.122541738717 10.7594
274.180691623481 23.0982
292.191735280094 3.46551

>collision 40.0
41.0395450433103 1.15592
42.0346094337205 2.39352
44.0502671034333 5.57659
45.0346202580376 0.697181
56.050516545647 1.04162
57.0621913803296 2.26813
65.0392545887921 0.960041
67.0547205458132 8.15907
69.070166366575 0.938289
70.0657351506282 4.83979
72.0812899617032 100.0
77.0386981424228 0.570496
79.0547310879777 4.09288
85.064815754507 7.4928
90.0914791767802 9.01011
91.05431402099 53.4416
91.1726984077088 1.62109
107.048488968454 2.13596
115.053870496229 6.22767
116.06113007479 1.22375
128.061136430917 1.7476
129.069409562611 42.6848
129.210451306889 1.06858
141.068942810635 0.502938
142.076862975431 2.75822
157.100563018918 7.17439
163.074896293195 2.65409

