>compound dexpanthenol
>formula C9H19NO4
>parentmass 206.139716646586
>charge 1

>ms1peaks
76.0763905951002 3.33577
102.055950931797 0.771101
170.118458432124 0.694478
188.126735805896 1.63265
205.193902873861 1.26707
206.139348401284 100.0
206.321262681522 1.60853

>collision 10.0
44.050494860893 0.66221
46.0305129078759 0.966303
57.0688889515741 0.612899
58.06631409041 4.55023
59.0507733277328 0.595776
69.070582726017 3.16997
74.0238624447376 3.83309
76.0758954708141 41.2291
84.0449194953112 0.953937
85.0655092030999 0.979863
86.0620563365336 0.981059
95.048126795439 1.23748
97.0637689272049 0.524568
100.112910332337 0.57506
102.055357713056 11.29
103.076451843279 1.64852
116.107208358967 1.79178
126.09216226026 0.573167
133.065113963378 1.10749
152.103947888483 0.864719
158.119970067356 1.15392
160.130255388224 0.708121
170.117622308848 8.43957
188.12729080241 18.9531
206.139716646586 100.0
206.322352946174 1.25826
206.412451933519 0.53681
206.643612195445 0.68077

>collision 20.0
29.0412323530178 0.838449
30.0341817827684 0.735534
41.0386100337241 4.88503
43.0185406936175 11.6567
44.0501305667976 2.29403
45.0337483291004 2.20599
46.0295238056733 6.64306
55.0554095215657 0.762825
55.3695774547552 0.502599
56.0145067588103 6.7269
57.0707622495307 9.90519
58.0662019596165 36.2503
58.1630834815317 1.39911
59.0499255742802 10.9927
60.8329770072006 1.1517
67.0553043838287 9.45524
69.0706291418638 11.7131
69.9807589686638 0.570296
73.066408042541 1.15694
74.0236882535447 15.6565
76.0761798191239 100.0
76.1829973654394 2.24802
76.4231626866436 0.587797
76.7539944960728 0.545994
83.0541401601262 1.34421
84.0439253069183 8.30247
85.0654210323464 11.1402
86.0581452972008 2.66298
86.0953753238666 1.72389
95.0485704614607 9.35497
96.0677110397863 0.871409
98.0954856268708 0.740231
100.110840168312 2.7672
102.054611496855 14.9348
103.075180662534 6.26674
105.069234870503 4.33667
109.097889000244 0.563634
112.073556054009 1.65385
113.059189952096 3.96513
114.09053192651 0.987661
116.106866345388 2.6652
124.075575892559 1.79612
125.013972594455 0.562861
132.081862603491 0.785476
133.064180421497 2.69222
141.089925415028 0.545936
142.123670529 1.36598
152.105835560167 0.889101
160.129930871338 0.772824
170.11607506893 9.97492
171.888248646107 0.551841
188.127526744326 14.3972
206.14538160429 8.78627

>collision 40.0
29.0402671958333 6.5064
30.0343404713882 8.1089
31.0181187282264 11.1832
34.025034437912 1.84897
39.0226374096588 2.3779
41.0395667788321 100.0
43.0184674405731 35.8382
44.0504286485594 5.54058
45.0351977065608 10.925
46.0295202546029 12.1609
47.009734796162 2.90592
53.0407633100019 1.88001
55.0143382914075 1.86106
55.0533430617409 17.4991
56.0141629393511 76.3462
56.0470256758046 3.27977
56.1046326447309 1.33617
56.1872607775719 1.29858
57.0696979041605 25.4383
58.0659578346965 84.2458
58.1632712187483 1.80832
59.0512223853998 18.3694
64.9490251358619 2.60961
65.0388436908492 17.6292
67.0543695299654 51.4402
69.0701007755484 10.095
72.081226078809 8.09996
74.0241934707507 3.21938
75.9813479717523 1.6941
76.076147823752 29.2764
77.0393627218102 3.61338
79.055371845564 2.59425
80.050047774618 3.6892
83.049092602657 2.07456
84.0430896257074 9.60968
91.0479910975033 1.51112
94.0676491559823 3.68183
95.050320876825 9.70961
100.114024012571 1.84707
105.062773075863 3.36739
124.106631397122 2.11129
130.061963180661 2.07936
158.09379384209 1.40642
160.110680259272 2.14667
162.099032351531 1.33197

