>compound carbinoxamine
>formula C16H19ClN2O
>parentmass 291.126492800072
>charge 1

>ms1peaks
167.071968067218 0.985196
202.041377095545 8.2477
291.126819772625 100.0
291.33635438185 8.2142

>collision 10.0
72.0815467162998 2.38846
88.0764674898421 0.949494
167.072747172492 7.75954
202.04289723796 100.0
202.218850769108 8.08443
246.067807397094 1.55308
291.126492800072 75.0988
291.336433484535 4.28491

>collision 20.0
72.0810053507864 3.98773
88.075804631925 0.592468
167.072091223204 37.6475
167.229468243493 1.66793
202.041988900052 100.0
202.218764423248 8.53544
246.066828353262 2.00681
291.123986472123 1.02531

>collision 40.0
72.081281298812 3.40229
166.064413075476 1.39134
167.074084649124 100.0
167.232167301087 9.17051
202.041273761228 5.05961

