>compound Phenylbutazone
>formula C19H20N2O2
>parentmass 309.16031608666
>charge 1

>ms1peaks
230.957931943833 1.62849
308.971466143578 2.32496
309.158781983129 100.0
309.381375231354 0.795077

>collision 10.0
94.065275307301 0.525511
130.066643902787 0.506894
146.059270361315 0.975291
152.944102740831 1.11148
160.112180125837 8.6422
162.128473805863 3.0222
172.111600237537 0.809988
174.053343601397 0.697007
188.104807983641 2.14897
190.121210092988 1.58151
211.083833280761 0.601995
230.957320686023 4.17425
281.166640823736 0.863816
309.16031608666 100.0
309.381789530173 0.800625

>collision 20.0
25.306014943216 0.628581
41.0398636410743 1.18607
43.0558312724952 1.66544
55.0189208114965 5.11001
57.0715236419884 1.10354
67.0540315497084 1.38786
69.0708343878505 1.82125
74.9335055911269 0.675883
77.0397006401589 2.34689
79.0236141592165 0.727486
79.0573595294286 1.00656
91.0543981080596 0.818652
92.049415025508 1.90818
93.0582247245174 1.65966
94.0660343443537 9.51288
95.0493651643514 4.19816
97.0651672923967 5.76688
101.00233608654 0.615283
104.049935209413 9.84521
106.065746012382 9.02382
118.065294492795 4.07909
120.043570837673 6.78462
123.045190720959 1.23196
128.055364321661 0.664417
130.065327837232 6.2114
131.073483157429 2.82952
132.045667341482 6.66179
133.050660883375 0.87386
134.060570988948 6.52079
136.974638243307 0.846642
144.07851391234 2.08096
145.098317638719 1.90363
146.059950574058 10.4273
148.111698722017 1.02546
152.945564764455 15.2594
160.11227507117 100.0
160.270853585218 0.948417
162.057609303663 2.90399
162.127580455342 33.3464
170.094119277564 0.772725
172.112183229452 4.90483
173.122612564501 0.563426
174.053313607994 8.44957
180.077262713605 0.631144
181.134240598147 0.523971
188.105600056448 9.90411
190.122403261981 12.5001
198.089886990625 0.633586
206.113046406555 2.2005
208.100310288422 5.60345
209.110595677251 1.05029
211.087746830996 5.02556
216.104353495125 1.3779
230.961521272275 1.42645
231.995872430612 0.685865
233.012922925736 0.646183
234.074624101659 1.13938
235.093062764957 0.735258
265.168708980531 1.35533
281.164193859826 2.87695
291.14607195322 0.581666
292.0722352974 1.24385
307.253431516252 0.636481
307.931198134312 0.830133
309.160457853887 65.5726
309.327989644693 1.02325

>collision 40.0
41.0394232082458 21.7637
43.0199196660145 0.9418
43.055706166933 2.409
51.0234861653813 1.52838
55.0181115277047 48.5292
55.0535996942694 3.06911
57.0704903921528 25.813
58.9609901820712 1.71717
59.0460482973731 0.909177
65.0381571805558 3.35528
67.0545021330819 11.267
68.9842083745318 1.05977
69.0702913736654 7.5261
74.9322028429509 15.0621
77.0380993031323 100.0
77.1469662890137 1.56339
77.6207333686543 0.746135
78.0440023580122 2.42143
79.054185004549 10.0944
82.0638342064107 1.07967
84.077444755841 1.27366
91.0537267627921 3.93884
92.0499276175737 31.6733
93.0582567061727 6.04872
94.0644913273111 37.953
95.0470672384375 5.52215
97.0649514870537 5.10614
101.036607501357 1.1164
103.052661305809 0.899371
103.986584470748 0.925421
104.048851946869 93.9499
104.173346606071 0.88532
105.034006500162 5.46564
106.064816372613 66.1554
106.192250589215 0.924606
107.04352055595 1.63258
109.066093760618 0.737043
115.053625028837 1.87011
116.048090009566 1.6902
117.058347865021 5.10291
118.064583430439 21.8138
119.0725419864 4.28427
120.04360732265 10.3967
120.081697464168 3.50606
128.050999244854 8.06113
130.064884079376 41.1129
131.070211209597 10.9797
132.042483345939 10.3314
132.078669288776 8.43898
133.051907843794 9.77318
134.059958760131 6.0157
134.099703992193 1.0499
137.920426910367 1.59433
142.068530564293 2.27739
143.077587799611 2.4106
144.065083388702 6.71386
145.091239183905 7.36188
146.058469687402 13.9118
148.108905059166 2.34486
152.94333873291 12.9654
155.068340495624 1.10964
156.046122930317 1.74504
157.084691623644 1.47936
160.110894829516 61.7293
162.054501337001 3.70589
162.128567603361 8.0416
166.071446116511 1.05977
167.069985265091 1.07252
169.074912601755 0.766987
170.094414019271 0.862347
172.114672505029 2.84863
172.820652716591 0.749971
174.053167846842 9.66017
179.079334487343 0.908501
180.075947927529 1.75378
181.08333211977 0.795293
182.08023433421 4.15798
183.088014709971 1.64178
188.104582289686 1.46883
194.062523231795 1.59911
195.08854331277 0.775092
207.091133775718 5.01588
208.096801023811 5.56712
211.087835777129 2.44554
219.093718094415 1.11279
221.096782731543 1.4814
232.000157688214 0.72408
233.00226519878 1.15584
239.06982321047 0.842635
247.018688530196 1.0608
309.321227741672 1.5133

