>compound L-Cystathionine
>formula C7H14N2O4S
>parentmass 223.07378100135
>charge 1

>ms1peaks
74.0975610014823 0.550496
88.0209441891755 1.07768
134.025691055152 6.33622
223.074215268956 100.0
223.206622653091 1.80612
223.244539880969 0.820552
223.281872747615 0.592805
223.339988921957 0.504684
223.780115214217 0.514803

>collision 10.0
56.050393312957 7.19514
74.0971105408543 0.799283
88.0215623451407 17.2336
88.1094208566285 0.652244
134.026193187138 100.0
134.102872647593 1.87256
134.133587859071 2.01401
134.163112784093 0.826636
134.197282382841 0.723016
134.273095370959 0.656076
136.035305232066 0.655857
160.041599525123 0.751712
177.067738212268 1.67155
223.07378100135 36.578
223.210628088715 0.596251

>collision 20.0
56.0499737901123 8.81764
56.0854752051426 0.545568
74.0954453305985 1.50838
84.043959356551 0.82514
88.0214792640063 100.0
88.1052568007874 1.58931
88.1385677670359 0.72725
88.2218568424923 0.551492
88.2810958911687 0.505496
88.3815962948834 0.630183
90.035253131317 0.552289
134.026275357773 63.0336
134.104932183867 1.28244
134.131358200593 0.916438
134.28477776549 0.542664
134.53037419717 0.57741
134.933349435692 0.623153
223.072239526414 1.08067

>collision 40.0
54.0346747601291 0.678253
56.0494128786317 10.4495
58.9961396628951 0.524912
61.011163408839 5.72986
62.0068462258762 1.6792
74.0216557229204 0.991046
74.0955784359473 1.18687
88.021946945281 100.0
88.0901445342697 1.44837
88.1082864750405 1.42045
88.149874914691 0.675365
88.2099759563712 0.658851
88.2931885143924 0.589634
90.0330816040057 0.564152
134.027310401083 0.993854

