>compound eucalyptol
>formula C10H18O
>parentmass 155.142896011919
>charge 1

>ms1peaks
39.0248371056054 1.23268
41.0397806082469 1.8709
43.0535882166926 1.07996
47.1446395087638 1.29092
57.0727622858383 2.16538
58.0755592955483 1.58638
63.9987367798256 5.13503
68.0511602153197 1.1977
69.0703847931053 2.38141
71.0862294938928 1.4302
72.0800555511807 1.52402
74.0969728066761 2.53349
76.0050091670838 1.51464
81.0707667205449 100.0
81.1350693177323 2.90065
81.1758151577115 1.90645
95.0848504106863 8.81454
96.0682454184118 1.49903
109.631860627931 1.10539
137.132696746318 64.5978
137.216477942026 2.02677
137.239290494408 1.35315
137.269903775098 0.946752
137.568222845655 0.936604
154.158115774085 5.12191
154.537438604823 1.02797
155.052529448399 2.21272
155.142896011919 24.8716
155.215890852971 1.13853
155.256788382173 0.992059
155.444437548141 0.948808
155.50328816943 1.27413

>collision 10.0
41.0390755295326 4.44861
43.0534064845603 2.27353
46.9939861320304 1.74083
48.9746173249508 1.3123
53.0400585955587 2.40733
55.0145230241661 0.837325
55.0554234102763 4.05655
57.4868214466475 0.960277
58.0640391559447 1.3279
59.0354307182587 0.873017
61.0136924737945 1.11859
62.0190229032019 1.1792
64.0006367454075 5.96294
67.0546944019688 2.61025
69.0696345951455 2.73163
69.0932511651127 1.1063
74.0975838794048 0.966638
79.054488815831 15.5776
79.1011279211212 0.808946
79.8178042030215 0.881672
80.0196576917286 0.977787
81.0703758607836 100.0
81.136048224373 1.81463
81.1758137821749 0.937652
81.3398427352774 1.00732
81.399027837045 0.895954
81.457003773333 0.820278
81.543223412402 1.04627
82.077422863427 0.796608
83.087383682353 0.910808
84.0868621519357 0.988003
95.0863411209044 7.3642
137.132005450885 41.0051
137.191904426346 2.08634
154.153480727087 7.27595
155.145184114177 1.6563

>collision 20.0
30.9986464644749 1.15165
41.0396675973082 13.3699
43.0165217864958 1.13602
43.0562509908073 2.42753
46.9970621148513 2.57115
53.0403920287368 4.25878
55.0560266679847 8.35228
57.0703410253082 0.901911
58.0652281685062 1.45452
59.0501042944554 1.31943
62.9904380864383 1.40986
63.9980137998876 10.2307
64.5608776355546 1.22387
67.0546387268741 7.71586
72.0820341298561 1.59526
74.1004943285912 1.29815
77.039163242976 1.63899
79.0552915229583 27.258
79.1202352755448 0.829025
81.0698684110752 100.0
81.175377174854 1.07029
93.0705578431836 1.854
95.0859559394878 13.1417
137.133555024429 3.83907
154.142995018862 1.05239
155.107395299365 1.20687

>collision 40.0
39.0256635511983 8.58436
41.0393793273198 100.0
42.0329946020301 16.2089
43.0554871209295 10.3272
46.9959003510894 15.996
53.0396648939125 45.5063
54.0339809824254 8.08181
55.0553726627481 38.2423
62.9939288721822 9.40517
63.997519237085 38.0336
65.0395911334367 10.6614
66.0453629843803 6.4862
67.0524707353824 22.1254
68.0510046083084 12.2305
77.038677240691 17.8521
79.0560048186118 68.4476
81.0173407448484 11.8374
81.0702001789538 74.4122
119.232347509812 5.68669

