>compound fenoldopam
>formula C16H16ClNO3
>parentmass 306.088711313864
>charge 1

>ms1peaks
107.048456044939 0.598751
306.088375651767 100.0
306.306003664036 2.27717

>collision 10.0
107.049026970908 5.25512
136.075159582609 1.11563
157.004069574998 0.817941
171.020609936255 1.35637
195.020374231957 1.85324
212.046364364539 3.58614
289.061888713807 5.02664
306.088711313864 100.0
306.306050996839 2.30941

>collision 20.0
77.0397094258468 1.02754
91.0558315457104 0.906822
107.049587292746 100.0
107.176785700542 1.69164
119.049924495818 0.965767
121.065420343586 2.16274
125.016540893445 3.0088
131.050231090063 2.76449
136.076256248814 18.8913
145.064746604199 6.3276
148.070969709193 0.59477
149.01296429527 1.11951
153.010013381929 1.20971
157.004926976039 10.5489
159.043997481983 5.46437
160.051818252233 3.16178
171.021410074114 26.5924
176.07132481287 4.93456
177.010856591945 6.4549
177.078353369609 4.3706
183.021344174487 3.23744
195.020938517838 28.7918
198.031130214326 4.95847
200.04480223182 0.646737
207.080537293718 1.63974
208.088813536878 0.806968
212.047730593582 28.079
225.093802744293 0.954846
235.076674881613 2.32864
236.08351614241 0.750275
239.071886521541 0.863125
243.058644693753 0.525655
253.085412832792 8.88272
254.09414445963 10.8441
270.111244752588 1.29698
271.051265906594 1.78207
274.03766340837 1.03287
289.063107284447 32.9051
306.089337311982 90.8141
306.306239614959 0.841914

>collision 40.0
51.0236220121751 0.816441
55.0186185978101 0.813792
65.0394520470775 0.57183
77.039463967593 8.56039
79.0543909337454 3.69392
89.0385749662774 1.39856
91.0545565616961 5.71728
93.0704691595286 0.709694
102.046061291721 0.69713
103.053881426374 1.51078
107.049048454645 100.0
107.176773364181 1.97189
114.046795245046 0.997075
115.05365187653 0.728654
117.065073545865 0.945696
119.048739674899 1.80403
121.059560814057 1.29134
125.014899810668 16.3136
127.053126040729 1.88763
130.062079952484 0.94164
131.048746481237 8.1567
132.056150496061 0.6664
135.043632225842 0.621297
136.061546201456 3.0604
137.015256486476 1.44686
145.064205426912 1.47589
147.043406754351 1.54732
148.061457669961 2.47127
149.015223448135 7.93809
153.009542678047 3.95061
157.004336031723 3.92821
159.044383033881 2.41741
160.051272506136 9.49186
162.053512726179 0.775157
165.010147981359 2.06471
165.070886717564 1.07887
171.02050052771 7.60427
176.068794956827 2.76571
177.009639404086 6.62068
177.076844343267 5.59555
178.075432186954 1.53445
179.083354868805 1.43031
181.064811246764 0.970968
182.073079358774 1.05884
183.019408414823 1.41206
183.078414040318 0.639523
189.068619577745 1.15607
195.020964757304 2.05281
198.029253098089 2.45061
207.079971121978 4.76626
208.087373979466 3.77152
210.066879610432 0.828621
219.077563351771 0.547059
225.090207876864 0.589656
235.076533311066 1.69613
236.083086475814 1.84838
237.090953325032 0.868728
239.069310360764 6.04491
253.086398085112 0.973545
254.093210871247 2.56007
274.037857587308 0.660715

