>compound guanabenz
>formula C8H8Cl2N4
>parentmass 231.019998069774
>charge 1

>ms1peaks
213.996844108616 0.650504
231.022800520954 100.0
231.159114537728 4.40175
231.209800144353 1.95585
231.273313975867 0.738608
231.345136122929 0.779768
231.382295485432 0.540077
231.425914424572 0.519869
231.491464231515 0.512035

>collision 10.0
85.0521170864288 2.67797
171.972999865772 3.09727
188.99946393538 0.687292
213.9953118949 12.1462
231.019998069774 100.0
231.159388447394 4.56528
231.206158238167 2.01099
231.307583472333 0.623837
231.344348961102 0.75944
231.397396171001 0.502541

>collision 20.0
43.0308757711508 11.4432
58.0419230649111 10.7839
59.0497898598597 6.14464
60.0574919619594 5.83068
68.0260486067644 0.552135
85.052919619691 15.4225
100.020525860228 1.02599
108.98550737976 0.543416
135.997174011286 7.56973
144.963322379739 2.33571
145.971501561573 0.817259
153.024029760517 2.43643
158.978971757122 0.624762
171.974746727659 99.1123
172.093145906518 2.64444
172.131720401712 1.03208
172.982620126377 8.27428
179.027406138124 1.55205
186.985486539945 2.43836
189.0017179662 10.132
213.997483148895 100.0
214.128634957911 2.60057
214.171578367962 1.03184
214.208953137018 0.57862
214.30777730694 0.510992
231.024372501279 46.3171
231.159509612159 0.881351

>collision 40.0
43.0309576702125 44.2129
43.0909189978691 0.952294
58.0419020759146 11.2564
59.0497032977906 17.1037
60.0576755282215 3.58207
61.9807737288843 0.947876
68.0255971643686 0.808938
74.017218360396 4.26727
75.0247192844649 1.65243
84.9858170580545 0.768266
90.0355644949764 1.77156
99.0093387869332 1.72552
100.020386055331 58.2849
100.111785496859 1.01136
100.139346439767 0.509408
108.986242408567 34.4703
109.081042292944 0.610654
109.992681964307 0.72528
111.001965087191 1.10339
117.04671153315 1.78081
118.054324644115 1.76142
123.002688475677 0.511247
123.999878694805 1.14327
126.013744026675 0.89279
132.962790257097 0.548864
135.99746916199 100.0
136.103345010392 2.15834
136.135831882744 0.912347
137.005476854526 1.74126
144.963471284489 45.8654
145.072745300503 0.745771
145.971212844628 8.77741
152.017282761323 0.560762
153.024047606162 3.90907
158.979059378849 3.21118
159.974635325088 0.700188
171.97472526969 78.709
172.09302192146 1.58476
172.131304681802 0.652371
172.982795963962 1.92626
189.001130103235 0.666794

