>compound Acebutolol
>formula C18H28N2O4
>parentmass 337.212105918473
>charge 1

>ms1peaks
116.108573408655 0.805203
319.20643160828 0.560028
337.215893287889 100.0
337.37484330438 5.66184
337.454986511717 2.57711
337.60442951533 1.41501
337.669393636035 1.04943
337.78001870652 0.959422
337.821350357308 0.904485
337.87245631499 0.828666
337.949078183457 0.762614
337.996011024538 0.730176
338.09471383192 0.63568

>collision 10.0
56.050470679765 0.698502
72.0814706636076 1.11131
74.0608230439872 0.551253
98.0969748577261 1.43773
116.107456326296 5.27431
260.128916531305 0.871963
319.203344800935 4.848
337.212105918473 100.0
337.375800781252 5.79602
337.454564462856 2.82781
337.557504420096 1.32345
337.602436724733 1.53477
337.664864462605 0.991827
337.736447159965 0.933847
337.779155855317 0.92393
337.829872121958 0.874176
337.952903132487 0.700909
337.995998519832 0.678241
338.043967192985 0.624994
338.124672540296 0.533352

>collision 20.0
43.0556011647314 0.528055
56.0511512084342 12.6059
58.0667801065512 0.691865
72.0824281858414 20.4863
72.1600487029134 0.660511
74.0616440719378 10.7201
86.0979045267943 0.596741
98.098186150086 21.4052
98.1885932043308 0.687874
114.093071211409 0.85153
116.107466645251 71.6463
116.205889087138 3.24408
116.238770665772 1.46458
116.337230332546 0.510524
148.077346649673 1.0021
180.103916205811 0.630278
218.120375981584 5.12369
222.115265921687 2.00461
230.119962626408 0.521778
234.115491078527 0.53433
248.131501842114 1.11959
260.131978902119 11.618
275.179245716621 0.544532
277.165121468934 1.1463
295.185385599516 0.639866
319.206902676198 21.4953
319.365311147509 0.595055
337.214934254013 100.0
337.376605926473 4.72677
337.443195919254 2.04486
337.560226768511 0.871637
337.604664643877 0.929636
337.67761287955 0.681278
337.779078742179 0.650608
337.823841240718 0.588889
337.876820375373 0.550265
337.953426138433 0.540267
338.006238159214 0.502542

>collision 40.0
28.0188330793749 0.978633
30.0344228472118 4.72124
41.0400779983154 1.44659
42.0351684319634 0.7044
43.0192593708926 1.65748
43.0557934118899 12.6578
44.0509373076857 2.99073
56.050312785824 100.0
56.1194263238635 3.84466
56.1408341061261 1.74394
56.1770570903644 0.548973
57.0352973128988 1.20782
58.0667330474982 5.81833
71.0510329457512 2.69784
72.0462358888827 0.655454
72.0825015066544 47.9192
72.160127075302 1.53186
72.1841220278384 0.604262
74.0618339766836 52.0047
74.1408264482891 1.65112
74.164219219521 0.692803
98.0980574890009 15.1643
100.113543016361 1.4716
106.066429983202 0.931355
110.061654926576 7.46207
116.108742080995 43.8529
116.206169282144 1.17437
116.239092011125 0.501591
120.082345876207 6.39778
122.061333656692 1.28972
122.094157605888 0.507083
130.066940703548 1.13346
134.084336533065 1.1061
136.077566100417 0.864594
144.082518983571 0.806665
148.077602801427 11.1483
150.092606784849 1.34604
152.072570530578 0.708551
160.077596397148 2.79237
162.093357133299 0.672235
164.072359564525 0.648704
180.10416804648 5.92271
218.120510457504 4.11583
222.114993353691 1.29645
230.121290559176 0.717248

