>compound guanfacine
>formula C9H9Cl2N3O
>parentmass 246.018770572894
>charge 1

>ms1peaks
60.0563865873053 2.65119
245.264030541661 0.87618
246.019262749549 100.0
246.211268050478 3.8566

>collision 10.0
60.0563752921805 53.7543
60.1528525226694 2.19834
61.0403712273641 2.04729
158.975308028068 4.9834
203.997406480486 3.29019
245.266035304958 1.6304
246.018770572894 100.0
246.211081020762 3.04579

>collision 20.0
43.0303248970724 1.67117
60.0564013932818 100.0
60.152855951273 4.4989
61.0399435769539 1.74459
158.975698887076 29.3593
159.131243156925 0.509858
203.997217821826 5.58373
245.267219447388 0.528467
246.01927336233 4.05397

>collision 40.0
43.0299707629778 18.2367
43.1130393780542 0.635361
60.0562670541559 90.3913
60.1528527069614 3.33526
63.0238253344093 0.763802
72.984738370058 0.546231
89.039117130891 4.2814
98.9996728987978 3.0379
122.999540593174 12.2553
124.006638356844 5.82147
125.014346647893 0.686001
132.960189991103 1.71627
158.975637942113 100.0
159.130930145699 1.85258

