>compound LTB4
>formula C20H32O4
>parentmass 319.225502827366
>charge -1

>ms1peaks
39.0756267199233 0.606527
79.032683277648 1.32267
83.0445419517695 0.632838
87.0442570674925 0.695101
105.070734290277 0.823436
107.085785594825 0.617781
123.113215036614 0.640257
125.057017674332 0.832238
135.118089108787 0.832913
139.077430617405 0.689822
143.063877162976 0.648037
147.117080846689 0.674341
157.099736721582 0.517995
162.968810529519 0.907472
173.120599435172 0.819067
177.16221782254 1.06479
185.111572706633 0.710941
189.089752324868 0.858972
189.162996978634 23.9391
191.102289080564 0.505794
205.1912493916 1.78918
209.113763224995 0.754641
217.120506437112 0.804112
233.150869599259 0.801677
236.9887719777 0.600942
240.986587114398 3.36098
241.056482929395 0.625666
241.170951284327 2.17181
255.19281990322 0.596896
265.184648582318 1.82316
283.206312352909 2.92164
301.217219691945 41.1825
301.371924305875 0.707888
301.438717172643 0.53113
301.953462685975 0.771785
318.222312401553 3.73066
318.310001930787 1.3205
318.651912889767 0.73097
318.777776011152 0.542787
319.007782118234 3.91826
319.22631036484 100.0
319.409457075608 1.14216
319.518029038033 1.1314
319.670264268447 1.1315
319.72647353521 0.561467
319.84878922497 0.789436
319.987128719404 0.636394
320.040528174135 0.615597
320.141497656298 0.967599
320.223405977037 0.872826
321.22340597704 1.0e-13

>collision 10.0
40.7663874668601 0.681334
43.0197940169815 0.932079
55.0192819366486 0.743701
57.0671799179812 2.82361
61.3279495296673 0.750118
67.0535070088933 1.47932
69.0705551751886 1.44622
71.050009908644 0.732198
71.0873468454838 0.894704
77.0421503607042 0.942792
79.0545650342609 1.48249
81.0679740795729 4.10528
83.045386113078 0.75172
85.0631815225853 0.667477
85.0984662425118 0.823622
87.044318229694 2.40049
91.0552882808915 5.13294
93.0669415100635 1.17219
94.0696398330956 0.581568
95.0861746497176 2.02669
97.0646874266868 1.81378
100.049508155942 1.08957
105.069519020394 7.81209
107.086423559837 1.10169
109.102058083933 2.77112
115.037709846073 4.5633
117.071587519509 2.27248
119.084182150178 9.14492
121.054327533238 1.13071
121.100221042031 2.80069
123.115416676379 1.21848
125.058255270049 8.00288
129.070697881822 1.51319
131.087046952993 3.04035
133.101509590418 9.52525
135.078662474284 0.772142
135.115206087776 1.45145
140.132906184318 0.858355
143.074181112036 1.39553
147.089257362442 3.74026
147.168065088651 0.677425
149.131492262359 1.01337
151.070956100038 1.19244
153.130755836952 0.811174
155.10364431198 0.859028
157.092035422408 0.961168
161.087186591606 0.542769
162.974666538263 4.88607
163.107222245657 1.74692
163.165168426078 0.557553
165.093563892301 3.86559
167.090551587808 0.946449
167.139194605733 0.842564
169.101524162829 0.67375
171.103707890136 1.18332
173.128595120569 0.849506
175.149285213745 0.893114
177.168243109916 1.17545
184.493177410921 0.610594
185.101943490956 4.93012
187.146454199671 4.48061
189.086222340077 2.11336
189.162956385073 100.0
189.261832981691 1.84845
189.32455797587 1.21109
189.556068204139 0.571325
189.630628176579 0.757196
189.747300899794 0.640078
191.104172821973 4.70909
193.275736677247 0.570913
197.183985559387 0.624056
199.109020973137 2.81273
201.16639049827 1.69197
203.101379543816 2.81721
203.145202535307 0.671103
205.116794439552 1.35406
205.192778549991 1.3954
209.142246582271 1.5413
213.133486742331 1.78327
214.176178861502 0.68777
215.165442275255 0.547501
217.145387732749 0.677021
222.196091316501 0.571913
227.168930338881 1.14914
229.218206484399 1.13794
231.130921970718 1.19172
233.153892298036 0.695368
235.129955776666 1.42732
237.160079391519 1.34055
239.089955377487 0.749117
239.166167289875 0.987919
240.986344487064 8.62729
241.186088042088 4.05331
241.249898288565 0.585976
241.592467148766 0.600592
241.654408607011 0.596493
242.20293223092 0.856378
245.14869729449 0.929756
255.207808008 2.1124
257.191431468043 1.40585
259.202441647057 1.21817
265.191503243261 5.19016
273.207908666006 1.16064
280.19358421856 1.17114
283.105604411795 0.785415
283.206373511533 14.8222
289.145244821596 0.623819
301.216150098161 56.2938
301.362168175067 1.18127
301.411622666201 0.584238
301.474323224739 0.626474
301.521327075425 0.607643
301.879419691478 0.755781
301.989309039979 1.38634
318.26419865172 3.04373
319.225502827366 32.1301
319.531034162259 0.544598
320.53103416226 1.0e-13

>collision 20.0
43.0179717202147 4.55934
43.0557847654004 3.40954
55.0184312930547 6.19529
55.0550291555987 8.56115
57.0698190600613 6.838
67.0543917128017 16.7405
69.0691573851266 14.0538
71.052506343799 1.36957
72.0895762333978 1.47102
77.0349734899519 2.18022
79.0540565912656 11.4189
80.778586653654 1.29145
81.0697160866257 11.6235
81.6465571556337 1.15325
84.9595254307343 15.8022
87.0445589434772 19.8607
91.0548221771027 44.9916
91.1196018758099 1.19772
93.0708561303094 11.4482
95.0866336429868 8.52822
97.065952312156 16.3064
97.0988103695602 3.14114
98.0662006191402 1.46829
104.062945608609 1.38791
105.070004882753 59.2909
105.167522780644 1.16036
105.27779310806 1.59998
107.085398049881 9.31369
109.062444067914 1.39546
109.10074178155 13.4308
113.058700180158 2.40478
115.039286667045 9.96562
116.081827277165 1.44158
117.069617712024 9.04405
118.948643005101 1.91205
118.977156805246 1.22319
119.084934033988 60.862
121.101667990002 2.49356
123.0820799901 2.28405
123.117598788284 2.45287
125.058837185116 6.79016
127.070155526166 1.38564
128.059867426084 2.10485
129.068526118111 7.43572
131.085098496465 8.29732
133.100573110289 35.5058
135.116241306588 4.22126
139.076619503967 3.31876
139.110592618928 1.43162
141.077774742879 1.27102
143.082905496954 9.94438
145.103394166805 4.06791
146.069094473182 1.09357
147.078571311558 10.3705
147.11650436495 10.5086
149.092881765671 1.39552
149.128229692871 2.53016
153.088840257104 1.57696
155.087481798346 2.34201
157.099238700776 9.14681
159.110381813536 3.40394
161.09450028834 4.07142
161.130983660118 7.45679
162.973075277021 66.3524
163.071937773839 2.74582
163.120392758697 1.77435
163.149223430196 1.57734
165.087971012086 7.20406
167.14658588482 1.67149
169.103099614853 3.42388
171.114074917625 10.9125
173.092568940732 6.57502
173.130877683758 4.28825
174.133828445163 1.11709
175.078487650939 1.50606
175.148108687679 1.82271
181.09754105017 3.86368
183.111248280469 1.82076
185.096755382412 10.1115
185.131516382175 3.90264
185.177882961262 1.12074
187.141902162169 3.4709
189.16308183808 100.0
189.29014711757 1.56946
189.322515723812 1.35601
189.589090553875 1.10206
191.100672321153 4.04965
191.139156951094 1.42269
195.127418973392 1.90201
199.114805866054 9.58751
201.161761088882 1.79706
205.145140016302 2.39528
205.19671765493 1.36105
207.027018247885 2.06531
213.149339559891 4.94485
213.200651678652 1.22567
217.117195576807 5.35836
223.138756276312 1.28216
226.211577730623 1.98874
227.175957146328 2.32581
229.179949116028 1.69007
231.135662430809 5.48836
233.152208392442 1.2498
237.15963439048 1.19598
241.004763983371 2.1127
241.184172802948 6.51014
255.204794205723 2.3879
257.178774823865 2.34274
265.188624903215 2.40387
273.206322619257 1.74803
275.193374635762 1.72002
283.200436863657 5.70947
301.213358795175 17.4007
318.230349302772 4.05262
318.303428490557 2.88007
319.173980983362 16.1841
319.258093793192 1.86315
320.25809379319 1.0e-13

>collision 40.0
40.9710357000547 3.01146
41.0388956219032 11.8553
43.0188531353307 3.94791
43.056015698191 7.11429
45.0342415292483 4.05202
55.0205284343917 9.29152
55.0550815018095 29.0315
55.1252875588322 1.07936
57.0312179596124 2.44439
57.0691854667562 5.435
65.0386798105191 1.40387
67.0547858776796 18.1795
69.070600457084 17.7002
71.0522092370716 5.80332
73.0435558604092 2.05546
77.0394718512326 15.2754
79.019211754914 1.42604
79.0549147166504 32.8509
79.1168605948422 0.91354
81.0703954238673 17.4394
83.0883630267225 1.81776
84.9598355548477 97.8005
85.0224747564487 1.95269
85.0441183283212 2.03846
85.065644261554 0.945704
85.3483406154545 1.08138
87.0437977434577 12.4143
87.0781978919255 1.08483
91.0542201829928 100.0
91.1392245764376 2.03588
91.164028407772 1.01053
91.3383647457844 1.22614
92.0574814147144 1.26442
92.4936854423403 0.920065
93.0693718473517 27.1132
93.1582919623247 0.956679
95.086979141927 7.76966
97.065350785706 14.6506
100.10821302479 1.12947
103.054781168245 6.06372
105.0697382345 95.0631
105.160839145022 2.14734
105.190416462989 1.19331
105.457159761798 1.36504
105.55840721152 1.42035
107.047341737912 1.59688
107.086182480652 1.60518
109.105558900607 1.0855
114.949775140987 1.09271
115.053109257439 6.50961
116.059660538711 2.61245
116.971284591284 4.48142
117.070801213453 15.5236
118.077230632319 1.29072
119.084883127055 47.5498
119.151953470034 1.4845
119.188625381848 1.07068
121.068656077944 1.69487
123.076559219166 1.2278
128.060575995858 6.1496
129.07104767646 15.122
130.076847709479 0.914254
131.084041638332 13.2514
132.085877956709 1.50968
133.100427849731 15.7385
135.081132141938 0.970228
141.072616175403 3.15185
142.080314888935 1.4845
143.083843338989 11.2484
145.05690395495 1.00719
145.102968913122 3.54028
147.079011060276 8.27388
147.115853613093 4.25172
147.946106633865 1.30218
155.076956265784 2.54045
156.096249658671 2.42088
157.099738070147 5.7026
159.119364211779 1.23779
161.087505637865 1.997
162.973168434573 10.5191
165.072677241727 1.78267
166.075165584322 2.13144
167.081293445404 5.11834
168.094179505851 1.00402
171.117826291804 1.69898
173.100058731289 1.28847
175.139674150532 1.00775
220.116041237675 1.02773
239.177112562393 1.46177
277.468282977094 1.10767
318.316380861891 2.12145
319.31638086189 1.0e-13

