>compound PGA1
>formula C20H32O4
>parentmass 337.236641548627
>charge 1

>ms1peaks
159.116613578413 0.607634
169.107252098239 0.551423
257.976665987874 0.629722
258.921881440948 1.21343
258.960771254025 4.51179
258.999534315947 1.01524
273.221001643547 0.938754
283.202727801985 0.647377
297.105716262152 0.517581
301.217202348895 7.43334
319.225594331713 27.0949
336.937188152924 1.0397
336.977714960338 1.50263
337.088311685654 0.720371
337.154670715949 0.537287
337.237290653515 100.0
337.338450498837 0.991733
337.365927504303 0.522946

>collision 10.0
41.0389111555634 0.521067
69.0727431210355 0.601191
71.0847844877807 1.85231
83.082338026626 0.739571
85.06980912858 0.583498
91.055353583234 1.3064
93.0691367304376 0.760124
97.1032167196023 0.520878
99.0805684058098 1.47277
105.065603611963 1.22014
107.049188028947 0.578742
119.085555303043 1.00052
121.101703507127 0.539637
127.11321042069 0.735497
129.071270454475 2.01675
131.086762099232 0.775066
133.101132176097 0.678987
134.941828414529 1.24828
135.079693198583 0.723643
136.957599386088 1.21314
143.081132983639 1.1006
147.083312351239 1.08072
147.119764953235 1.1111
149.130824290754 1.01218
155.138069596195 0.654517
157.102792090874 0.735605
159.116406763321 6.54692
161.128435288382 0.831513
169.101555280204 1.96041
173.132327343439 1.35201
175.141324281802 1.48871
177.125951725449 1.35358
179.907311352801 0.502306
179.96048383315 2.31853
180.905473641714 1.8627
180.946892227098 3.09918
180.968053480172 1.81122
180.981731823041 0.796733
181.099044284283 0.510109
185.098172623594 0.696475
185.131138416512 4.42829
187.108995825657 4.12765
187.139639993188 1.30512
189.128186257657 1.30921
193.123254115336 1.81413
193.161161676995 0.62911
195.11730319627 0.677292
199.150400600136 1.9496
203.146097681263 5.80155
205.122897553276 10.7344
205.153862451701 2.267
209.159428536562 0.535708
212.952301068036 2.71191
213.133032574785 0.694224
221.153752067084 1.07352
229.166912660098 0.864165
245.156554294998 1.38567
255.16882933845 0.53397
255.200849622956 1.18874
255.218258745153 1.32604
255.239696360432 0.689225
256.920185640296 0.655549
258.921105880401 3.72878
258.962179045652 6.81859
259.005034911972 0.715415
259.477759878966 0.71439
265.201200429342 2.3897
273.221596376364 10.8401
273.253132598408 0.766505
273.338986695991 0.509935
283.204955754319 16.9317
283.256134731405 0.549824
291.232733287624 4.84889
301.216743115016 94.2729
301.324895520307 0.582325
319.173573596668 1.66175
319.227084272093 100.0
319.607988853425 0.50146
319.720630911553 0.597154
336.189977495805 0.69156
337.081429427175 2.23343
337.101697960407 1.00133
337.236641548627 20.614
337.275247310889 1.75554

>collision 20.0
43.0158601912478 1.94906
43.0550963882115 17.0515
55.0532743108178 7.23781
59.0490728082483 2.43748
62.9517956134515 1.01999
67.0550733563418 1.85
69.0324966947219 3.03338
69.0699573535999 5.41901
71.0863188920584 25.933
71.1085160386543 0.902185
77.0423576766 2.16136
79.0564116132968 1.46893
81.069787292476 7.42796
83.0819055906843 1.86505
85.0650511211474 3.55395
86.0977505557405 1.30657
87.0755860495908 1.16208
87.9481237322547 0.975585
91.0569850992364 6.05594
93.0705439799823 15.4226
95.0861655464278 4.7671
97.0645992290069 6.16069
97.1000468567351 1.3633
99.0796366221279 29.9725
99.1044396424848 1.5721
101.946575245821 5.58262
103.078984217982 1.01528
105.07095290781 20.6199
105.095174528126 1.12097
107.048033985298 5.3663
107.0821369477 8.44643
109.067158588143 2.94411
109.1006831426 1.26678
111.077229324405 3.31297
117.066334213243 9.46159
119.047966304721 0.879591
119.083460059193 6.61758
121.062518851667 9.68608
121.094041860833 1.19796
122.933507771442 1.23848
123.080750443508 6.95833
125.059653596396 1.47687
125.095197779921 1.5995
127.111921359867 3.55005
129.069555395916 3.68842
129.896744038012 1.42088
131.085203831018 10.6671
133.064962578735 10.2697
133.101046954832 3.28388
134.939649453007 4.41592
135.039264229179 0.957281
135.077232431682 3.68608
135.116063970247 2.29384
135.130484072871 0.999138
135.946161910831 1.25934
136.955293296858 15.8603
136.987443431123 0.913929
137.101464408667 1.22703
141.127757343162 1.49134
142.077630834346 1.3332
143.085881978332 4.65213
145.061068313876 1.83721
145.101644797748 7.59128
145.117219793445 1.01914
147.078277171459 14.0554
147.09449538619 1.27885
147.1154736366 5.32344
148.989996370608 1.2089
149.091980932464 3.68728
149.136912002554 2.62531
151.113005732656 1.90807
157.09942881447 6.24059
157.998951986382 1.17281
159.079731604257 2.65953
159.115795699463 45.0002
159.140600595921 2.35506
159.267538368835 0.82402
161.097216671006 7.51042
161.133359685198 15.3789
161.150359425297 1.22366
163.144860903823 3.19011
163.950809153164 1.26103
165.092928449982 1.16494
165.126935771606 2.66737
167.08212162426 1.49506
169.09977672411 20.9313
169.134542812788 1.05551
171.114671450438 7.4593
173.09800150781 1.67593
173.130878033916 6.37936
173.158940663736 0.946807
175.111987727933 3.34414
175.148072772996 8.59827
177.128339212833 6.20458
178.07756407109 1.587
178.939989557454 1.128
179.965062604738 5.05924
180.909293969711 7.14538
180.945257332308 16.9288
180.988691136083 1.39212
181.1065261851 1.35389
182.938972001552 2.60276
183.122237207919 1.66576
185.131956819366 11.8344
186.438652316855 0.894815
187.112035924158 35.1385
187.155941183328 2.28473
187.177519872423 1.0276
187.819840010541 1.28471
188.117880197773 1.39188
189.125272777933 1.25895
189.167506991509 1.09634
191.141893250497 7.42402
193.118682526589 1.48211
193.161057538227 3.7502
195.121646754081 3.93541
197.141601194655 1.61487
199.100783801269 1.27058
199.142546175672 4.99276
201.001088345655 0.89989
201.124465280432 1.69162
203.105232196971 1.96569
203.14451545226 20.3592
203.175494296773 1.98252
205.12288605057 31.0798
205.15719812642 7.85174
207.135721663492 0.954249
208.116677467757 0.832511
209.150086941616 4.47088
210.704134159639 0.954249
212.954923336148 6.54602
212.993195701008 1.09628
213.128683706051 2.69097
213.163377643675 3.53071
215.142832809278 2.06918
215.186304486728 1.7964
217.126014849325 3.03997
217.155842151911 6.21584
219.138980367766 1.43717
219.171895637984 2.19221
220.963570187966 0.859293
221.151877863892 3.51199
226.11293883946 0.812945
227.180434691293 1.99329
231.135249983232 2.39585
231.169180670139 1.7692
231.201473438584 1.26151
233.152893599034 1.11742
235.174356655328 8.90174
239.181811471756 1.00679
240.270593542994 1.08364
241.198010923671 2.05401
241.264549169285 2.44072
245.152065600872 5.17192
245.225618160232 2.36221
255.170116660159 2.21353
255.210948088725 12.2501
255.256906551739 0.923571
257.21693059055 0.857919
257.981368436626 1.01781
258.925781808833 2.1562
258.952650082047 2.55251
258.982812288664 2.10297
259.141095526678 0.942009
265.195868264705 12.1206
265.232536912284 1.61009
266.005463931653 1.09647
273.220556034036 31.169
273.257982995269 2.18852
274.228032009324 1.71462
277.218127696834 1.14347
282.189661473916 2.17194
283.205265476071 43.1301
283.262573992947 1.03894
291.232490776503 26.8609
301.215914908316 100.0
301.26216644194 4.44562
301.558843148266 0.832229
302.140838533644 0.813199
305.676503873193 0.893631
319.22255421019 14.1099

>collision 40.0
39.0225982995003 2.07456
41.039819237896 9.40973
43.0181117140641 2.78551
43.054622745289 100.0
43.0725790091983 3.1191
55.0181085367445 10.2509
55.054799936929 42.3235
55.0665398006683 1.71933
55.0782766285642 1.46435
57.0330741598043 5.95749
57.0715127430819 8.60128
61.0106279621189 3.38134
63.9937941855409 1.46847
67.0560189660552 15.0324
69.0693065704926 13.8652
69.081124440544 1.14949
71.0859522599703 52.9876
72.0808463164152 1.33725
73.0293002852125 2.86642
77.0391755596429 12.7288
79.0553237623211 33.967
79.0788111003444 1.91255
81.0713915517253 19.4903
81.091102359129 1.09823
83.0537019252379 4.07802
83.0836439232242 7.6434
89.0438274512887 1.57617
90.8845790585528 1.12657
91.0552865282948 44.3209
91.0836533881542 1.57493
93.0690160641482 53.5374
93.0977361835993 1.5997
93.108873300736 1.0759
95.0477372729083 7.63857
95.0857105424334 18.505
95.1013192650348 2.25492
96.1135242010842 1.20735
97.0640895138824 2.5415
99.0808468302619 20.1413
99.1083511211254 1.31324
101.948972754865 8.33351
102.915702116185 6.38225
102.944902464582 1.05387
103.05145206407 2.16826
103.927258125525 1.46061
104.930577970361 10.9607
105.002678950965 5.92952
105.070300718739 75.2007
106.07448705045 1.86062
107.050086847077 6.57281
107.087008355278 24.3795
107.111866642848 1.4001
109.098306325226 5.03288
111.082115119227 1.80906
115.055767202342 2.56753
117.022459267177 3.94552
117.07133348496 18.928
119.055518942497 1.8929
119.085447802403 23.5794
119.117754359155 1.43277
121.064845410396 13.4764
123.080496231711 5.18138
127.051469631422 1.30996
127.111892821458 1.27852
128.061276697145 3.22277
129.068511193218 27.2715
129.096117652365 1.41594
131.03754045931 1.86997
131.085758845479 29.1889
131.110026834212 1.46716
133.062465505853 22.2785
133.079180125312 2.39991
133.099929294662 11.5594
134.940054586287 30.0026
134.969034061851 1.68003
135.085281865937 4.81325
135.116226070538 3.56873
136.089334753651 1.05218
136.954127042842 4.51965
137.339177185 1.35075
141.067967502605 7.0029
142.077340943282 1.96696
143.085978614474 11.1345
144.096095913258 4.08725
145.09963284563 8.98649
146.07431883141 3.54751
147.078382773542 10.2761
147.118456982556 4.30211
148.08729473845 1.47493
148.948009827969 1.40026
149.096904689117 3.59928
151.078229322041 2.51305
151.111171273672 2.97123
153.066284889579 2.9617
154.040736984302 2.7411
154.071270664935 2.25017
155.086157803698 7.86175
157.095924892555 3.49844
159.07958184348 4.04636
159.116986615326 24.1256
159.212121159015 1.04863
160.087852641274 1.67395
161.096972600817 4.75499
161.131429875798 10.3886
161.149037329729 1.31324
165.066229833893 3.22841
165.881307551333 6.34966
166.071434467864 1.92489
167.085173393284 3.24937
169.097592041035 7.84837
169.128503193398 1.38856
171.117522405631 2.99307
173.097516225453 1.63933
175.144901003898 4.18664
179.139843044877 1.68104
179.963805617993 3.21635
180.094896641836 2.02717
180.905196232728 9.97268
181.033444332772 1.23137
182.943000345264 1.13394
183.99519128253 1.06544
185.095404768673 1.34979
185.131592329868 4.36145
187.108356559433 4.232
187.150359480255 1.67697
188.999817726126 1.20626
189.127860748186 3.00719
190.135029414647 1.51301
191.141512531766 2.15707
192.225002397754 1.12984
198.10710905975 1.11019
199.116037963957 1.72936
203.148295475184 1.61599
209.130340284522 1.14116
217.12012907942 1.14116
217.16329241233 2.77712

