>compound 4-Methylumbelliferyl &#38;beta;-D-glucuronide
>formula C16H16O9
>parentmass 353.086142723752
>charge 1

>ms1peaks
105.071649757797 2.61474
177.056523608255 9.23595
265.040138732186 5.42698
353.086193034987 100.0
353.229927272091 2.0421

>collision 10.0
177.053589957853 100.0
353.086142723752 42.6284
353.179012716814 3.53954

>collision 20.0
72.0553671492408 3.88745
113.023813088382 1.24014
177.054459185054 100.0
230.133462890054 1.88561

>collision 40.0
91.0504913811545 8.54432
103.049859755126 3.19685
121.065028214974 4.8916
145.06565559128 5.13235
177.053768373637 100.0
177.535474595323 4.39514

