>compound 7-Ethoxycoumarin
>formula C11H10O3
>parentmass 191.070864125586
>charge 1

>ms1peaks
32.1965653026404 18.238
112.048705377542 11.5425
190.080602691981 17.7085
190.911653568897 11.2885
191.069076292139 100.0

>collision 10.0
49.6428528652676 5.20336
163.039281331182 19.4117
191.070864125586 100.0

>collision 20.0
107.050783744419 57.909
119.051755076956 23.9622
163.038157655512 100.0
191.066343005089 16.5976

>collision 40.0
38.9653558162954 35.2085
77.0389133365715 100.0
79.0554162378322 38.8474
91.054490260484 27.6551
107.048592204659 82.3209

