>compound Zearalenone
>formula C18H22O5
>parentmass 319.154645174441
>charge 1

>ms1peaks
84.962205938994 0.829611
85.0660618354658 1.93041
97.0649973392595 0.80276
162.975675678273 4.30354
187.076450860211 0.90719
205.087480982273 0.752596
217.083691836912 0.578143
231.067448505022 0.591625
240.988562778663 34.5804
241.127049013037 0.668329
249.079860247633 0.830316
257.155386078755 1.01588
265.125128188731 0.573965
278.647413692264 0.606092
279.152451158123 1.12915
283.132906075883 7.64294
301.142954717354 17.0764
318.153596465192 1.88072
319.003656941727 23.1283
319.154719243397 100.0
319.356711837303 1.10941
319.499528701432 0.905264
319.605631519649 0.836863
319.750244457198 0.812003
319.888812653614 0.772125
320.001846565303 0.71696
320.063708902429 0.545268

>collision 10.0
55.0192952807765 1.70232
67.0553672821924 1.54309
69.071040223083 7.30423
79.022474429835 2.08661
81.015929907043 0.582046
84.9608571845515 3.30679
85.065886806852 13.026
95.0492029758522 0.615117
95.0872190479886 0.983224
97.0659205546887 12.1245
97.4458085247246 0.528781
101.000278312087 1.14063
115.07638200908 1.05786
118.981422745797 0.692482
123.041011418994 2.42551
125.09919094688 3.93137
133.099808308627 0.702913
137.060594746944 0.576404
137.133267063753 0.529971
139.042980059632 0.819839
141.065807620524 1.01779
151.112040876975 1.1381
157.063664131547 0.644873
161.058180609744 1.5756
162.974555930824 74.7391
163.062174035135 1.90157
163.128137037119 0.860864
163.157512178989 0.551945
163.239489274316 0.513552
163.418224025992 0.704274
163.500794861777 0.529091
165.018217202856 4.70255
165.135601696196 0.586177
165.362771092954 0.665329
175.061291311798 1.57588
181.015493223385 0.871104
185.057482152982 7.00064
187.075344279417 23.2066
189.055132377554 3.06941
191.071208369761 0.809338
195.116314782599 0.810506
199.06979080119 0.713921
201.087002533996 2.2171
203.070203821502 8.09768
204.791368353006 0.549916
205.083639203475 3.42239
206.118636800756 0.519738
209.094457662477 0.805256
211.08353354011 0.672819
212.94421076764 0.762262
213.075445758168 3.66145
215.067450903065 5.18092
215.105942379758 2.19141
217.084940060059 12.4202
217.553194241665 0.511659
219.632680465758 1.27095
221.079488691454 1.01505
225.092401202755 2.80328
227.068746742917 4.93692
228.072434559462 1.06215
229.086627592707 4.69172
229.144517055322 0.997562
230.137252477539 0.801823
231.066517187748 12.4837
231.383539841881 0.559922
231.577633634864 0.518404
232.071071649537 0.500019
233.082265653046 1.07489
239.109174950877 1.73643
240.139591697833 2.19276
240.986283987394 100.0
241.085234259924 4.89641
241.116528025601 4.86157
241.180835577408 1.08069
241.266544288233 0.670373
241.332544471252 0.763828
241.387909241433 1.6458
241.496415715954 1.37133
241.5624348441 0.552754
241.681912555255 0.583662
241.822564912725 0.778665
241.995881593678 0.50034
243.096745538117 2.58794
243.760472164193 0.714781
245.084515877102 2.4543
249.074625715125 10.8025
255.141488088211 7.50415
255.732645145735 0.510824
257.149327065901 4.52765
259.093039084421 2.24808
259.136328593425 0.955652
263.069605126236 0.507388
265.123145609881 11.7604
275.153414475326 1.47288
279.14309095864 1.46601
283.13336727941 76.7277
283.324708903576 0.886572
283.434728224811 0.927746
283.909770903712 0.899153
284.117996017124 1.11082
285.33159362197 0.507934
301.143631876463 83.7994
301.298780729686 1.55681
301.395944158108 1.00234
301.532878413579 0.896828
301.627672599783 0.930249
301.750949369392 0.758874
301.902035147116 0.750179
301.98163448762 0.550745
303.678852490597 0.504666
318.164877615087 0.874127
319.154645174441 65.3255
319.319543123231 1.11167
319.511246818293 0.787844
319.589658204588 0.656129
319.695328213986 0.851465
319.752206045122 0.732588
319.827970875198 1.01699

>collision 20.0
41.0394741216964 1.49654
43.0198597493045 0.545367
45.0335238159527 0.658616
55.0198009483496 5.72065
55.056025124653 0.588508
57.0317752307999 0.667452
67.0556757191774 1.63104
69.0709924346171 21.3489
69.1168178454734 0.870724
71.0874414755752 1.04786
79.051312541062 1.61907
81.0165095707085 1.05515
84.9602542993747 21.9686
85.065254561725 6.98399
91.0535234665202 2.36689
93.073113779758 0.524718
95.0866143932757 0.922055
97.0649232674607 16.2545
97.3683340316897 0.58605
105.011559467348 1.01834
105.071060027992 0.648615
107.082183357467 1.95868
109.104227559965 0.674509
117.071480975112 0.667328
123.080729631822 0.612674
125.094773457275 3.28249
128.057894689038 0.653405
129.069536888507 1.29723
130.999367831031 0.631021
131.082477839188 2.2702
134.987396969525 0.566276
135.073983185505 0.81031
137.053199598801 0.808978
137.094689805669 1.87764
138.97002709433 0.795492
143.062460533156 0.622297
147.045891691609 0.502479
151.040703321472 1.76417
151.109156838266 1.16414
152.942214718253 0.565623
157.065149320662 4.46222
159.082898207113 1.07817
161.0618075139 0.774738
162.837618602513 0.712991
162.972791914352 100.0
163.074357431886 2.44736
163.121194607694 0.836216
163.173135196835 0.568589
163.269292172453 0.569124
163.475740556461 0.511171
163.608918476572 0.509765
163.690698556568 0.511124
163.820702865598 0.818182
163.872569930943 0.582466
164.151527804154 0.598577
165.014916940348 5.3537
165.050119115641 1.54428
167.032013446976 0.793913
167.070385006814 0.526787
167.259408935297 0.537829
169.062692171972 5.82144
173.058536657827 1.59664
175.063415576648 2.19071
175.638616798473 0.500308
177.06823332615 1.34959
181.063330344618 1.57689
185.057277956174 23.7575
185.182158482163 0.511697
187.072798811034 41.9817
187.179767485374 0.947601
189.051768598002 10.1246
195.109962963966 1.22289
197.062483632782 0.511333
199.07292211084 1.55514
201.084782378109 2.79494
203.067656935359 18.7108
203.446896024074 0.703551
203.992098056136 0.502968
205.079861669747 4.67988
207.062972357613 0.610528
213.055851529515 5.57082
214.077312704802 0.54819
215.066769695679 6.11654
217.086526931729 2.96406
218.160997819488 0.638049
219.109889036212 0.719278
221.079636204681 1.17559
223.107422887738 0.590804
225.092398228682 0.534622
227.06884677397 4.34001
227.808423350347 0.554678
229.082135467343 6.17041
231.061186500661 10.6592
236.077458913824 0.663946
237.117160127875 0.822131
239.108134534447 1.17798
240.982154189527 3.40105
241.091220549836 3.71712
242.088792904403 1.07421
243.099713431217 0.544474
245.072391220901 1.02846
249.073096519069 1.85971
254.089201848198 0.915287
255.135409774714 5.44378
259.097694083761 0.909553
265.119974975447 5.72293
268.115750538882 0.896536
283.129347889776 21.3427
284.243582382708 0.538152
301.140847559761 4.58038
319.15082800547 0.78028
319.202585564689 0.538117

>collision 40.0
33.6175364469175 0.610946
40.9720873459758 2.43246
41.0397135942297 9.56763
43.019077913757 0.610285
55.0204118078303 7.96448
55.0569659546265 3.29766
56.9664135193257 0.545885
59.0467754849054 0.791821
61.0124176003326 0.805813
67.054604373453 4.08168
68.9988949055475 3.49965
69.071264096576 6.62908
71.0524769891996 0.719604
77.0405668227662 1.43614
79.0543192546373 1.04409
81.031563754022 0.956824
84.0875504084153 0.662526
84.9612799538624 100.0
85.026149116235 2.00926
85.0453953910281 1.60465
85.0676119067923 0.924237
85.1036952809913 0.592755
85.1371859400092 0.632837
85.1799164575521 0.528913
85.2728726146099 0.527733
85.365641267936 0.528618
86.971207103991 0.53489
91.0550554694241 3.19777
93.0709074978344 0.533046
97.0649304724461 2.34316
97.1006006675457 1.03271
103.049937949547 0.962788
105.074209112214 3.54161
107.870613383651 0.533096
115.053141748419 4.02109
116.971615466443 3.12053
117.070422794467 1.26446
118.984892223682 2.97514
119.050811656204 0.639301
119.0866922345 1.32724
121.031276164576 0.53858
121.063507493037 0.929015
123.045359468229 2.00824
125.095901332707 1.06313
127.052350818587 2.22278
128.061929687482 3.64741
129.070679325158 10.6001
131.011733602053 0.747047
131.045494041077 2.03852
131.086671144102 1.89679
131.301302253515 0.543188
132.061908370667 0.793934
133.061532596427 3.79345
133.113111962742 0.648941
135.082330926954 0.786927
139.048660340043 2.51523
141.070222351617 7.87173
143.04886978172 1.5544
143.626273787003 0.526284
144.056933960663 0.786655
145.070942982463 0.610523
147.044460638605 6.63208
147.077858301127 2.5151
149.063663035316 0.712948
151.057795883479 1.58644
152.061143708264 1.20245
157.063704660294 20.1931
159.077731896934 2.3983
160.05170481235 4.00024
161.059008246772 8.49755
162.972830248432 6.85179
163.036062443657 1.5079
164.046405982497 0.861193
165.012749628305 1.4774
165.057933256841 1.31269
167.085904721971 0.557838
169.065065183857 5.68586
170.068818634164 1.59636
173.05734442526 2.09854
173.091608553707 0.674468
175.051115983601 8.13263
176.038976132969 0.784777
177.066827071228 1.82227
183.075518844493 0.560699
185.06074307659 15.1837
185.667130924238 0.548488
187.08002123354 3.58765
189.053799186236 2.25984
191.075350293848 0.607982
194.098752273921 0.796041
197.108830896959 0.626019
198.072134867363 1.13215
199.079546384285 0.658694
200.091715373788 1.09174
203.074909426547 6.37282
205.03605760796 0.90975
209.046996985832 0.699766
209.100142257499 1.09133
213.057677410559 1.71531
214.042029403982 0.597173
215.06882998479 1.14613
222.104067279095 0.610966
223.075016769704 1.62772
226.068442593007 1.8313
229.090310989388 1.23064
241.076546599481 0.61189
256.258576189623 0.869143
318.37867288561 0.720541

