>compound Quercetin
>formula C15H10O7
>parentmass 303.050009405245
>charge 1

>ms1peaks
224.124415532792 1.29187
225.007446388934 4.42731
263.129748531386 7.64598
263.633524857083 3.63586
264.131706707319 1.65387
302.137077947695 4.92714
302.638492941142 2.56011
303.047585284299 100.0
303.205343558909 1.79542
303.262899819696 0.959481
303.365121183058 0.56177
303.434007400296 0.5894
303.530567934549 0.655981
303.627235361138 0.556134
303.724049080251 0.615306
303.800924146319 0.510719

>collision 10.0
79.0213076661467 0.809082
105.011314463651 1.66915
146.99694932913 1.41654
165.014151632566 0.539504
209.01623651177 0.935971
224.126423154899 4.83218
224.628775431209 1.51082
225.010844200706 4.76365
225.128681375212 0.865211
263.134118522401 3.23992
263.63663125587 1.58685
264.12951310937 0.624685
303.050009405245 100.0
303.205037639422 1.40491
303.255588334373 0.838934
303.326477587093 0.728929
303.39907863192 0.58877
303.476919670194 0.601566
303.67668527882 0.625274
303.853920515652 0.549831

>collision 20.0
57.0703987201436 1.30954
71.0871653546608 0.562348
79.0211294809168 1.65541
95.085276088536 0.598286
105.01294495953 2.26786
111.006109171985 0.68544
121.030952713214 0.525341
131.001771720977 3.01419
137.023211728612 1.34902
146.995986044783 3.93471
153.01839335084 1.89222
163.038762985744 0.642836
165.019579456799 2.12098
201.052714220243 0.712421
209.01433450528 3.3766
224.12650195662 0.783186
225.008102790491 0.831932
229.050391327142 1.80461
247.063497959254 0.949841
257.04561669655 2.18836
274.051525787447 0.663248
285.036221760711 1.18715
295.193927622417 1.20125
303.050604399732 100.0
303.209140237843 1.52463
303.254171289893 0.781875
303.299705029027 0.776388
303.342100384824 0.641842
303.385085851831 0.601919
303.425433364419 0.584213
303.574466450068 0.783271
303.802990477714 0.688119

>collision 40.0
41.0399910408857 1.0872
43.0176758588295 4.34125
43.0552733723403 7.41766
51.026071872986 0.599922
51.4721243858945 0.650341
53.0374411892885 3.59299
55.0174102560475 5.63175
55.0524386324383 0.567792
56.9654509959827 11.2274
57.0331016277439 1.2911
57.0693554432062 8.07665
58.0667349938153 0.678268
61.0032263896108 0.521903
63.9986911247437 0.756207
65.0385910763236 10.6276
67.0172043002553 7.28541
67.054560323485 4.02804
68.9966128753561 28.7057
69.0291082356401 3.97901
69.0754328185044 0.577742
69.2193930849525 0.558297
71.0127376481681 1.61989
71.0872382284397 1.99254
77.0377404192185 4.47958
79.0192549174323 12.6892
79.0509791222012 3.40312
79.1029745431695 0.642899
80.0232326485043 0.65073
81.032337062833 11.183
81.0622215360376 2.01183
82.9787977438523 9.13813
83.0093080090116 2.24916
83.043153533588 0.540478
83.9707424083866 0.589457
86.975306148535 1.27933
87.9789350427543 1.76164
91.0169859516408 1.04545
91.0551252324795 1.77599
93.0321361904067 7.43449
94.041718829557 0.516946
95.009997246641 1.06977
95.048571057589 6.5454
95.0889323051137 0.914843
96.017812116376 0.510358
97.027743473654 4.285
98.9723721394069 3.35575
100.989423850034 2.04043
101.995485169571 0.868345
103.005886295713 16.2646
103.050756765152 2.09739
104.008870787686 0.618387
104.213633131064 0.618297
105.032697246814 4.02888
105.065779510452 2.73619
107.011948064994 2.79969
107.044651434858 2.49362
108.017163878515 0.951657
109.027711652449 20.0581
109.10292435019 0.539995
110.038612205432 1.50931
111.005459811193 11.143
112.990693953003 7.15004
115.05192970027 6.67986
116.967298546585 1.42829
117.068284125396 10.0761
119.006280008691 1.68208
119.046322480514 3.15619
121.027131381292 15.7079
123.042825148857 6.67585
124.013967221409 0.517964
125.023668422788 1.12968
126.028500502156 1.02874
127.051222042987 13.5364
128.057501878209 2.44796
129.070118026961 2.0112
130.9999592742 16.7166
131.043962459478 8.79718
131.969371231097 0.550051
133.046667224064 3.13897
134.033437768104 0.605127
135.042993575525 3.51357
136.016346645966 1.95314
137.021761959021 49.3895
137.101319235054 0.565829
137.131799218451 0.632026
137.236914330209 0.523889
137.302947978104 0.704059
137.383811664782 0.510219
139.047499387928 1.98431
143.046344228586 1.57226
144.058540173426 0.981883
145.05982733504 10.8555
145.129637638227 0.580162
146.992983121054 5.26904
147.036641626658 0.866872
149.036218782445 2.91387
150.026427616023 1.30366
151.000141638404 0.618194
152.00887731584 0.720825
153.016775862477 100.0
153.127841385183 1.36502
153.163664018567 0.875601
153.215175826806 0.746077
153.395139852532 0.939039
153.43483701087 0.500519
153.468776770372 0.536922
154.112526670587 0.569835
155.047372306984 22.9325
155.130576009463 0.906504
157.063529021638 2.80194
159.041210835108 3.27854
161.058198109952 3.58468
163.036285995314 13.0275
163.071149651701 3.96438
165.016185237604 21.0363
165.087299481239 1.03993
165.270074141426 0.559289
166.021339674948 5.01942
171.043799949362 1.0153
172.044499987533 0.567497
173.057144714339 17.9271
176.03966926986 0.706503
177.01549549997 1.03135
177.060025752741 0.551408
178.020812142616 1.39092
179.033262994157 5.05371
183.041093603091 18.789
183.137964730694 0.51322
184.047783966388 1.63699
185.059858569925 0.807005
187.035942456261 10.3922
189.0249486406 1.2296
191.051783645986 2.10109
192.035413799303 0.618235
193.003760182139 0.680422
194.015531915586 0.98382
195.025199714124 2.97123
197.00822155105 0.518992
199.035365995679 0.959482
200.044329449226 2.07618
201.052998657539 42.9969
201.162847412392 0.874689
203.02620336246 3.61277
204.041850498861 0.534272
205.049206828342 2.93777
207.031470931325 0.738121
209.004050611354 1.1785
211.036989259384 5.83283
213.048359777351 1.70003
215.029349233982 0.732812
216.039562657147 0.569018
217.045467639729 1.55107
218.062152272574 0.779947
219.058353648164 3.93879
221.02682121825 0.511957
228.038810246516 8.33697
229.046921411024 60.4965
229.184211681114 1.25787
229.22020650631 0.503614
229.601201304972 0.76969
230.050854875715 0.897293
231.020622149332 0.969456
232.035568152391 1.75011
232.600827298822 0.595261
233.038607645474 0.873455
239.031092316672 4.43662
243.034402420833 1.27691
245.042479562947 2.49195
246.047368675784 0.676703
247.055501799655 4.37587
256.036416306649 0.79624
257.041090729185 18.333
257.118406641234 0.928653
257.188902319907 0.579255
258.002267383082 0.511083
267.017682681602 0.673568
273.035718369363 0.877954
274.047750315214 6.19615
285.039033765289 6.16076
294.229585607682 0.702837
295.189065851473 0.895222
301.029189472245 0.542133
302.037781513161 0.645339
303.045905919646 20.9063

