>compound Sulfaphenazole
>formula C15H14N4O2S
>parentmass 315.090626442129
>charge 1

>ms1peaks
160.086746122054 0.520484
315.090428954619 100.0

>collision 10.0
92.0474130219805 0.66177
108.042836671826 0.563384
156.011138845082 2.09896
158.071876520315 3.10972
159.078385582212 2.18348
160.088007431782 4.15981
222.037091213871 0.761007
315.090626442129 100.0

>collision 20.0
65.0379668402727 0.740382
77.0380507637145 0.92512
80.025451367381 0.666716
80.0483524121385 0.746953
91.050365173229 0.827025
92.0491462225613 10.0892
104.04819800247 0.95874
108.043880483592 20.642
116.049297223896 0.552794
130.064696428964 0.715405
132.066728310789 1.69534
133.07826904989 1.08967
140.016378576012 5.5089
156.011648801459 39.4226
158.025972843163 4.04982
158.070619429723 47.357
159.079089496161 34.7218
160.086696338786 40.1988
160.180475098363 0.518105
160.332903321712 0.642123
160.73532961347 0.810306
161.271165908618 0.513619
222.03175610656 13.047
228.090811685999 1.28996
315.090384148831 100.0
315.233504906765 0.629136
315.406375609246 0.67614
315.588213309251 0.72919
315.910793462784 0.76479

>collision 40.0
52.0187760246828 5.46817
56.0369267443864 0.894455
57.0459804530637 1.06751
65.0389462256429 14.3343
77.0390514897464 7.13399
80.0499072741665 1.62158
91.0549600541655 1.75561
92.0489301586817 82.5127
92.5232429908747 0.976596
93.0605238790682 1.28441
103.055117384285 1.5399
104.051273676172 6.22173
106.064714352181 7.79569
108.045065946688 37.5009
116.049149483547 8.93704
117.055733749249 0.847657
119.061079801742 9.3522
128.042386349573 0.880758
130.064372478106 7.00582
131.058393200587 29.8299
132.066328245587 9.05841
133.073035638197 7.11398
140.015507725746 3.88647
143.054229546107 2.07589
156.011995864868 1.08445
158.070573725479 100.0
159.078308332014 16.7674
160.086986498953 22.784
160.455867795579 0.916552

