>compound Aflatoxin B1
>formula C17H12O6
>parentmass 313.070106504061
>charge 1

>ms1peaks
285.076008313342 0.759588
313.070442305032 100.0

>collision 10.0
270.050129885645 1.12475
284.069448555103 0.581899
285.076203728567 2.34456
313.070106504061 100.0

>collision 20.0
173.098237723555 0.504434
201.08843214468 0.81041
214.065496834097 0.539256
229.085323587299 1.81489
241.047749288263 1.75748
242.058445387817 1.2677
243.064756913795 1.63081
257.078022620273 2.62921
269.044896077077 1.94471
270.053140383297 3.81214
284.068534501166 5.38714
285.074015730627 15.3006
298.047420566717 3.20721
313.070713757285 100.0

>collision 40.0
31.4898708117085 0.685655
43.0188778559338 2.91197
55.0208408574537 1.98507
57.0716657705799 1.38628
59.0137263417302 1.00287
69.8701812190792 0.607236
77.0407894639889 1.47707
79.0545568243868 0.68886
94.0417709036111 1.00372
103.052672208111 0.680069
105.033057252269 1.04003
107.012667577947 1.39607
115.054776389434 7.76207
116.060871550464 0.893934
117.071101486168 1.56488
118.047628975918 0.595863
119.081760485549 0.667767
121.028182555477 1.39418
127.054105067137 2.28343
128.061224441763 5.54134
129.069784740032 3.58868
130.040436071872 1.48057
130.073353537576 0.645843
131.047659533754 1.5217
131.089170339248 1.33426
139.054564824457 1.37913
140.058945460144 1.9892
141.067904903404 7.28499
142.07876829324 2.67814
143.046384887971 0.618361
143.084658847809 2.47255
145.025702095407 0.875318
145.062111087763 2.2282
145.096173275499 0.822688
146.034647452878 0.961004
147.040283388942 1.45267
149.063555493552 0.874712
153.06710248885 2.95469
154.071251898505 0.663108
155.05150944152 1.10857
155.087596808316 1.23792
156.053696510401 1.48227
157.062215758296 4.51676
158.073467225926 6.69866
159.040168360067 0.991169
159.08354191453 1.14483
160.046463464444 0.718135
161.05951616425 1.56308
163.0353319621 0.593268
164.047422880011 0.904493
167.052455202233 1.2269
168.058078214335 6.77324
169.065010970506 8.10964
170.072190221435 2.15413
171.04427270378 6.12295
171.090238665808 0.846108
172.053386826977 2.7416
173.096946887944 3.8184
175.033395071273 1.06107
175.068275175173 1.04164
178.070212219935 0.905495
180.064735689173 1.89483
181.064524115577 1.31076
182.072149518651 0.653849
183.042038277992 2.73714
183.08337759922 2.90406
184.043338813498 2.08392
185.061463530099 14.7371
186.066670830431 14.3633
187.038854895157 1.07603
187.07589846673 8.77542
188.042736453676 1.76498
189.05268998707 1.18983
191.069593978813 2.07108
195.047504058218 0.917745
196.049368939149 5.99425
197.059904088588 2.45674
198.067787003906 1.45335
199.039472570125 6.44019
200.04793387286 5.13945
201.053749189371 0.977409
201.090829727581 8.93632
202.071435894916 1.34312
205.049291986241 1.5006
210.025885795016 0.694701
211.035346613303 0.847602
211.073855993747 1.48956
212.048794987183 1.70182
213.05391660204 41.8228
214.063022644912 42.0904
215.06991248393 3.74742
215.169761910083 0.603254
217.045242121812 0.768918
217.099927627644 1.10781
219.073771530028 0.731398
224.047947627052 12.6439
225.055087205253 5.44771
225.21243448849 0.574448
226.029886026315 0.733583
226.061482542774 1.55231
226.623331594229 0.634216
227.033033457967 8.42484
228.042879947284 3.56191
228.072637505641 1.38511
229.04880335689 4.65003
229.08743622236 7.49317
239.067267664137 1.86991
240.046559206239 1.16163
241.049711467642 100.0
241.198041152159 0.946523
241.382178619141 0.748096
241.540732604257 0.67546
242.055521883424 34.1203
243.064371569969 9.58029
251.031234685331 1.27736
252.04258706205 13.0112
253.050256538269 16.3326
254.053114861561 0.793351
255.029387824183 4.16946
257.081664384793 8.14756
267.066698482283 0.817311
269.04377809371 64.3518
269.40824808753 0.803624
269.455800145828 0.659633
270.051024985597 29.3976
280.037325274696 1.63527
281.043476463787 3.13417
283.061509326102 0.620091
284.0670282631 12.7587
285.076455133615 27.7694
298.04803760178 6.9075
307.502607514418 0.583177
313.069272466478 7.75824

