>compound Khellin
>formula C14H12O5
>parentmass 261.07641300386
>charge 1

>ms1peaks
231.027080552103 1.23231
246.052332328438 1.64203
261.074995351651 100.0
261.222056233762 1.82848
261.268102767838 0.949857

>collision 10.0
231.029127252233 7.42828
246.052624427063 18.2042
261.07641300386 100.0
261.221841295149 1.83869
261.268390841231 0.900681
261.317419078327 0.541731

>collision 20.0
163.002751822428 1.00996
190.999345912285 0.760283
231.029917197786 100.0
231.166398005563 1.84646
231.210176826738 0.843709
231.285361775747 0.513075
246.053270150914 68.0686
246.190404732744 1.1507
246.249006721008 0.508984
261.076620441818 25.7117

>collision 40.0
67.0181978552889 0.984486
79.0177821372144 0.530346
95.0125056272103 2.42056
107.013423691346 0.743636
135.007091017233 0.662892
139.001743599614 0.857269
163.001392157484 30.2347
190.99626115577 21.5626
203.032210147934 2.18221
231.027423275723 100.0
231.166275938746 1.98362
231.210932094152 0.881479

