>compound (-)-Usnic acid
>formula C18H16O7
>parentmass 345.09846254665
>charge 1

>ms1peaks
27.2174162135904 0.823893
57.7182800485619 1.27471
79.026392979626 2.74693
131.130812978773 0.931823
201.057399133708 0.861881
215.070768522362 1.50974
217.088905701355 1.22689
233.085745174094 2.69798
239.927466954518 0.861992
249.128049732304 1.31462
264.976810187583 1.02742
266.956627546982 1.24408
267.178002668757 2.57462
327.091953067308 2.34486
344.098307326343 2.33698
344.181116922679 7.47047
344.308332756591 4.2581
344.966496696497 1.90285
345.09846254665 100.0
345.23418459662 4.00875
345.325249597551 1.51734
345.458737270101 1.30676
345.517854007214 1.1806
345.640000800237 1.51552
345.699356985151 0.842642
345.759991111788 1.53266
345.849837395147 1.74451
345.949595726331 1.44404
346.052377777446 1.07564

>collision 10.0
90.0690782570405 0.834163
92.5628224045553 0.971734
98.9867561509475 0.959521
130.12772725522 4.41844
131.656535695631 0.855179
157.569434145916 1.03531
215.070072715943 10.214
216.068655877715 0.996938
233.085866377322 2.63817
241.148571920187 1.38132
241.235659942517 1.5962
261.073479247402 1.5254
266.197098659802 1.18543
266.963476779002 1.822
267.164662858387 1.23491
285.061809722119 1.39891
299.090266149656 1.55376
303.0883280605 11.5088
304.596943280808 0.977518
313.697125783034 1.02025
327.091651907542 15.1507
327.209750341639 1.15403
330.078931744154 2.39796
344.109314129239 1.47317
344.172338996417 3.06823
344.316257691961 2.37412
345.100254853078 100.0
345.266796359712 1.27624
345.337008777954 1.15549
345.486360414466 1.0537
345.558866971673 0.95402

>collision 20.0
25.8110018479086 3.39249
57.0706799221938 4.0592
88.0768245735922 6.22427
98.9852533271472 12.4445
110.068621836045 4.01715
113.023247190933 6.57004
130.123792064942 6.34153
142.951485638024 4.95119
186.940189575341 8.58372
188.934871039016 5.60338
191.072948966565 3.36951
215.062822180651 29.7589
216.065055089997 9.19566
219.065728288732 9.44844
220.072441381168 9.65141
227.635315505159 4.78678
233.080949278087 23.8149
240.081842388326 5.46948
261.075647338585 28.0168
267.082427170776 4.57654
275.085924832085 6.5941
284.062012539367 4.72843
285.07076867998 19.0006
299.086544422044 7.95846
303.084329980126 51.4631
304.589484131763 3.33429
309.075457247098 3.19552
315.049492520589 5.69241
317.102822176914 5.34129
326.069892461289 3.76524
327.085298464461 100.0
327.611169336261 3.12746
330.073411212139 52.7728
332.140857887072 3.98726
345.094168554802 65.3283

>collision 40.0
43.0211302258559 46.9382
43.0549859114573 11.3565
45.0364844003621 13.8801
60.044908814125 7.58536
77.039907196322 10.9744
97.9961092779262 8.6072
98.984506543734 55.0976
101.046085680787 8.75554
103.060011547395 41.4031
114.041776247726 5.74513
115.058269147636 7.89812
121.033205835787 8.4648
121.071819036005 6.46976
132.053178152153 10.041
133.071865779578 6.50351
137.019050279149 16.8753
137.939335037895 5.9916
143.082650043009 13.1943
145.072184179547 7.17677
151.034621732811 6.44544
153.028172213277 6.20274
159.081861980412 11.1924
169.06635560803 12.5091
177.05516980124 25.7308
178.079572709839 27.3926
179.087847965055 14.0089
180.091807797619 20.4129
182.666587652222 7.2002
187.07651358869 27.3254
191.071617921373 12.6079
193.064503555894 14.6822
197.088485743332 5.97965
201.06341688624 12.6631
211.072779660773 10.6792
215.071478742003 100.0
219.069498549608 14.2161
220.072950733155 13.5107
225.069633337525 10.6167
233.082845868157 51.5233
233.64926231864 5.81144
239.071203237957 10.6622
241.048502285286 9.08367
243.070084126202 24.5446
248.045825112964 9.10915
253.095186403075 10.4789
257.088488947557 12.1284
261.075687748125 18.658
263.074722678916 15.8165
266.061810809005 14.1992
269.057647809096 18.2329
270.040860926564 11.5884
284.085158171447 7.27409
285.081197282792 32.2715
288.056850914929 7.25268
294.054582494949 9.89928
297.044347769196 20.4302
299.081584886282 10.194
309.082873974607 9.53716
312.062111224843 18.9399
315.055607790559 42.4556
327.101821838047 15.9357

