>compound Geraniol
>formula C10H18O
>parentmass 137.132635545406
>charge -1

>ms1peaks
57.0709224091175 1.12524
67.0548613467879 0.998642
79.0552438866368 1.21211
81.0705798178976 86.0661
81.152914925227 0.532166
95.0858104485785 9.10229
97.9947541805862 1.65553
136.072037533473 0.822799
136.114344855974 1.79987
137.001357972444 2.83179
137.132635545406 100.0
137.240520534487 0.59378
138.24052053449 1.0e-13

>collision 10.0
41.0396373691765 1.80041
43.0551984882691 2.47114
53.0397336193255 0.903529
55.0564359235564 0.904231
57.0709802872716 4.81441
58.9884971699213 1.11595
67.054887939286 2.76712
69.0702861705874 2.58968
79.055061261543 4.44353
81.0705643397743 100.0
81.1537723808152 0.820443
90.4842752011082 2.61911
93.070770598861 0.520063
95.0859080261442 20.7278
97.9950063164232 2.57334
109.101398472784 1.81047
136.111113514639 1.09176
137.132290494351 9.94787
138.13229049435 1.0e-13

>collision 20.0
39.0233764786293 0.585437
41.0397890432656 15.1262
43.0554908977849 5.92943
51.4778247719953 1.40279
53.0394761564904 6.60191
55.0552059652915 7.68343
57.0706872378716 3.35071
58.9887250122635 8.37325
65.0391808716351 1.5058
66.0477490538659 0.826446
67.0550753102193 13.2652
69.0707485996805 3.88461
77.039030818505 2.01542
79.0547080518977 28.0209
81.0704904106045 100.0
81.1522522513227 0.631163
90.4851550824331 0.938137
91.054570927063 1.12191
93.0706149287058 3.15082
95.0860295256078 16.6099
107.08448926036 0.890246
109.100765738003 0.624889
136.112395565685 1.73315
137.11239556569 1.0e-13

>collision 40.0
29.0369640311324 0.845735
39.0239589786095 22.4006
39.9640903899562 1.39281
41.0397189590878 100.0
41.0984825199311 0.580124
43.0558753179071 5.75077
46.9961281168739 0.561036
50.9738282037676 11.2942
51.0242964200054 5.65456
51.4773403945153 17.4546
53.0397785477112 39.0896
55.0548249781317 25.2124
56.9642462214049 0.768297
58.9879103563556 3.28833
62.9907824228477 6.29124
65.0397841117503 9.61907
66.0473833667388 6.96321
67.0547979264268 12.4077
69.0690021279945 0.917676
77.0394516766178 31.3249
79.05478299578 39.5638
80.0602217277183 1.30555
81.0703125292682 22.0803
87.9296436997229 0.830353
91.0542131612222 8.28452
93.0691414127748 1.40188
95.0858428574182 0.563437
106.065013745887 1.77119
120.079710894606 1.25079
121.07971089461 1.0e-13

