>compound (-)-Menthone
>formula C10H18O
>parentmass 155.142551698913
>charge 1

>ms1peaks
59.0483039460701 0.958312
67.0597259752266 0.761693
74.096778180838 5.85202
75.0946423287977 1.55688
81.0707823127354 21.8181
95.0860219849585 5.94485
99.0774539237456 0.664577
109.102728759292 1.10966
111.117478857007 2.08883
113.518305656109 0.961984
133.554685104343 0.997126
137.13210181732 34.0917
143.618844251568 1.09967
154.235023900483 0.85959
155.068263693899 3.42801
155.142551698913 100.0
155.252395765386 0.796391
155.455213845812 1.05745

>collision 10.0
41.0393226810502 1.58165
43.0560559624956 2.73683
45.0336845032366 3.51637
55.0556271509706 2.51538
59.0516515819564 2.83257
67.053950062943 4.82147
69.0700693468145 9.56776
71.0476498885924 0.673217
71.0857515107836 1.8899
73.0645301727502 2.01852
74.0980110067947 6.57658
75.058303342098 1.48889
79.0536249694377 3.14557
80.0215261748794 0.825627
81.0703618206837 100.0
81.1291889998296 1.04636
93.0751215719312 0.918149
95.0853716246698 35.726
97.092305250263 0.958287
99.0795987116665 3.13348
111.117407211926 3.33398
114.088098909143 1.37817
123.006408291289 0.832676
136.066421037836 1.06054
137.131868167204 19.697
155.143585528561 3.11414

>collision 20.0
41.0392451329009 10.117
43.0557347371903 14.8882
53.0383456464577 2.49284
55.0546669115024 21.4801
57.0697013490083 6.19793
59.0493604243702 7.93255
65.0383832381578 2.82152
67.0553831513556 20.1208
69.0699269346237 19.5016
70.0730878951397 1.03429
74.097742359074 10.0656
76.0733571711654 1.45221
76.5229175335348 1.06921
79.0542186894446 15.2551
81.0701585019052 100.0
83.0845314063238 3.31086
84.0172068241943 1.00137
93.0700984919372 3.75394
95.0867606091687 35.1566
99.0823368542839 3.47822
109.10333007914 2.99718
115.223356258407 0.960436
137.133759385055 0.942388
150.99671684904 1.17435
153.015856393436 2.06298

>collision 40.0
39.0229755485336 3.13081
41.039735720874 100.0
43.0186896827056 12.4114
43.0552094313108 27.7321
44.0481641031709 8.01931
46.0681785031273 5.7171
51.4781180860343 5.33874
53.040535674066 31.5889
55.0546864890273 41.9242
56.963424045755 4.23864
58.0675241580363 3.54292
59.0511693012479 15.0601
65.0395262323469 8.57378
66.0439741674956 3.53312
67.0550852630648 36.4957
69.0717735892985 12.0252
74.097416088643 3.88949
77.0361381550954 19.9927
79.0551359194302 37.5736
81.069667863979 25.4238
91.0548822837622 8.97964
95.0854299640097 9.7392

