>compound (S)-(-)-Perillyl alcohol
>formula C10H16O
>parentmass 135.116462993072
>charge -1

>ms1peaks
79.0548292591831 1.66815
91.0546625951136 0.666593
93.0703918561425 10.7236
107.085547170907 17.3284
134.116728076554 1.22271
135.116698288968 100.0
135.22312619634 0.621191
136.22312619634 1.0e-13

>collision 10.0
41.0391927088132 1.04994
43.0556896793861 6.25584
55.0550440797447 4.9768
57.0703477323762 1.06909
67.0543837985515 2.29217
69.0709199306026 1.78695
77.0389740519813 6.94532
79.0548701158089 15.7014
81.0706666235816 2.21173
91.0541686581302 18.0527
93.0699537207938 73.9679
98.0960256366905 0.568375
105.070035243738 4.21275
107.085579744901 100.0
119.085398618299 3.05701
120.09226761329 0.920947
134.114170557424 0.937275
135.116462993072 49.5031
136.11646299307 1.0e-13

>collision 20.0
39.0239582873112 0.50098
41.039793112988 10.3019
43.0555013985622 9.63313
51.0232741442115 3.03789
53.0391538173027 1.94238
55.0550274439522 18.4492
57.0712830024112 1.05771
65.0397881692072 5.69292
67.0546707610644 3.97408
69.0705900644178 2.6733
77.0389227462347 59.4542
78.0466784552657 0.912655
79.0547551277708 28.3757
81.0704312380228 4.40343
91.0542789127732 100.0
92.0629901348337 1.72952
93.070135509773 59.1998
94.075658860381 0.805325
103.053381328587 0.744444
104.064452325106 0.521876
105.069024851196 20.3379
106.076058079806 0.841062
107.08534480462 60.9999
119.084489122292 1.88578
120.091387504176 0.644966
135.116782065624 2.70339
136.11678206562 1.0e-13

>collision 40.0
39.0237998097673 11.0734
41.0394415577223 23.9739
43.0544331602126 1.92178
50.0164216342086 1.31584
51.0238216982166 54.1871
52.0309568361198 1.72996
53.0389751597132 7.87343
55.0550375817458 8.25077
62.0147386513684 0.665942
63.023046378549 4.46441
65.0391093233189 68.0132
66.045849851291 0.658696
67.055713853918 2.75797
77.0391767211652 100.0
78.0469774021765 5.7058
79.054471750517 15.4866
81.0703351497016 1.14425
91.0543438665079 75.8472
92.0604194780143 1.88942
93.0691502226307 1.85549
103.052620406462 2.84716
105.070100957482 6.50288
107.086563103666 1.19252
108.08656310367 1.0e-13

