>compound Carvacrol
>formula C10H14O
>parentmass 151.112065692666
>charge 1

>ms1peaks
89.058502063964 0.720156
91.050537815695 1.4669
94.0345244165332 0.518868
107.050472676561 0.726634
109.065357988863 61.7201
109.155938477329 0.840847
109.229781789211 0.511509
151.112065692666 100.0
151.223073482231 1.476
151.281724848632 0.690367
151.348835826639 0.536217

>collision 10.0
41.0396231360535 1.72691
43.0548022212106 17.9093
65.040085719775 0.531449
81.0683489211644 0.824791
89.0618746910254 0.506387
91.0538437910095 11.9988
107.049762148999 3.83706
109.064407374959 100.0
109.156824597399 1.57567
109.211391178913 0.690785
123.077820872466 1.17578
135.078654678266 0.569601
151.110435654004 3.12989

>collision 20.0
27.5098229169432 1.96424
41.040011716094 29.6422
43.0206526634483 3.78192
43.0555302096711 66.7806
43.0969171438277 2.69748
65.039685025009 6.93699
67.0534914953994 1.86295
77.0384087634728 2.12438
79.0511536471759 3.30807
81.0711464563839 21.5314
91.0546140516902 83.1054
93.0328463880578 2.27651
94.0443945732182 10.6889
107.04937893796 11.5344
107.077336795399 6.0034
109.065452542836 100.0
150.085121468171 2.00273

>collision 40.0
39.0248758160605 17.0916
41.0393517625185 61.6141
43.0547430352659 68.6476
45.0329492711746 6.03326
55.0167922738974 15.1719
63.0232482168578 4.82018
65.0392162330928 100.0
66.0470852827857 9.11177
68.9835237505255 9.1617
77.037716517527 42.3472
79.056548758355 13.404
91.0532851087434 61.0216
93.030812623705 7.75465
94.0407164617505 82.9957

