>compound &#38;gamma;-Terpinene
>formula C10H16
>parentmass 137.131826687536
>charge 1

>ms1peaks
57.0705739714888 1.55499
67.0539960120023 1.17673
69.0712310751557 0.705877
81.0698417637796 33.8776
88.5235310272215 1.16055
93.0695450259407 0.817985
95.0853171978305 8.75495
108.091500559964 0.763371
109.101478631717 0.839579
116.55517505013 5.1658
119.015868848023 3.73553
136.050995648053 2.48139
136.118092845082 5.29127
137.067795822648 6.13057
137.131991866923 100.0

>collision 10.0
41.039338312515 3.94732
43.0554086895462 8.05914
53.0395408834583 1.14297
55.0546851778715 3.50255
56.0113275621586 0.61296
57.0711398840875 10.091
62.0116967470388 0.532855
65.0382928481499 1.08746
67.0545402963274 6.32399
68.0101637273 5.68217
69.0709240365541 7.68732
69.5120481516783 0.561746
71.086140367377 1.71298
73.0286523540846 1.9047
74.9900106703776 0.881401
77.0060480613453 0.575516
79.0531201527338 3.60441
81.070215674962 100.0
81.1299245654876 0.615764
82.0136196609078 0.820128
82.524884380907 1.29679
88.5233756151068 4.74898
90.0396798528458 0.88175
91.0548213985261 0.635716
93.07002125354 2.21785
94.0734469321716 0.987437
95.0853987857777 62.1828
96.043300702075 1.01354
107.087477146243 0.659847
108.090198675428 0.800497
109.102137480074 3.78381
116.553367179711 1.13134
119.016183873029 5.58744
123.011666092362 1.12052
136.019053502099 0.685296
136.06261089588 1.34053
136.117366331884 2.39725
137.044026458073 0.659254
137.131826687536 28.6704

>collision 20.0
39.0236435674133 2.3267
40.9714073224216 0.833467
40.9894421016933 0.518573
41.0393503771724 25.8816
43.0183399637926 0.868622
43.0547659717961 14.5521
46.9952479185959 1.11488
47.9945039715396 3.61563
49.010417437235 0.910163
53.0033674062856 2.31469
53.039397188279 6.22842
55.0081711768434 1.82728
55.0551641986154 21.2369
56.9658434247099 3.07683
57.0704761833852 8.53584
61.0112820836775 0.879498
62.0105459123525 2.18813
65.0387119005871 1.7644
66.0484034485048 1.10009
67.0548884195084 39.9593
68.009469921867 7.90278
69.070830060667 11.1381
73.0242676468941 2.02416
74.003865104529 0.892644
74.9887297247295 0.800708
77.005166049063 2.93074
77.0387609391847 3.69355
78.0442198745323 0.709775
78.9869260115602 0.572649
79.0547466548645 28.9162
80.0597680888941 0.648715
81.0021904792952 1.79859
81.0702327582235 100.0
82.0131214005315 0.76108
90.0352313360133 0.712208
91.0543786262826 1.96291
92.0564416626 1.70509
93.0696953102698 9.16374
94.076235310095 0.961415
94.979205252123 1.58236
95.0858784523101 51.3748
105.001777550224 0.661323
105.067128677886 0.550386
107.085627672528 1.7855
108.089945625495 2.23378
109.101191770729 2.76372
119.020359449775 2.40216
121.089316377463 1.92938
123.011681712315 3.97124
135.009838936501 0.617363
136.060740200682 0.68567
136.111401436428 1.46868
137.122804866802 0.654386

>collision 40.0
29.037675521176 1.74855
34.9869886731542 5.77709
39.0240640391659 21.5756
39.9628982267126 8.13469
40.9705577534727 7.99119
40.9857603411314 3.60128
41.0394658983762 100.0
42.0114512891441 2.55953
42.0355057901289 1.9341
43.0186340099183 0.678443
43.0557213744467 8.53914
44.978506186189 2.01408
46.9925820817671 1.7462
47.9953046529403 8.29953
49.0110695290552 1.50735
50.0121499487127 1.68783
51.0235667874259 8.85079
51.1318146116327 1.22321
52.0291710773377 2.87599
53.0390067843615 27.5754
54.9866404946283 1.13355
55.0197808104137 2.81748
55.0549520512049 43.2542
56.0272459235261 1.93069
56.9659836567406 14.5676
57.9885491153072 2.65378
58.9928624068808 0.768726
61.0132681004671 0.762828
64.0273169657706 0.872655
64.9688340138997 2.47275
65.040295165087 12.3269
65.9724483009859 0.716908
66.0474956853762 5.23803
66.9872223900401 2.36927
67.0552485485035 15.6066
68.9619330120442 1.20641
72.9996376274741 0.948972
77.0386442317345 37.05
78.0431638955077 5.30509
78.9856346706418 6.85893
79.0542113392853 28.3501
79.0950284136451 0.672289
80.0574235975082 2.92033
80.9639951369968 2.69118
81.0007630422192 1.20246
81.0707645140875 15.0287
81.1138819643078 0.59981
90.037269246286 0.731431
91.0534921428299 13.2688
92.0234166313912 1.61527
92.0528198717396 1.36008
93.0015060174282 1.31733
93.0716707004723 3.99745
94.9799443438224 2.09609
95.0865244013138 1.49948
104.05541233179 0.719025
105.071227930037 1.84826
106.067136436455 2.48809
107.056236928089 1.28713
118.978345817042 0.812701
119.037913183434 1.0292
120.078801651222 1.6423
123.006044025129 0.828907
129.012494037072 0.867888

