>compound (R)-(+)-&#38;alpha;-Terpineol
>formula C10H18O
>parentmass 137.132954426826
>charge -1

>ms1peaks
67.0550875404685 0.861437
79.0550890643379 0.95913
81.0719014154207 79.8284
81.153192555657 0.932558
95.0888306726928 6.59747
96.0437518770014 37.2082
96.1271939180868 0.573217
116.561129804303 0.723189
136.121944728972 1.29934
137.071096359285 1.87728
137.134704475309 100.0
137.238331521551 1.42957
137.311039445396 0.554236
138.3110394454 1.0e-13

>collision 10.0
41.0390449255491 1.43173
43.05545432747 1.21491
53.0396269214662 0.878892
55.0552463437267 1.09571
57.0708911618049 1.40981
67.0553888857384 2.12488
69.0715307806948 1.1577
79.0552964378357 5.47446
81.0705222434544 100.0
81.1505584837301 1.65521
95.0862266631702 18.5956
96.041916564658 3.13124
109.096987078878 1.50877
137.132954426826 10.3861
138.13295442683 1.0e-13

>collision 20.0
41.0398337898903 10.6835
43.0551645874513 5.30961
53.0399786544712 5.04819
55.0558490800609 4.66645
57.0723935667684 2.0043
65.0405907310366 1.13324
66.0482677506393 1.07595
67.0554200661337 14.101
69.0715310494536 3.18881
77.0392116358243 2.74302
79.0562332105757 33.026
79.132141697563 0.517817
81.0716270164551 100.0
81.1521849519662 1.61299
81.1794146223504 0.511663
81.2073385372235 0.514596
91.0566563763609 0.835311
93.0696405524521 3.48966
95.0869478791455 17.7555
109.099766874892 0.805972
110.09976687489 1.0e-13

>collision 40.0
27.0211349428133 0.890608
29.0382600388773 1.05033
39.0244037059362 20.4882
39.0694216545343 0.661157
41.0395516473416 100.0
41.097913352783 1.83663
41.2888466593015 0.804326
43.0169044312362 1.05453
43.0551547496647 10.3645
51.0238850266962 6.275
53.0396188623869 47.4838
53.1043688473358 1.10225
55.0554191900672 29.9589
55.4055308285502 0.872654
63.025751747952 0.860935
65.038702073181 11.5138
65.5586159673938 0.74921
66.0467656577656 12.6449
67.0550538723646 13.2905
77.0391533460934 37.3465
77.1178325600348 0.823286
78.0429553404047 1.17047
79.0550469462711 70.0348
79.1362725868464 1.33804
80.060649765248 0.862871
81.0708441769174 21.7271
81.3964435451901 0.70767
91.0537545061084 4.83527
93.0719184501641 5.43892
103.056712267622 1.12094
105.069588109995 0.982455
106.06958810999 1.0e-13

