>compound (-)-Linalool
>formula C10H18O
>parentmass 137.132341847312
>charge -1

>ms1peaks
57.0691817447304 1.2451
67.0530961430674 0.743898
81.0702069815605 83.8465
81.151575963546 0.605376
90.4830041108006 0.999172
95.085727012918 8.70449
97.995234927898 14.4736
98.496898371158 0.901783
105.981531716529 1.01278
136.112460982827 1.5818
137.002039498014 23.5931
137.132341847312 100.0
137.240130712771 0.502351
138.24013071277 1.0e-13

>collision 10.0
41.0397975827286 1.53045
43.0555037808002 2.62313
53.0386693192221 0.73117
55.055308389286 1.2329
57.0707783496945 4.86128
58.9887033680006 13.1178
67.0543834230097 3.47649
69.071103981089 2.11759
77.0388815829564 0.512291
79.0545745088373 4.55622
81.0703040014831 100.0
81.1529538424083 0.550628
90.4838379767077 24.2207
90.9859364868895 0.995715
93.069941747619 0.599802
95.0855956691563 20.7842
97.995201550972 17.8849
109.101703204032 1.17098
136.110988001419 1.01861
137.133035904615 9.15027
138.13303590462 1.0e-13

>collision 20.0
39.0236103475075 0.53486
41.0395021318916 13.3464
43.0550445411411 8.36001
50.9730781064467 1.70242
51.4769542351694 14.6719
53.0391821564062 6.87052
55.0546720089116 7.97672
57.0703924053202 2.67423
58.9885836082002 73.3642
59.0604980574769 0.97425
59.4886113925284 1.14842
62.9916559691174 0.506633
65.0387554255362 1.84269
66.0484422823126 0.573774
67.0544510784175 12.6789
67.993388741738 0.570649
69.0710632249163 5.65494
77.039132155166 2.63104
79.0544510322526 25.8452
81.0703110761188 100.0
81.1531385511933 0.765598
82.9712847021925 0.612069
90.4830587656654 10.3113
90.9831328672694 0.529868
91.0568831924146 2.01115
93.0702879010116 4.23755
95.0855222277835 19.356
97.9979094830624 0.516542
107.083095824013 1.74003
109.098496569737 0.790116
137.13208946566 0.514619
138.13208946566 1.0e-13

>collision 40.0
27.024404095615 0.647388
29.0372149382369 0.634234
33.9821120650035 0.80016
34.9872305732034 1.45901
39.0242487656217 30.8749
39.8977930362646 0.580125
39.9633904154944 5.33984
40.0251674940872 0.59584
41.0395091619826 93.977
41.079917852533 0.772613
41.0992951448015 1.09516
42.2636593920492 0.546467
43.0544035134844 5.35733
43.964440397831 0.8924
44.9790304347233 0.980901
46.9938281974574 2.72169
50.9734326927739 53.439
51.0240923082828 5.71377
51.4768411992214 100.0
51.6850125339078 0.520635
51.9751712705914 0.973366
53.039158698515 39.2142
53.101901537203 0.566487
55.0555249811261 30.324
55.9568333780125 1.2036
56.054050221662 0.592345
56.9647402328592 2.6173
58.9883177911521 16.5468
60.4811101488116 0.767712
61.0119617348595 0.949189
62.0214305997428 0.556659
62.9898801711126 20.5314
63.2567965766237 0.646137
63.9948822827924 0.96
64.9835535982697 0.861021
65.0392661058055 8.27141
66.0470767340867 10.744
66.1320366863349 0.529381
67.054319215992 20.3905
68.9617065205552 0.86746
69.0671303103638 1.09834
71.9390751986614 1.2326
77.0388501363237 34.8358
78.048067404386 0.616709
79.054777783516 42.4673
79.108180756013 0.578573
80.0596094602344 2.18915
81.0705717595332 17.7216
87.9301357471956 3.03541
91.0532606856301 5.3054
93.0687865448595 3.26037
105.067796820142 1.09455
121.080223849559 1.4903
122.08022384956 1.0e-13

