>compound &#38;alpha;-Santonin
>formula C15H18O3
>parentmass 247.133787696755
>charge 1

>ms1peaks
90.9768194408238 1.56407
101.006420707191 0.996561
168.991996852634 5.92227
173.097874829495 20.3726
179.021887138958 0.557144
201.126775313718 1.07938
229.122508524429 0.876057
246.928910896071 2.14199
247.00547074934 12.0856
247.134500932514 100.0
247.273054210424 1.51328
247.320338299409 0.900916
247.381079222553 0.69248
247.464146652942 0.549716
247.527266762379 0.888326
247.609493985409 0.554002
247.687301579432 0.703257
248.062015829927 0.505329

>collision 10.0
69.0336054525301 0.6623
90.9789782610033 9.71102
91.048570386697 0.530584
101.004888454618 2.94619
125.001676027685 1.04556
135.080869605875 3.747
145.104389238392 2.30416
149.099274300381 0.551888
158.073442854861 1.21322
161.098868351713 1.05518
168.917576546142 0.581855
168.99281810729 8.10402
173.09840095161 100.0
173.216925462555 1.42429
173.266071776057 0.698541
173.424324962413 0.552905
173.521784658249 0.501319
173.601118673224 0.514282
173.664777315515 0.593602
174.106237252979 1.08058
191.106075031385 0.910976
201.129805979155 7.10737
229.121896126305 1.94027
246.927842733991 0.578659
247.011634974464 2.74388
247.133787696755 17.8248

>collision 20.0
43.0201774871176 6.28255
79.0572616457629 0.584428
83.0463537341873 0.630055
90.9781559245389 11.9661
91.0547217460038 0.707873
101.004708731901 2.35221
105.07116611005 1.14896
117.07276354146 1.1496
119.090201194215 0.633613
121.101653825372 0.918932
125.002053018324 7.95801
131.085491241654 2.10415
133.104446357711 0.628478
135.081748391467 23.3898
143.084964443578 0.91891
145.102428446925 17.7509
146.076135227427 0.721473
149.095790182873 6.24016
155.086595100703 5.20084
157.103077180685 0.530071
158.071223117325 10.7058
159.085395842208 2.19378
161.098215656692 4.06072
168.036120853232 0.613935
168.916664524668 1.27972
168.99190768994 10.8652
171.078683443418 0.654546
172.091000431904 1.44581
173.096588219645 100.0
173.218036742193 1.17184
173.256782802052 0.731256
173.313657913321 0.526776
173.367801972714 0.72
173.44671511341 0.534403
173.532751108756 0.550401
174.105933818088 3.93648
177.086249813027 0.633581
183.115782765472 0.60904
186.104220160156 2.21075
187.10658262973 0.708314
188.07917980379 0.559066
196.085166574478 0.78187
201.128423802713 10.3418
229.119643222622 0.700979
247.134404470839 0.572968

>collision 40.0
41.0420803469289 2.6741
42.0386057148671 1.71201
43.0195087076258 22.3818
43.0546022590499 1.64421
57.0344992486097 4.14076
61.0119258447648 4.85641
62.984291606887 6.65936
63.9993161980243 2.25417
65.0405517222687 4.12796
67.0549573056812 5.3497
69.0351365634398 5.09428
77.0425260604649 6.37966
78.0499982971656 2.60244
79.0566407306031 24.5707
81.0719686323692 4.76583
83.0556471894645 4.00554
89.0391461853105 2.41253
90.9040363771279 3.25788
91.0563984370779 74.8652
91.130524206046 1.4892
91.4427951794397 1.8829
91.9674974767003 3.19797
93.0726550320214 1.70545
101.004352854406 1.60046
103.057148213763 3.53183
105.072285247372 40.5692
107.050310346429 1.48992
107.087023123878 4.9606
107.435409354318 1.50718
108.974142709464 3.63096
109.981283382776 9.34866
115.055519862327 25.4638
116.06460412456 3.07163
117.071220994009 17.8495
118.076755845468 3.16077
119.08466248509 4.63119
120.056804698137 3.2956
121.104441128485 8.63988
125.003505244487 33.2795
127.056022923363 4.72163
128.065200828476 10.9181
129.071365174354 42.4637
130.07996121085 23.7917
130.974209488993 1.4039
131.081729390495 11.2425
132.064274095559 4.17747
133.079372416351 3.72083
134.068467157525 3.97587
135.08266240979 100.0
135.161282698533 1.78162
135.190350577276 1.55767
135.32575035629 1.44356
139.049869480358 2.13966
141.0671556442 1.54141
143.08644991711 14.419
144.055592877618 6.4365
144.088309603783 1.40423
145.099907380728 28.0428
146.080728164166 6.97021
149.098960582594 8.82744
152.060670451547 5.85508
152.300280926781 1.67803
153.071015678765 12.6826
153.889448778908 3.15779
154.080445018049 2.70213
155.088146149206 13.0779
156.104351585867 1.71682
157.065851347283 17.7433
158.074141994307 88.7331
158.186163528924 2.11579
158.261064738884 1.3728
158.625483371131 1.76409
158.779340922158 1.37081
159.083102289129 17.6065
159.382153132993 1.61045
160.084852120377 2.74682
161.096128465841 3.78506
167.076918911724 1.83651
171.08059600151 10.533
172.091128598198 7.88831
172.13997951268 1.41217
173.100345659263 21.4999
174.061129826693 1.41645
174.693290027116 1.57492
174.929903762677 1.70243
181.062533448088 3.241
184.089097316122 1.99312
185.096828241876 4.00935
186.105856314566 8.56859
199.078297176634 2.83883
201.125458337235 3.9616
225.910154715577 1.53295

