>compound Ginkgolide B
>formula C20H24O10
>parentmass 425.143865709165
>charge 1

>ms1peaks
319.148722957509 0.594596
321.10166858549 0.531331
361.123471468489 1.24136
390.123815832217 2.07965
407.130747374432 1.79623
408.136161626306 11.7944
409.153241211387 7.04828
425.155162923292 100.0
425.345040153066 1.33138
425.428123938466 0.840794
425.48871486467 0.712385
425.543199225024 0.671191
425.696868487482 0.898229
425.760453070016 0.590861
425.839457242478 0.848585
426.047074318744 0.921573

>collision 10.0
143.087644255446 1.04034
145.062340714452 1.36625
197.090680930196 1.04167
201.090540386423 1.42081
204.642742637066 2.629
213.088214083733 1.2283
219.102259969472 1.48025
225.04612812674 0.888836
225.410353288611 0.909898
229.056171136387 2.33209
231.036557669217 0.952661
233.066325098434 1.1506
241.088254551382 1.03444
257.073432390978 1.08106
259.086995673264 1.01196
260.136894915843 0.824213
265.094563663547 0.815982
271.126423746378 1.86123
275.084963066125 2.71924
277.032283636326 0.818505
279.043567389364 1.53867
279.093822487093 1.06941
281.100574374561 0.883237
286.078778664724 1.58809
287.121045080037 0.946695
289.096097883649 2.88249
303.120692933494 1.42146
305.110829035639 1.03131
307.100991488552 1.03726
309.098672807538 2.2217
315.123209096706 2.46411
317.134386229553 1.7778
321.095484547581 1.77729
325.101000076747 1.8469
327.124156819325 2.80921
333.143345825485 1.14863
343.114872500978 3.23531
344.109940595966 0.74234
345.133066136403 1.46523
351.146469052733 1.13122
353.097749652183 1.15718
354.106741877028 0.91744
361.127600493496 11.5542
362.129944201382 0.87133
363.141167966422 2.69785
371.101915006063 3.06206
373.120032315061 1.46375
375.760629360292 0.936604
389.120782725155 9.30358
390.124823785721 20.5017
391.138944845257 0.86123
407.135731548391 5.7748
408.134564048595 55.674
408.587046596955 0.911853
409.147395711193 49.3705
425.143865709165 100.0
425.323469481434 1.44485
425.464741093931 0.788561
425.529701186733 0.888415
425.618857958802 0.799574
425.844376047198 0.761499
425.911877473022 0.750652

>collision 20.0
69.0716800248551 2.69195
77.0363559547203 2.40424
87.0775362271338 2.15985
95.0796318183277 2.35139
107.083559984302 2.25809
113.096153744868 3.84951
137.057615314516 3.35181
143.035214579329 2.26676
145.066654620029 4.14029
145.092762360189 3.00558
167.086839859198 4.94284
169.058592803118 2.16281
171.074847935067 5.3394
175.108618104969 4.29087
177.092393710377 2.77755
187.101172909218 5.51473
189.12627594092 3.85129
191.027716192608 4.85541
197.093871554143 2.19545
201.093407582021 4.01379
201.130035564588 2.93291
203.065914952239 7.23312
203.098115362713 4.09466
205.044454886735 4.81934
207.032464208694 2.35259
209.133755564081 4.52255
213.093099592285 9.86802
213.120458350504 7.90382
215.107409892455 7.05585
215.136215356293 4.25517
219.090624636132 5.01987
221.137918115986 3.45116
225.084245235909 4.00413
225.118533314655 2.91045
227.140830979912 5.38842
229.083822448286 7.33844
230.101976563159 2.95437
231.066705207104 3.17039
231.099866913825 3.87252
233.068302177597 3.58021
239.067308903062 2.36308
241.081584993922 4.67809
243.14073820514 6.3725
245.075393814835 7.20544
249.06783408396 3.82164
249.102414179176 3.00478
251.099066104846 2.47595
253.124807281036 5.98126
255.129151551691 4.05299
257.083930474582 8.222
259.088126729021 11.3333
261.038883760431 3.68171
261.147366121833 5.47687
263.097655599099 6.25481
265.106353113623 5.83835
269.116871571159 6.94701
271.11834489143 12.8
273.060631554363 2.72354
273.106713821475 3.63242
273.141804630574 3.23198
275.092113767407 15.5622
277.108412921663 2.29632
281.11153804005 6.17981
283.124405561119 2.99602
285.075139350191 3.07233
287.125466811401 9.968
288.129985181997 3.43897
289.119341695541 6.67557
290.136780423736 3.17641
291.051675642735 3.48898
291.098217484102 2.73022
297.103886438869 5.41882
299.124442403999 18.0508
300.095172265018 2.19213
301.049527018048 4.22755
301.131373499803 5.09997
303.08015984581 6.52966
303.116073108196 5.2535
305.100635261047 12.9063
309.102684407352 2.48037
313.072125804431 2.74166
315.117218029553 11.0578
317.136406028674 6.04573
319.044336558665 4.95375
319.161058785161 2.48037
321.095499699289 6.4619
324.483184645428 2.78288
325.101253466327 7.67666
326.111368826023 5.16672
327.12036385534 14.0864
329.129443465264 3.55026
335.144598911953 3.24114
337.049163414244 4.41749
343.111982826396 11.0672
344.123434524425 5.50456
345.135570520461 22.9198
347.142813686691 8.10197
350.136088631591 2.14406
353.093148502183 2.38484
356.005627591244 2.99914
361.126086982134 48.4384
362.129760454368 14.4655
363.141645716366 14.481
371.107574385517 6.59001
373.119693514273 12.8491
389.119164630642 16.9491
390.123776804331 75.134
391.130428602626 6.97922
407.124958096749 4.84265
408.134939775035 19.4389
409.147550190159 100.0
425.137094096855 19.4294

>collision 40.0
43.0234647098009 15.5967
43.0544516371249 47.6436
45.0358193528396 15.8938
55.0563524490068 52.5507
57.0701225574423 29.6009
58.0728908656053 38.8951
69.034770508411 16.6384
81.0313368416836 20.4783
83.0844443919061 13.0076
95.0444754804998 16.6843
95.0879242599452 58.09
97.0715783326689 17.5007
105.066515061771 27.135
107.083553943251 16.569
109.067346941299 15.4266
113.026088987491 27.3689
119.084098092775 37.4776
129.070987287457 28.5765
130.075890998694 18.09
134.06986741316 18.1557
138.058305453728 18.311
142.077372060041 14.8733
143.095255241643 18.2401
145.055131319448 26.1791
145.098041135611 33.058
147.059196111474 20.8857
151.04060582996 29.5169
155.055374060552 29.4656
156.095620929751 20.9898
157.096711409913 66.7916
159.07539066789 22.3661
159.117444122823 22.855
161.014247591509 23.1198
161.096561662567 15.9208
163.039765733165 18.4784
164.085813104985 15.5925
165.024329927346 14.753
165.06235167837 18.2022
165.130686729034 13.5793
167.08252276692 16.6327
171.110895450605 44.9875
173.098048766936 22.263
180.09068652329 19.9543
181.108245121937 13.6252
183.081314057602 27.8716
184.096879067367 24.8494
185.094042023223 87.4913
187.058797666367 25.3059
187.101171868775 24.1677
187.148277534585 17.8653
188.06957586735 15.2645
191.035183272608 20.0954
192.109088989075 14.2791
193.044325143605 22.4373
195.095960654333 36.0143
196.083229954619 15.8821
197.09132084277 37.5715
197.124813973407 29.5595
199.088472195826 34.252
199.136150273849 13.4497
201.089844393099 100.0
203.06906034943 15.2456
204.065516741398 13.9
205.040127887522 27.3087
207.112086980685 32.4358
211.090595893217 20.4954
212.071953586678 15.9208
213.102895097919 55.4494
214.098163725379 35.6756
215.132864148492 32.891
217.126427601967 13.4902
221.046509351945 21.6952
223.112229725655 28.1551
224.115837387559 21.0467
225.046646880839 14.6245
225.127854034852 41.8236
227.110445847956 43.5473
228.074810356837 37.0323
228.117542425565 13.3239
229.088282263699 96.9048
230.083012063538 26.2801
231.027188512686 32.5749
231.095906933836 32.2115
235.116660261335 31.5403
236.124657976328 15.7723
237.083075044765 14.676
237.134645661425 46.6834
240.081750842942 18.1894
241.107274259859 44.8688
243.028613824077 24.4889
243.105200445145 22.3621
246.040399019758 20.2066
249.072206931068 13.2876
253.123761757086 15.8803
259.112171299351 35.5734
261.120988764973 39.22
263.103338470408 20.5256
265.132310565077 31.4396
268.072599704071 16.6758
269.11157425205 22.7591
270.127474983527 13.8078
271.13911806699 14.5867
277.021023034306 14.0021
280.107755410957 19.8227
281.111842598257 16.4576
285.072646426962 12.9698
287.105009852221 21.7814
305.097547085713 41.9339
317.131008933084 34.3653
343.107980876036 13.984

