>compound Ginkgolide C
>formula C20H24O11
>parentmass 441.137536730668
>charge 1

>ms1peaks
275.048879042306 0.568476
307.04441523221 0.630229
325.051703705714 0.647215
395.130255384173 1.5095
425.141698588309 0.681091
441.137536730668 100.0
441.313651653511 2.13854
441.425964458492 0.984706
441.518318702382 0.634753
441.663447021393 0.573636
441.74691718622 0.51046
441.922662938322 0.765994

>collision 10.0
57.0702474268145 1.75262
141.094071930317 0.599718
161.063237585764 0.544302
177.056092328208 0.917694
203.072625891096 0.648551
213.123040809177 0.584023
233.04521789761 0.660458
241.132766295958 0.536616
247.064108915635 1.24835
251.065710459937 0.592195
257.105881133558 0.889274
265.072178748351 0.554522
275.051965415383 1.81831
275.090344469789 0.976984
281.068216379629 0.60864
287.13222714027 0.952556
303.127774232608 0.660072
305.146201372259 0.688277
307.051109414931 1.26438
309.050202002978 0.530692
321.069627133924 1.24908
321.134295942112 0.946211
325.058016810868 5.41604
331.119612735418 2.0772
333.142452516996 0.532193
339.069275949703 0.507904
349.125191854652 2.27665
353.051715126764 4.05598
359.123199416148 0.968032
366.128399241105 0.505866
367.068745825961 0.555241
367.139688703251 1.55211
377.126459129846 3.31751
395.140112116607 4.33565
405.117842671498 2.42473
423.137404155216 0.845333
425.145191866108 5.24007
441.14124999547 100.0
441.516150941179 0.659268
441.67163056383 0.62838
441.781577965606 0.858629
441.886230539927 0.716917

>collision 20.0
57.0701377698349 11.3055
71.0885410578841 3.96568
79.0548401656254 2.72767
93.0310775994989 2.69663
97.0594488588997 3.74565
107.086342579906 3.29851
111.043389241188 1.89595
121.024724458287 2.92399
121.065085207629 4.21169
123.039143122296 3.47871
123.080775120957 2.28864
127.074002066311 5.23712
139.032117086279 1.88922
151.038285852779 3.48197
152.059652980913 2.23155
153.056723817649 3.00442
157.058482848381 2.71532
165.017974539325 3.14214
165.084095652692 4.05026
171.123442766031 2.08018
175.057779105644 3.48851
177.050688520871 11.5507
179.09354178556 3.21393
185.098507628884 3.07949
186.061019455511 2.24375
187.066896667591 1.9008
189.049468893158 2.65415
189.093229825506 2.33197
191.101769589893 4.8386
193.04648179908 3.81777
195.03355390552 8.14796
201.080671849722 3.79307
201.12217350002 2.09279
203.067772648928 13.5979
205.048606300754 16.0183
206.23612206783 3.17881
209.041027291964 2.25267
211.017291573317 2.15967
211.111858188432 2.371
213.136841163728 2.44526
215.139368962935 2.53469
217.082119986317 7.99126
217.112986621414 4.15608
219.041995261811 4.0125
221.049305175433 5.33659
223.063168516028 6.08955
223.103135414409 5.26105
229.044772677013 12.3456
229.085878037676 3.58401
231.058941903834 13.2215
231.12400794035 8.45575
233.043932179163 28.5446
237.042226257596 11.0672
239.051083083589 3.68964
239.102287113064 3.39507
241.121020888601 3.04576
243.018070460168 2.84936
243.141237663418 3.11702
245.044813511826 3.98832
247.058412538295 15.3301
247.895672607703 3.44915
251.053245462093 21.2513
257.041908289891 8.68077
259.094571564203 3.41471
261.034337498305 9.48453
261.110981277467 2.07796
263.087887411209 2.18664
265.060273935334 10.6695
266.815395173238 3.25751
267.093965460337 3.12345
269.11077242954 4.24853
275.054491011348 24.9795
275.12353664825 4.6293
275.204602743884 1.92364
279.051926799699 8.1368
279.113077195863 5.84598
281.086341715989 5.24005
285.104663407678 4.30753
287.122838829372 7.74186
293.066152893844 11.9974
295.131205852411 2.17737
298.097473919848 2.40848
303.062359038314 3.76605
303.118747904117 7.89181
307.041541559753 45.0891
309.050613121361 9.08234
311.071455262743 7.19102
313.094467361208 3.6991
315.113249128575 3.5508
315.158731568671 2.04165
321.061359922457 8.27055
321.134849334074 15.5803
325.05319476206 95.3369
331.11247711212 5.52308
333.124019617604 2.97528
337.05220001205 5.99588
339.073502558279 8.35561
349.126912371099 20.1727
351.134551567458 3.77725
353.045522239483 32.7702
353.179012947218 1.91479
359.110127970123 8.46502
361.142307425933 2.13944
363.087463702096 2.30265
363.127447669246 2.01805
366.123546871484 7.00792
367.134254151868 15.0789
369.098961959193 2.22919
377.122231040408 22.9951
377.263563818121 2.09279
379.124801941039 2.70184
382.320906819675 1.94134
385.06825634007 2.2765
387.106123722126 3.269
389.121011174643 2.35509
395.125677380292 15.6281
405.113866731745 11.3095
423.132496447341 3.68275
425.139074596373 23.0365
441.135341044075 100.0
441.297520984087 4.82634

>collision 40.0
43.0556118028625 5.89108
55.0166189162857 4.12083
55.0525579455612 6.25106
57.0704502256426 43.9743
59.0481137521705 4.26092
67.0552851003605 2.99919
71.0838077273356 5.65183
79.053297455106 2.79761
83.0134591220141 6.08106
83.0906154571913 5.16808
95.0823528077164 3.19658
105.029985088807 6.37568
105.065987655019 7.28753
107.051130916815 3.68554
109.065200983869 3.59523
111.044271029415 3.69449
115.049848816873 3.78196
119.044419724735 8.83576
119.075476326258 2.6167
121.026129639558 5.81324
121.06307668003 7.44513
123.044258752479 5.09115
127.024791808417 5.52728
129.068011305019 5.40119
131.044997990342 4.63267
133.022665025631 5.14024
133.057058772995 3.23489
133.0940900262 2.73527
135.041595172708 5.76396
139.036199524766 2.93145
144.090064243785 5.37383
145.065235247269 8.07686
147.037550124692 3.66493
147.081204069841 7.09313
149.01822877836 9.72057
149.060554412705 24.5537
151.039822897971 9.82888
153.017623557045 3.05656
153.057056943161 6.60657
155.032500464666 4.51782
157.094321944403 4.98076
161.057076073166 16.5362
161.090326962772 9.37486
161.127478742207 3.18613
163.046984400533 7.32689
165.016301419575 12.3589
165.053990264978 10.0144
167.034017467577 12.5464
171.08057262775 2.86985
173.057515279018 9.99187
175.072450986351 26.076
177.053488778762 100.0
178.028864733425 6.48729
179.033783382727 8.83834
179.065413587793 5.34814
181.060805619916 2.73244
183.038580283808 6.95746
183.116549446834 5.78976
185.057140078158 11.1069
185.100260718086 2.90978
187.058316833671 2.86914
189.053016396966 14.7126
189.091130246956 4.61706
189.116078216657 3.39203
191.030935507111 19.3173
191.063937221966 13.5434
193.047037424363 5.51281
193.097102825076 11.119
195.031635741904 61.3321
198.105477810548 3.34868
199.030755290808 3.8757
201.052617233328 16.8786
201.119433944585 6.68436
203.069083522615 11.5456
205.049339146253 40.7134
206.054301698387 3.07973
207.067724551205 8.38182
209.047915300395 4.49634
213.058515618567 5.02411
215.041847807619 11.9648
217.051467790594 9.26873
218.06092931535 2.95559
219.050077034801 11.017
221.042202658725 2.74944
223.070669644254 3.77337
229.063873367662 8.42861
231.063906458673 4.74668
233.043692876341 25.3085
235.052012988309 2.91277
237.040822041707 4.986
241.043839825867 3.20961
243.025022023465 7.89018
245.039310415681 2.89488
247.061548755676 19.387
249.034569637586 3.92139
251.053663092246 26.2837
253.117442929785 3.18651
257.038457707066 2.86155
259.104654945713 2.93145
261.033426039894 7.55186
263.050913407219 7.7926
275.086622283103 5.74641
285.115071646166 3.20961
303.109960436234 3.64942
307.045975638586 11.6903
309.061783564112 4.84838
325.054397201659 13.7323
351.143727653831 3.39595

