>compound Ginkgolide J
>formula C20H24O10
>parentmass 425.141660248242
>charge 1

>ms1peaks
333.132223439189 0.650406
425.141660248242 100.0
425.325506003456 1.46737
425.46867522641 1.21766
425.52442777083 0.624615
425.611949892561 0.545026
425.69709545462 0.571943
425.848382866149 0.843379

>collision 10.0
81.1767342463477 0.911712
111.044972137127 0.616975
163.078154941903 0.57309
203.146759592897 0.702576
231.055215224523 0.924089
235.059726040525 0.691556
259.130864337892 0.738498
263.053539882409 0.526971
269.105270084774 1.71124
271.125928990254 0.887163
277.064834592569 0.596294
287.116270319656 0.87012
295.082597061067 0.617886
305.05942259545 0.864571
305.12871786922 0.59371
309.06153778359 3.91728
315.123157548481 0.566871
333.127839652733 2.62146
335.146209046088 1.92809
337.050223475684 1.45036
350.133568939229 1.62753
351.142034059384 1.68115
361.128493246367 1.28322
363.141368251692 0.995465
369.073006610288 0.613971
379.129772748293 2.56033
389.11941866725 0.823168
407.127187738815 1.58514
425.140593186321 100.0
425.328434326375 1.31162
425.405801720064 0.703605
425.491206178925 0.559823
425.647917202007 0.551203
425.73783704276 0.872358
426.02348430523 0.541028
426.141483045061 1.68687

>collision 20.0
57.0706310377052 15.1984
83.0847682783436 4.99149
95.0814702545683 2.39396
111.084122427235 5.28857
119.042483890498 2.39571
128.067570799826 3.51426
133.059797128178 5.10131
145.096280548307 4.13167
147.042069890566 4.19404
161.069436509009 5.47631
171.11782996358 2.36478
175.071418835511 2.19642
176.084269071751 2.91719
177.060870313158 2.41835
179.051246200163 9.3928
191.064850138767 5.69931
193.04354886334 2.83959
193.116524331102 2.74552
199.089297764344 2.80665
203.069668565616 2.39999
205.043895200969 4.50022
205.076837183217 3.76337
207.05681213886 2.35713
213.05838206912 3.79016
215.06741609812 6.44319
223.106807754498 2.21502
229.117488175375 2.95406
231.056670675642 3.60266
235.066888629244 13.9631
245.088768312556 6.83032
247.088114411869 2.45242
249.07415401085 7.54745
253.118296242695 6.92533
259.141599298773 7.4097
263.053890054357 9.65161
269.107337637397 5.77975
275.073309163146 2.32929
277.06428069915 2.97487
281.076831545662 2.73308
287.053737157871 6.82611
287.128885107209 8.48115
289.06365300528 4.84108
295.078740305197 2.89954
297.115075119535 2.29171
299.118791863742 2.2232
305.07648693585 12.2702
305.134849017622 11.1045
307.108791546449 2.84596
309.06096599208 82.2144
310.046848877184 2.48436
315.122580854957 9.40908
317.128596697369 5.85728
319.089161237506 2.30356
323.084216967256 2.87573
323.143047280716 2.47642
325.102964056475 5.2044
331.04563687809 2.35757
333.059556403443 4.12576
333.137616509059 18.9363
335.151380725186 12.4721
335.43620464871 2.35954
337.05750479686 14.244
343.111390343484 4.79784
350.134419779959 12.757
351.141555655242 30.3397
361.127544983244 22.6928
379.135825188679 15.7936
389.126426280029 6.23947
407.138663287606 5.48783
425.144139876166 100.0
425.335716728289 2.23147

>collision 40.0
41.0387284376368 13.9713
43.0553871508326 15.383
53.0380727475966 12.7882
57.0334843434611 23.5186
57.069939944035 89.9099
57.1059996200957 7.99177
69.0308114104806 6.85917
71.0868073263011 6.66129
77.0376437714127 25.447
81.0733471492788 11.1951
83.0815239418639 9.84289
91.0565511091707 19.9694
93.0278453349299 6.77285
95.0494114913204 7.969
95.0854582186826 11.7956
97.0616329964906 6.77
105.035368262031 10.855
105.069888174774 34.8022
107.048210222667 8.27379
109.026274509481 14.8791
109.056791236331 9.74095
111.04096336441 7.67324
111.078509953553 34.2063
115.052498230734 6.87874
117.068498558726 6.85253
119.047298092122 13.3465
119.080832302699 10.8565
121.029732810235 8.94414
121.064278706994 26.9323
123.008604443431 7.81002
123.07379647757 20.7491
129.064131463719 8.30522
131.046149091377 8.64101
133.063897877726 43.8819
135.03722843924 9.40304
139.031749811288 9.24381
143.047286640931 16.8472
145.025929070549 16.1847
145.060835574831 25.183
145.090183948157 19.9799
147.043020321356 18.0472
147.068852247484 15.3818
149.053521311439 29.8111
151.050057194057 22.156
153.05242192183 16.5886
155.061051658737 6.94814
157.059150424804 20.7113
157.097554130607 9.42852
159.038987330384 10.2085
159.073873316123 22.2929
161.058326550571 100.0
161.4120461122 6.61349
163.077426306744 19.4496
167.030239718201 6.53485
167.089083583202 7.6524
171.074202205101 7.28192
173.052707389368 12.4302
173.0907068932 6.567
175.07497913422 34.2529
177.046809848519 10.8372
179.06409394483 39.6258
181.08881833531 12.7529
184.554989537505 8.13406
185.055340752036 6.88838
185.0944786546 10.7998
187.0722097842 22.3043
189.052842226015 75.7979
191.073453798025 30.6596
197.047412757291 16.7585
197.121601646249 6.87245
201.059338632646 14.5055
203.073133377861 17.2534
205.044230062795 11.3967
207.061590669616 46.6738
208.058329966522 10.1227
211.108613193644 8.58015
213.126305162086 7.77454
215.025805763548 10.39
215.071400053065 20.0906
217.053481400759 8.76486
217.120716131952 8.44731
219.062710751086 13.4749
223.1000949244 6.69317
229.010692893178 7.29537
231.061248665933 17.7488
231.136789563105 12.7825
235.059410672723 60.2391
241.116339747664 14.4871
243.124168833792 11.635
243.148840855961 8.45942
245.048739107139 32.1976
245.119768820323 7.81154
255.099399279893 11.5994
259.133689538769 7.88041
261.069745170689 8.21848
263.05565518576 9.70395
269.10845324904 7.03845
273.102671147193 8.96672
309.059455540792 24.7031
315.113092724543 7.42552
333.113212922873 8.44719

