>compound Neoabietic acid
>formula C20H30O2
>parentmass 303.231068454627
>charge 1

>ms1peaks
93.0685924708064 0.842072
123.116464815857 2.43763
133.098214636779 0.519429
135.1185593466 0.655616
137.131150279967 0.586978
149.135736050245 0.615857
225.010235474707 8.66575
257.226788366255 1.4097
285.225418379833 0.793364
302.220932102985 2.08346
303.024952635365 4.86951
303.231603395962 100.0
303.367138320367 0.812662
303.638675500783 0.594233
303.789525691475 0.504162

>collision 10.0
43.0582974119693 1.0507
69.0711036783684 1.24057
79.0557857543656 1.66458
81.070012007927 1.55331
93.0716483984442 1.30878
95.0834370411015 0.590256
99.0794637799676 0.556179
103.007106396345 0.92473
105.069877014525 1.32412
107.086216656661 2.03308
109.101505815779 11.3159
121.097759694469 6.61945
123.116225042648 54.0101
128.058866527966 0.882534
131.082575806753 0.637752
133.102137124805 1.22607
135.116363103736 16.7818
137.131794039882 9.30612
139.112321761247 3.44876
146.996950413619 7.46359
147.115531478272 1.75866
149.131547243007 16.5732
160.121953682978 0.515816
161.132361525792 0.723664
163.149878113626 0.644205
167.105857434534 4.74134
173.131787425557 1.10741
175.148039961765 0.657714
179.10456568076 4.28119
193.122098295939 2.99111
194.95338098534 0.533664
195.137584448323 0.802359
201.160795431642 0.683554
211.1507087813 1.18634
215.17654875607 1.03257
219.135033967638 1.31805
225.007366909816 17.6464
225.165572529169 0.554212
229.161058639614 0.712631
247.160347885921 0.954538
256.212082884753 1.14575
257.225248019194 25.6544
257.796137604503 0.597293
258.078426109233 0.607538
267.209334786868 2.16397
284.209676998104 0.575749
285.220305124884 7.72007
302.112503153057 0.548995
302.220586669687 5.6387
302.29957019131 0.857568
303.140937085784 1.54993
303.231068454627 100.0
303.390582633724 0.526696
303.456686219329 0.572557
303.565995157403 0.697422
303.687251442782 0.655276
303.788367749767 0.5918
304.163860493042 0.501215

>collision 20.0
43.0195696094099 2.77161
43.0558415419758 0.812849
55.0552818066853 2.19744
57.0693465634892 1.13946
67.0540050173398 2.12111
69.0694254862132 8.32515
77.0382365364924 2.2701
79.0526133197482 4.27248
79.7123397934178 1.18411
81.070246293036 17.924
81.794220193944 0.813823
83.0852363320305 1.39715
93.0705324819053 27.1047
95.084071388908 8.81296
95.1134767919415 1.08124
97.0645505048848 1.01666
97.0977651620745 0.764207
103.00405542577 3.36361
105.071534666805 5.39755
107.085492540516 20.7526
109.10014837708 34.7431
111.120351467661 2.37486
119.081910560048 3.50586
121.100795341366 49.0359
122.017505322707 0.951097
122.167279668675 0.808466
123.116404980831 100.0
123.218084149992 0.783197
123.497169040278 0.926476
124.125852687432 1.03467
125.430077847436 1.00559
126.11692422168 0.775008
133.099981746663 11.0158
134.101825240823 1.25997
135.115864244775 59.1254
137.131267668596 24.926
139.070343426068 0.902656
139.110574888762 25.0657
144.084218726636 1.45467
145.100597277954 1.87951
146.995500572379 35.4053
147.114180433449 7.56583
149.131204529924 67.8399
151.110902697923 0.759387
155.085511759126 1.6548
157.179527563455 0.7272
159.114831804836 3.80549
161.129990062654 4.03343
165.086904370212 1.26121
167.104963188315 18.8198
173.13203966189 5.19051
175.139078305105 1.67478
177.127556565505 1.20439
179.10384513692 1.60431
179.404976571588 0.75397
181.121861355994 0.897595
186.136138002794 0.831266
187.144303926353 3.35026
188.149883675957 0.999205
193.118714943488 3.45595
194.129663519182 0.899292
201.161143505345 11.2851
205.124529500647 1.09889
211.145170693577 2.5507
215.173324895075 1.7321
219.130316429879 2.87926
225.008440914534 8.12816
227.182319720678 0.961727
229.152123128323 2.32106
229.187808644613 1.32883
247.166492352405 3.62408
256.202491572998 2.19368
257.224434172327 35.174
257.303847156255 1.04717
267.210735655181 2.00557
285.219139987828 9.96728
302.137116315117 0.932932
303.229351524346 8.66766

>collision 40.0
41.0401488995531 4.40859
43.0196682324305 25.6634
43.0555564678306 30.0837
55.0541109306806 30.6416
57.0336055491595 1.83057
57.0704702131272 13.8385
59.0485309208361 2.79949
65.0396480650172 2.0226
67.0540824324401 23.8107
69.0708243094136 18.0781
77.0382636520677 20.2235
79.0553374490995 48.3501
81.0704028189929 82.3707
81.6815926057854 1.47212
82.7773208836207 1.37135
83.053285299895 1.85369
83.0880192590418 2.93411
87.9824419773165 2.40116
91.0551358250262 29.1274
93.0688255542371 100.0
95.0850071061943 26.5111
97.068893587282 1.68699
103.005630966353 50.3511
103.055997997246 2.42073
105.069308416665 54.0472
106.072992282069 3.92551
107.085577014917 62.6252
108.091824105385 1.42715
109.101066814424 19.0836
111.079630293049 2.78966
117.074599673029 3.23347
119.085119671973 15.1794
120.090753732985 1.3821
121.100646463868 93.5189
121.159026233241 2.22433
123.078005544757 1.37323
123.115807758627 33.4804
125.060793018103 2.50857
125.093911744956 1.65409
129.069166530576 2.20969
131.082759110587 7.88936
133.100652097141 7.5491
135.114901548116 18.4103
139.109725145072 7.19429
143.081604619417 5.45316
145.098844405464 6.26204
146.996559317097 9.53493
147.116269663907 9.00669
149.128750049917 8.09081
157.098102390464 2.98165
159.117241585277 2.36531
161.128295997494 1.67242
173.12955084886 5.87887
187.146298914078 2.00637
199.151643573394 1.68047
201.164004380379 2.3646
226.167864641147 1.41898

