>compound Azadirachtin A
>formula C35H44O16
>parentmass 743.255350950261
>charge 1

>ms1peaks
725.244435033783 0.558872
742.37932478492 0.503519
742.787162073323 0.569862
743.255350950261 100.0
743.807608096403 1.17668
744.086756039152 0.561999
773.08675603915 1.0e-13

>collision 10.0
725.244894774832 4.23895
743.255542657772 100.0
743.62876603889 0.867164
743.760367616761 1.04859
743.925922652927 0.879456
744.060801856498 0.879936
773.0608018565 1.0e-13

>collision 20.0
531.181409000156 0.585907
625.184559906353 0.910328
631.197884041355 0.654436
664.442139846274 0.521145
665.21882725043 0.677254
725.237971008853 22.1184
726.26150794446 0.500319
743.248115024364 100.0
743.571720423888 0.848785
743.684915110872 0.674284
743.887641101927 0.673878
772.88764110193 1.0e-13

>collision 40.0
83.0471607887694 0.569414
106.083676088841 0.884893
147.120913083992 0.606238
183.086119758556 0.974661
213.096717536466 0.641666
215.074767549845 0.756978
217.044877458858 0.519749
229.085294857409 1.40834
241.057396789957 0.509554
245.092180819581 0.536437
255.113538967124 0.544483
275.073987735473 0.726889
283.091095424852 0.726469
321.095922267899 0.619045
327.117572409648 0.558825
343.111830219434 3.32151
345.135586855018 2.66695
371.119898984895 0.519619
399.14473368584 1.52553
405.138053742102 0.600154
423.139222268073 0.556738
443.134352891304 0.556654
447.141492880366 0.669207
449.145663557646 0.889218
461.17520943748 0.977759
471.163953588997 4.67198
485.113139768627 0.559849
487.163630353601 0.787679
489.154668933649 0.822306
496.263837317655 0.785256
505.13818715629 1.13322
507.170204984713 0.580963
519.193810815676 0.646956
521.188159332284 1.04101
523.160327629779 0.557701
531.182135613461 5.91034
535.156557798025 3.02714
537.196214948219 0.652034
542.177680644937 0.884172
543.190824752727 1.45086
545.180468253569 0.830279
547.185593208387 1.72287
549.18535152421 2.85882
551.185257674952 0.539905
553.171587424804 0.55875
565.169205224292 10.4479
583.191065164357 1.43549
589.193823214838 0.696424
595.188116928855 1.10868
597.193845891333 0.52243
602.194436229598 1.67373
603.205022910107 3.59365
603.29600945376 0.531313
605.196755032726 1.6417
623.195555220114 0.684514
625.191848667428 21.0966
626.004792303692 0.634407
631.206007839027 2.34241
637.231530588486 1.6244
643.21331617159 3.34921
649.218059414053 2.61867
665.224835865509 26.6891
665.433166965396 0.737297
666.202570719831 0.579734
667.227272833426 1.08167
683.233124762939 7.6003
683.987307384604 0.537583
693.199688181075 0.544862
697.250278115226 4.1112
707.232549408555 0.583239
725.242285044388 100.0
725.546390087003 1.33632
725.626257401351 0.945726
725.797008579967 1.15696
726.17187764329 1.37769
726.465869712084 0.952261
726.63081099508 0.751719
726.717434410748 0.597557
726.994685400342 0.756252
743.255365704506 22.7603
743.448047063599 1.34617
743.950042545615 0.559745
772.95004254562 1.0e-13

