>compound Mesaconic acid
>formula C5H6O4
>parentmass 131.033943028838
>charge 1

>ms1peaks
62.9934103018065 0.50312
68.4532709664646 0.575125
68.9531743390452 4.40062
85.0292870412636 15.8052
88.9663727717416 3.98165
89.465787825535 40.58
90.0073785008859 3.13274
91.0050912163818 0.908294
109.479801057771 3.33151
109.979206646409 33.5958
110.481100422181 1.54954
110.518744547291 8.58853
113.023028489128 10.2141
130.00928506881 7.88511
130.159548503587 0.791019
130.493696460498 8.98211
131.034036441598 100.0

>collision 10.0
29.0008637439444 1.24956
29.0376469821437 1.08877
39.0234627201665 0.914004
41.0390683413473 1.98373
43.0193810924749 4.32523
44.9925306718205 0.91544
45.0334014778707 0.794075
57.0342461814977 21.583
60.0033941027697 0.729914
67.01874786768 2.76562
67.9552231340628 0.96307
68.4524480634049 11.562
68.9525549927377 62.5105
75.9810127984187 0.687648
81.9900329319255 2.78445
82.4962253819706 6.62428
82.9911237844881 0.572549
83.4913042181417 3.34127
85.0291084848376 100.0
85.0915376610696 0.90014
85.1155293315469 0.606692
86.0196255816904 1.41397
88.4654449337337 0.68167
88.9690642230322 14.8626
89.465582808506 80.4224
89.9665816558455 1.51435
90.006746501086 11.3361
90.0569949048946 0.763166
90.5070552389773 0.588247
91.0035894968675 4.17261
91.5042683562505 1.30096
100.005891082642 0.594592
109.97395097355 0.643041
113.023111423229 19.1425
122.500070000954 1.08853
130.005724801933 0.508694
130.158229082548 1.21661
131.033943028838 20.7677
131.087499011947 0.555404

>collision 20.0
29.003339096501 0.910715
29.0397053650349 3.78324
31.0187476087592 0.718749
39.0249555067053 2.00769
41.0394858835516 5.00923
43.0191463726515 7.03028
44.993206339129 1.77253
46.9976699443893 0.621995
57.0347987630799 13.7322
58.9887638119016 1.28935
59.0523763840963 0.843328
60.9874692391458 1.67558
61.0118912331042 0.664796
62.9893273431279 1.35347
66.966642928442 0.752141
67.0189659113231 6.72476
67.9516536680983 1.89402
68.4531252177919 13.0534
68.9527049376516 100.0
74.4807468928978 2.04052
74.9830343336082 1.73936
81.9930859414106 3.42617
82.4940005384368 4.28603
82.9903686718066 1.12588
83.4917857688077 3.41161
85.0284356677286 17.9111
87.021257597372 1.04079
88.9717562497645 2.25623
89.466033167322 11.511
90.0053547842623 0.892423
101.9973316105 0.541977
103.996471148117 0.823105
113.021889284842 2.36381

>collision 40.0
29.0021189550655 0.61203
31.0191086347572 0.618069
38.0143099968025 0.500006
39.0242373237169 8.80071
41.0393543503088 1.11231
43.019046259468 5.75294
44.9961239085689 4.87637
51.4812056241148 0.511862
60.987677416756 3.32185
62.9904982142197 3.37548
67.0182591049593 4.3756
67.9523071003291 1.11069
68.4527034201633 13.5124
68.9528818497857 100.0
69.017996019908 0.848988
70.0654269886931 0.637703
73.9777409624036 1.17433
74.9718105817567 0.639817
85.0254981422501 0.53858
86.9752241480904 0.854869

