>compound 2-Aminoethylphosphonic acid
>formula C2H8NO3P
>parentmass 126.030721353972
>charge 1

>ms1peaks
84.960680781371 2.44299
109.004487516896 4.25771
125.078969630484 1.98647
126.030888372261 100.0
126.094207445496 1.5252

>collision 10.0
51.0175395887335 1.037
57.934774919824 1.41973
78.9949902991515 2.37841
79.990278555689 1.08215
80.973597552194 22.0467
84.9456042473561 1.79232
84.9588189284626 1.99897
90.9945163945628 8.91352
96.9901989677138 0.55205
97.0048529156244 14.1742
107.068300781185 2.31654
108.01958650835 7.49686
109.004603910672 100.0
109.063755655942 1.11922
109.122745613752 0.537427
109.163368548403 0.503626
109.59609002584 0.774619
109.665975903932 0.833809
110.793395681679 0.53874
125.074580276798 0.755041
126.030721353972 95.4525
126.079341581399 1.51498
126.371606981298 0.540836

>collision 20.0
46.9682502122103 1.8338
52.0258539114638 1.05842
62.9621939903378 3.70846
64.9785347572507 6.37777
78.9939559667127 37.7568
79.0344918849545 2.03769
79.9894200263976 8.19309
80.0570057114004 0.852673
80.3106745226331 0.594513
80.9739127960146 100.0
81.0120897563849 1.23531
81.0654348488529 0.613011
81.1216742596362 0.729427
84.0440628966788 0.976122
90.0382532866609 0.875317
90.9938828770472 21.793
97.0044533979509 15.3624
97.4501919555565 0.573047
98.6841960101295 0.577735
106.064884316914 1.27945
107.069451866643 2.7155
109.004939607757 62.8005
109.311903603767 0.627557
126.030021856903 1.07738

>collision 40.0
46.9678671799141 39.6724
48.9827016723226 2.4219
52.0244568765845 1.10654
52.9393852727867 1.61895
54.0427002789098 2.98139
57.9354294617692 3.33743
62.9629185200386 98.9684
62.9956974200882 1.18728
63.0582973279104 0.965989
63.1362200235168 1.0412
63.2743176983318 0.884936
64.9791079045923 11.1372
67.9342805139148 2.64421
72.0478468866721 0.791686
78.0410345825201 4.8148
78.9939778434007 31.5463
79.036309648138 1.74461
79.9876119784047 2.40034
80.9735515514299 100.0
81.0253488816148 1.47634
90.9945436647032 5.67702
101.728833930567 1.45177

