>compound Maltose
>formula C12H22O11
>parentmass 365.106351024434
>charge 1

>ms1peaks
365.110973060471 100.0
394.11097306047 1.0e-13

>collision 10.0
203.051005727253 0.908545
365.106351024434 100.0
394.10635102443 1.0e-13

>collision 20.0
203.053611062939 5.45059
305.089169353085 1.64257
347.095974813065 2.17438
365.107141750451 100.0
365.348590475937 0.769463
365.418269663002 0.532159
365.495262483692 0.774147
365.549422345492 0.605123
365.662656467901 0.500957
365.934155280519 0.55253
366.099422400266 0.903328
395.09942240027 1.0e-13

>collision 40.0
305.09235542445 100.0
365.101514248776 90.4934
394.10151424878 1.0e-13

