>compound 3-Hydroxyphenylacetic acid
>formula C8H8O3
>parentmass 153.054594193639
>charge 1

>ms1peaks
36.3400561251121 2.29583
107.048545596981 100.0
107.120579343748 2.82349
107.506300769263 1.95932
109.035721231398 3.63788
111.966689910569 2.8215
132.551443489053 3.01094
135.045109524116 10.6125
135.09747034851 1.95956
151.949722981385 3.70432
152.051097185727 5.78238
152.126733421128 5.13604
153.054594193639 54.1859
153.122656603505 3.96728
153.169414704198 3.13073
153.587429949336 4.68342

>collision 10.0
67.0325103420286 1.46192
83.0473671413816 1.26732
107.049295269477 100.0
107.148258463133 1.29779
107.263301559904 1.24223
107.753366169354 1.41868
135.040582236989 1.4259
137.957134471841 1.24052

>collision 20.0
43.0166091842761 0.973242
51.0211358848342 0.842518
55.053464601075 2.12347
68.9792595624744 1.54804
70.9771090495839 2.63895
77.039275647669 15.9084
79.0559089096022 12.2456
83.0431870592164 0.804032
91.0545049329406 1.08121
107.049256502523 100.0
107.144383390355 2.32191
110.070315974396 0.804506
120.078259640155 0.840851
152.055381675958 1.23253

>collision 40.0
30.0341419770033 2.26109
43.018621497754 2.72079
43.0531321633834 1.59642
51.0250750328559 15.991
53.0387453892843 3.82173
55.0179625452494 16.7001
56.9636291591947 2.01065
58.9630874222572 2.95142
63.02225552939 5.6809
77.0388562482712 100.0
77.1072541996268 1.75232
79.0148934490823 2.78761
79.0554448056348 12.4503
81.036700903886 3.17206
107.047061200801 10.4626

