>compound 9-cis-retinal
>formula C20H28O
>parentmass 285.220800336777
>charge 1

>ms1peaks
95.084535835329 0.783037
97.0650095151669 1.18597
97.0992815501472 0.575556
107.085589904519 0.969425
109.068138732635 0.62528
109.1024816196 0.738029
119.086065202774 1.70692
121.066189690832 0.687598
121.100188144537 1.33181
123.116760294891 1.58346
131.084408692248 0.737132
133.100378489353 1.38711
135.080609294038 1.97589
135.111732095969 0.54996
137.0954713874 0.621961
145.09818103691 1.72542
151.11201716854 0.558515
161.095921037365 17.2168
175.147591252375 7.16649
177.165157926486 1.76372
185.137378445906 0.512072
189.164239480989 0.90608
193.158412429233 5.85517
197.128844725823 0.580349
211.151364806762 0.990056
215.180317923923 1.25954
267.208793879229 4.9639
285.220800336777 100.0
285.371331416512 1.10278
285.42979214123 0.523338
285.612776733749 0.526257
285.797229090179 0.596957

>collision 10.0
43.0174303444899 3.65861
45.0325931509104 1.08475
55.053201588291 1.72057
57.0681692787605 0.754257
67.0547125429325 2.25808
69.0380642594525 0.625691
69.0710121598943 6.22663
77.042023120179 1.56974
79.058188399682 0.705213
81.0697361791959 7.14242
83.0495654201317 1.14424
83.0843673060652 4.11139
85.0637849031554 1.59015
91.0530275500635 1.80958
93.0694384748452 4.46885
95.047508492177 1.75355
95.0848342922651 11.9316
97.0638507056984 8.6853
97.1011042008194 7.3124
99.0828504460378 3.34273
105.070634301427 6.77071
107.084882120175 10.2943
107.96559459025 0.5125
109.06553442001 8.37989
109.101260122546 13.7575
111.08039481804 3.95024
111.116348910343 2.1359
119.085131411396 20.0812
119.139703177491 0.65504
121.063945142488 1.48786
121.10025254195 10.5623
123.116511945288 11.9099
125.096457573918 0.670475
131.08706519322 2.84563
133.101185834027 14.7863
135.079092160264 5.53785
135.115587215914 10.1409
137.091952124844 0.742943
137.133242038148 2.73954
139.112469669586 0.726156
143.08433296689 1.87746
145.10106143176 6.71001
146.071977720339 0.914816
147.116120450484 6.09251
149.126999442461 5.11105
151.114656984548 1.67339
155.080101527796 1.71061
157.103343642717 3.45123
159.115862858468 6.06979
161.095389578595 100.0
161.21107055297 1.0571
161.244395508137 0.588134
161.351025868621 0.62378
161.505621539275 0.506795
161.790561238164 0.514991
163.144602390086 2.51537
165.123787305855 1.16456
169.101813417509 2.12938
171.115639841257 2.74033
173.128029891446 2.22251
175.148116050267 60.4638
175.271171070624 0.808131
175.486715044838 0.526347
175.693083758391 0.518408
175.938150586677 0.694992
177.16334308406 11.8156
179.138637532064 0.635101
182.115059825214 0.647035
183.114850775331 2.6454
185.131304376342 8.28625
187.149223324616 1.23418
189.124488233804 0.996616
189.16350567616 2.99408
192.171463927589 0.753222
193.158820094339 17.4083
193.227260844181 0.588425
194.106075976847 0.529425
196.124984460333 0.523391
197.129699232928 5.35055
199.149086197922 3.30508
201.155963009853 1.29257
203.164919439435 1.18224
205.159738975196 1.72484
211.147265615486 11.3901
215.176731430926 7.04057
217.157842547652 1.35072
225.163200082981 1.15016
227.17700067005 0.695608
229.154272341211 0.849357
241.190561743583 0.501492
243.165692615984 0.675508
257.227517009203 1.08708
267.209821338258 10.6319
284.327501124738 1.21568
285.218880109807 18.0668
285.284904469393 1.59513

>collision 20.0
41.0394646927339 8.36295
43.017735880697 10.7223
43.0550000943204 5.29087
55.0550887405007 16.7805
57.0698618298972 2.10982
59.0488193243109 5.12668
63.6894956968138 0.574957
66.0473158804344 0.693683
67.0537158613798 10.7971
69.0316432471998 0.843066
69.0707044183305 52.148
69.1679274920036 0.533042
69.3000552101734 0.571274
69.5334516628863 0.607798
69.6004635489437 0.634737
71.0492496967797 8.58917
71.0818268295041 0.964927
77.0403217619408 2.02408
79.0539661632199 11.6002
80.9504756076106 1.21242
81.0349474666666 0.83677
81.0701899357399 26.0515
81.1149288626035 1.18121
81.222544806683 0.512098
81.6884209221522 0.607146
83.0484628699961 0.561087
83.0843781549397 8.9086
83.1146993937636 0.937975
91.0537809321864 11.8109
91.2643026952923 0.669767
93.0692679341317 18.4016
95.0497595477543 8.21547
95.086101266293 39.6781
95.1518168814867 0.629172
96.7062858502939 0.572713
97.0655653381827 26.5565
97.1340982378277 0.577316
99.0776106986219 5.41376
103.121194342307 1.17821
103.626637609413 0.631659
103.903515415053 0.851754
104.995139499421 0.658445
105.070224502464 44.6595
105.512502271048 0.524042
107.085125998673 34.09
107.176355774077 0.637964
107.545727279476 1.03621
107.775315196278 0.672375
107.967515964177 1.17777
109.064479683917 13.9453
109.101637873154 24.3765
109.387824018777 0.589401
109.456875790683 0.701887
109.941387117146 0.700215
111.080731280726 13.8716
115.054621851503 0.779178
116.058337214521 0.985875
117.066903990126 2.05936
118.477724346151 0.551413
119.085370874415 65.1739
119.14588225406 1.04536
119.185243575608 0.593668
119.396736515013 0.686992
119.518136713391 0.519267
120.255215635961 0.930398
121.100782165001 34.4497
121.203880364697 0.552866
121.46964002273 0.715359
121.543935866737 0.501709
123.079621617373 4.84934
123.118022040899 14.7364
123.464550949101 0.730618
125.094259877846 3.91922
128.068963727729 0.723576
130.070327291352 0.961987
131.048284881048 0.700215
131.087718284492 4.47548
132.049191530189 0.556514
132.092356426891 1.30986
133.101329349677 45.0345
133.2031596256 0.972257
133.245181964476 0.574804
133.583137789823 0.878012
133.736919571094 0.514517
133.882542040792 0.557108
135.079691795224 17.0286
135.114079448925 9.72287
136.578763645888 0.802307
137.095615208315 7.11754
137.131754004032 5.32788
141.071571987939 1.33541
142.076597334415 1.54637
143.082927674748 6.37342
144.090739283698 0.803863
145.101625104702 11.676
145.750638586766 0.530588
146.071052238413 8.88976
146.887591883955 0.571889
147.116850520583 25.207
147.32624159729 0.606205
149.128515832414 1.91012
150.141098908406 0.572486
150.174539755472 0.566965
151.113480548617 2.27556
153.071785847903 1.05135
154.077754404387 1.91253
155.086778171841 3.56378
156.09962946548 1.30415
157.09833096794 7.56843
157.629293651313 0.814806
158.101982580941 0.547293
158.95695691144 0.724766
159.114396438035 14.5388
160.115546477616 1.80829
161.09590514172 75.1477
161.214827351015 0.864691
161.243779902916 0.743274
161.280919998141 0.736234
161.776724302015 0.524801
161.865860708571 0.515398
162.003197773331 0.575754
162.137734049894 1.33569
162.211383725357 0.743424
163.110345353114 1.67045
163.391909479448 0.843074
168.092135978891 0.749272
169.101308379496 4.57363
170.105883325494 0.602329
171.114174816045 1.65173
172.119778568116 1.02872
173.131405172204 6.82365
175.14811606643 100.0
175.259781838898 1.56729
175.30181675102 0.742053
175.699056918852 0.513404
176.15571775411 1.4502
177.118020642489 0.819787
177.165430095745 3.96846
177.425600810694 0.525477
177.519938285411 0.522866
179.143526570717 0.933908
182.107596053712 1.80353
183.114425873055 5.29042
185.131195335257 11.0066
187.147653620015 0.835705
188.156742872548 0.995434
189.164168128609 5.43678
192.170098528412 1.54813
193.162026005374 2.84831
196.127900316529 1.84132
197.132813359392 14.5888
197.606855165812 0.584428
198.13991668037 0.991693
199.146919739159 5.21796
201.127866409319 2.1169
203.169456522504 2.37585
205.162447838821 0.649958
211.143940344527 6.92443
215.174545026879 2.24209
225.161601601963 2.53372
227.178762534601 1.25542
229.160628619232 0.630324
239.029100022918 1.1758
239.17584174977 0.585581
255.172009076649 0.535194
267.211517436989 2.25163
270.204845629784 1.00344
278.787703852576 0.57611
284.327674808125 3.18332

>collision 40.0
38.049368609968 1.40359
39.0205155223767 2.63364
41.0387459203969 42.7353
41.0762219612946 1.2129
41.0972510665137 0.747628
41.2953853003228 0.829556
43.018949433108 15.7688
43.0546519468941 6.66717
45.0381858063941 0.901201
51.0234143995798 1.60935
53.0386262600235 3.04726
55.0217138518836 1.37509
55.0550717379302 48.1699
55.1214755109922 0.830269
55.193847243961 0.614312
57.0067457544186 0.789274
57.0701099865192 6.13746
59.0457273458336 1.05454
60.0831094203719 1.72068
65.0383354062712 7.03133
67.0550544946619 38.1047
67.1311952877797 0.634636
67.1887959371323 0.574877
67.333421386099 0.641837
69.0324582559321 3.2619
69.0707029598945 50.3855
69.1405124465505 0.64025
69.3695731862819 1.05323
71.0482049149866 4.49086
77.0394674673129 18.6394
77.1220339492693 0.61543
79.0539324325276 35.4404
79.1004104214566 0.616234
79.3695757161289 0.833501
79.6133054122072 0.778217
80.05982502109 1.10193
80.949443216514 0.833501
81.0699261609115 42.0611
81.3980058484636 1.10418
81.4758186239152 0.613502
81.5911427988733 0.556423
81.6559784598601 1.0096
82.4547084750133 0.627912
82.599642058323 0.702352
83.0501797403785 0.872148
91.0543122415805 69.038
91.1183458247846 0.869416
91.4014761147277 0.778753
91.4664300729359 0.680571
91.6134553427603 0.695866
91.8950594703771 1.06481
91.9954229762506 0.636668
93.0712515852584 26.6434
95.050366215626 10.9393
95.0858103158594 21.6029
95.1390388265065 0.570094
95.1750940531288 0.626651
95.425693393135 1.1865
97.0661560187716 2.62826
97.523691413963 1.34416
101.357200546681 0.72227
103.054046964527 7.67989
104.061420000381 1.88096
105.0693625919 100.0
105.163342868047 1.41156
105.190900025169 0.90165
105.231610563486 0.736363
105.292399452351 0.727637
105.37924312733 0.967358
105.493350967464 0.880922
105.547939554979 0.55195
106.358235497775 1.40193
106.92020805959 0.778217
107.045359761896 3.94725
107.085737317688 23.9329
107.684337035382 0.676606
108.062515505209 0.806819
108.098616619159 1.29481
109.065118094069 10.0007
109.100629116242 10.7999
115.054829627115 9.50521
115.819116488986 0.586512
116.063892917125 2.42545
117.068846108816 16.8569
117.125331123279 0.644498
118.074201162281 2.12287
119.084860950187 69.7496
119.164583444633 0.874325
120.08981345725 0.89839
121.06597995339 5.00815
121.100601411025 7.90129
121.255998717103 0.556574
121.302410646364 0.599909
122.074168873707 1.43784
123.117631426247 2.23899
127.051470524857 4.86568
128.062420963242 13.2124
129.068577991188 2.65888
130.076138347406 9.09028
130.109989779563 1.4311
131.048906996344 2.43299
131.0854009127 10.4804
132.057276764831 0.760569
132.094794569261 2.48193
133.062584610844 1.44294
133.100285480557 23.6696
133.164179913039 1.28046
134.108944140558 1.53588
135.079373402131 4.60599
135.112939039863 3.19348
141.067481194338 4.96749
142.079470364717 3.12565
143.085277528086 8.93209
143.637196060227 0.636382
143.743739398567 0.775666
144.091908316353 6.88431
144.134347513211 0.59876
145.100982846435 15.797
145.14873891544 0.943727
145.205854655483 0.648302
145.58987280536 0.644876
146.075284315545 4.3599
146.916309106824 0.57548
147.11808554239 14.9445
147.771975865991 0.69239
152.054957443298 0.816645
154.075360067404 2.74533
155.087571497994 3.34336
156.094600029493 5.04535
157.101428023226 2.97892
158.105201593092 3.99954
159.113522571752 3.99995
161.133846062774 2.24813
164.824453691175 0.567848
166.065164333853 1.72942
167.088018392771 5.32974
168.091552933588 3.65134
169.100170529278 4.1506
170.101804203986 0.890412
173.129502986115 4.85987
175.145014857459 2.28951
181.097979172478 1.28459
182.109209431145 2.16596
182.163710291324 0.888419
183.114813479234 3.19543
184.360882051891 0.699687
185.098203098269 1.45948
185.488913537066 0.784377
187.150314376635 1.11644
201.16262054955 2.32399
207.114969719522 0.731823

