>compound 9-cis-Retinoic acid
>formula C20H28O2
>parentmass 301.215045635619
>charge 1

>ms1peaks
71.0502626965314 0.527525
85.0644900946982 0.884919
113.059194520315 0.550879
123.11507422919 1.78284
127.075485308391 3.02696
161.129978278881 0.549811
179.104501745948 2.16073
201.161069791177 1.11937
205.123726006328 0.714446
241.189729419714 0.76139
283.205708237299 0.976726
300.206656951326 7.90317
301.215547371348 100.0
301.369341630864 1.69726
301.412267345467 0.890584
301.500434515122 0.591087
301.546171390534 0.670197
301.59211817931 0.57165
301.662763793594 0.649205
301.780657416672 0.600965
301.850309337497 0.700578
301.919075825309 0.535096

>collision 10.0
41.0385410755876 0.526274
67.054975912349 0.69225
69.0695173505579 1.67303
71.0498327968855 3.20309
81.0698681111693 1.61028
83.0861174338904 0.66373
85.0641927938481 10.3008
91.055909633828 0.501218
93.0702909407828 1.92104
95.083796343254 2.83177
97.091823366701 0.588487
105.067472469953 0.955262
107.085673280797 2.35468
109.062886624243 0.926706
109.101404177129 4.64021
113.0588000011 2.26675
119.084171132276 3.67105
121.099452762238 2.46241
123.116201284556 13.7718
127.075506592062 9.5461
131.083186573091 0.543765
133.100010640936 2.77269
145.101866237256 1.9266
147.117306882969 1.75401
149.11428761165 0.640575
153.08963588654 1.65975
157.099748966967 0.947351
159.115106674208 3.36538
161.0944017051 3.39677
161.126352457946 1.93584
163.099082295292 0.533035
163.148116500451 0.530053
165.086700896251 0.55266
167.104462696779 2.76421
169.102384993877 0.778432
171.115751160197 1.92194
173.129391034564 3.27744
174.136581902856 0.683324
175.147241049581 4.27889
177.090163538216 1.30779
177.158548833734 0.870749
179.105812724651 4.93626
185.130618540148 2.12554
187.142851200069 1.45761
188.151948531376 1.48227
189.163444442434 1.06731
191.109568658173 1.15786
193.121238335571 1.28749
199.145801093596 1.55065
201.161804481096 6.34139
202.167803743523 0.569568
205.119730634446 4.65614
213.154095143577 0.770891
214.175049252549 0.740535
217.121354684652 1.6174
219.136105178624 3.03309
223.141663166128 0.556877
227.142503384062 1.51421
231.136531057423 3.14128
233.152324898586 0.936098
241.192288565449 7.66542
244.141719253021 0.601877
245.151631401729 5.21611
255.211042245963 0.90971
259.169012585435 1.07119
265.19110322657 0.792152
283.203250392486 2.85659
285.180453923377 0.509392
286.183298045483 0.58491
300.204615215131 2.86512
301.215045635619 100.0
301.371991095498 1.58645
301.421021465393 1.0274
301.493648472407 0.518451
301.703469078661 0.545904
301.908621050609 0.551765

>collision 20.0
41.0387436989445 1.46701
43.0194521473334 4.64195
43.055743387658 4.31882
55.0549824374833 7.52434
57.0698985529981 10.9969
59.1056619838816 0.996972
66.0473817404388 1.31845
67.0560047878568 11.462
67.4029501533708 1.04634
68.0547604400153 1.84372
69.0339900753145 1.40132
69.0694852571973 44.823
69.1262750974246 1.63718
69.1455021428627 0.968346
69.7061429330842 0.933736
70.075485385205 1.76364
71.049580918105 39.0011
71.0957509269227 1.74697
71.1490705993364 1.09283
71.4378358561334 0.986114
77.0407459171977 4.63107
79.0533753334674 7.57852
81.0696017889886 26.6703
83.0853663750326 9.53396
85.0648129252878 56.2968
85.1493375187453 1.2592
85.451821255887 1.07111
85.7451185764667 1.42665
86.942923385748 0.978618
91.0560048717036 5.39205
93.0700188142281 36.485
93.1344227572628 1.19802
95.0851976863817 31.8646
96.0899056169961 2.29038
97.0645076123138 4.23344
97.1006747002621 3.79289
105.070191695974 15.549
107.046302543877 3.74393
107.084805423333 52.2454
107.164214779271 1.51737
108.090313312193 1.97711
108.219600762451 1.07119
109.101134929546 30.1626
109.164671515908 1.09846
111.079639165446 7.07017
111.110949511848 3.44518
111.139188105553 0.977785
113.058452755175 11.5319
117.067605342818 5.62423
119.084329513529 35.5978
121.0624678568 4.84859
121.100095679695 24.598
122.105947275909 2.1131
123.115758356941 100.0
123.216593875019 1.22776
123.36548417421 1.2092
123.941256402161 0.934
124.129899328017 1.08828
125.061732468936 2.55592
125.09646006464 1.36747
127.074667262083 6.7298
129.071159042165 1.96071
131.086103129474 17.0216
131.138643783565 1.09272
132.086772918481 1.39128
133.100114435815 39.338
133.206731435158 1.02879
135.080436336441 6.25254
135.11654955644 11.308
137.117943047333 2.23143
138.949946981443 0.933237
139.072206509486 5.39769
141.079981320723 2.60172
142.077526906912 2.92433
143.086325414175 9.88524
144.091641517433 5.03051
145.098868134658 36.7372
145.185226771337 1.17535
146.071711764558 2.70967
147.116484381308 15.4358
147.177367870335 1.02037
148.122928049115 1.79663
149.09297894757 5.08398
149.131264612985 4.94112
150.950624620498 1.76042
151.067938121132 2.01521
153.08687346836 1.20832
156.09271747481 5.83981
157.100018523498 25.6383
157.165203043177 1.00399
158.105570447524 4.88817
159.116185708924 49.3084
159.244658080771 1.06364
159.762895527107 1.11697
160.121695288109 5.76899
161.103308282284 26.9356
161.254722932343 0.919484
161.903668200181 1.05928
162.124484144083 0.89041
163.069511692004 1.76969
163.117919244536 2.08777
165.087264639379 1.37824
167.105712834447 3.97506
169.098572455961 2.08166
170.106744006792 0.923275
170.580973385859 0.932906
170.663496025296 0.911028
171.11570211738 44.2872
171.197484692769 1.51834
171.238317074788 1.01959
172.117741716239 4.25095
173.130022199986 27.6741
173.235301152029 1.40021
174.133348950284 1.78172
175.148761753869 24.5102
175.210967715063 1.71786
176.16080587259 0.987145
177.09170784047 10.3892
179.104154023471 4.86168
183.11240514808 3.94761
184.124820614905 2.03121
184.448311238612 1.01984
185.131851910053 47.2375
186.136873594381 4.06769
186.176386328645 0.893018
186.80845266855 1.60999
187.144228750088 9.04432
188.156367412976 13.62
188.338663223314 1.76692
191.101986096601 2.18026
191.143735490469 1.11512
193.119150379095 2.02302
197.128391701559 4.15515
198.135894826428 3.40507
199.148548531992 22.524
199.219910314337 1.24156
200.152456116371 2.16057
200.317274425811 1.13517
201.161575623801 18.7169
201.885029225954 1.23079
202.170430278667 2.16887
203.102368885478 2.13306
204.107814167358 1.15491
204.956839052663 1.04386
205.120337407167 10.4245
207.141194187278 1.1791
209.133552832499 0.977376
211.142731991989 4.73931
212.118914244151 1.73405
213.16057938956 8.9827
214.17019799983 5.62644
214.414949967023 0.950187
215.132140168959 1.6785
217.120615574296 5.4756
217.294900954642 0.924037
218.117584740884 1.46092
219.136736952786 11.4832
220.133797317788 1.60098
220.95676986404 0.890662
223.145709037595 1.63051
225.160146990044 0.88958
226.15293405789 1.66312
227.153699989115 5.15091
230.123631700023 1.09013
230.167746493532 0.955637
231.135880388017 14.6168
232.146556404761 3.73322
232.518977733798 1.03933
233.157518227353 3.11345
239.178303562635 0.952561
241.193833568037 31.9
241.299553117794 1.02246
242.262695868931 1.04825
243.119197046917 1.02353
244.138468028849 2.5786
245.150966182146 30.2162
245.230190047161 1.52754
249.166933075232 1.06625
255.208449878976 3.98711
255.251923114185 1.18483
258.157119186821 5.13534
259.170069411354 3.57869
265.011573256045 0.910764
265.191885464807 1.3548
268.840373987317 0.958673
269.004071364406 1.08144
271.169727110071 7.97954
271.774780647197 0.909319
272.166663261415 1.46795
283.206610509201 3.54642
286.047195114985 1.04426
286.189126702311 5.24153
300.193601086064 1.27555
300.550406296173 1.35774
301.050932770644 0.927875
301.215730235483 58.361
301.381028718783 1.04402

>collision 40.0
29.0394291329094 1.24493
39.0228646452093 1.14093
39.7274213639668 1.18853
41.0388485006941 47.6912
41.0971558742558 1.10942
41.3437087107488 1.15589
43.0182627393426 11.5413
43.0557349213952 18.4104
46.1723474830448 1.20056
51.0226246265552 2.60386
53.0383321733102 2.70715
55.0554072833408 35.2088
55.1221993630159 1.24141
57.0694177818757 12.5407
65.0385634927332 5.23449
67.0542552858792 43.752
67.1304074565593 1.11225
68.6641748614276 1.24851
69.0333898861884 4.21888
69.0706999049197 53.9092
69.1436234670825 1.24262
71.0482192522456 35.8554
77.0379667234063 31.5081
79.0539376815446 39.7975
80.0675289351049 1.29648
81.0697545573431 70.6156
81.1324379020066 1.50501
81.1738893063572 1.22447
82.7469226656868 1.24035
83.0507976785608 4.29798
83.086311519945 3.02982
85.0653078844782 15.7317
85.8597195770747 1.41841
91.053763070671 100.0
91.1180213275923 3.21424
91.1421874529492 1.79311
91.1654676744281 1.20973
91.2965294681932 1.35362
93.0698053716416 56.2362
93.158946920309 1.17317
93.2011171649899 1.36486
94.0800506519817 2.14624
94.4033097137873 1.13546
95.085255012622 22.3129
95.1337919113992 1.60219
96.0859273917325 2.53569
97.0667088151625 8.60205
100.58801180425 1.1031
102.045437289064 1.34824
105.06948997101 75.496
105.138131645857 1.47963
105.165255889438 1.58106
106.079687106904 4.91108
107.042782920166 1.25695
107.085110523587 41.1875
107.1373980409 2.16216
107.163753630373 1.05945
109.064122793361 3.53809
109.100910461378 13.4375
111.044942215957 1.22504
111.079955757499 18.1043
115.054296784787 8.29704
116.062029703642 1.84836
116.964583684978 1.16535
117.067172996763 15.5385
117.104289100807 1.63218
118.075992621874 1.25048
119.08448655876 51.9664
119.177683520998 1.3054
119.704027658123 1.36256
120.091695177173 6.60544
121.064296083423 9.91194
121.101493893091 8.11484
121.288961089042 1.22379
122.104476900669 2.83262
123.114444023792 14.1135
125.095027829652 2.28184
128.060674708678 14.842
129.069211090405 13.7434
130.07622163206 13.6049
131.08503277587 29.7078
131.128471259883 3.35198
131.20029781655 1.09455
131.959875537067 2.93136
132.091398603796 8.67862
132.935621005671 2.13874
133.101038759718 20.7558
133.957800950265 1.98263
134.108144348865 3.19652
134.9513620614 3.15052
135.077630592822 4.40707
141.069704075969 8.13986
142.077239555386 20.9955
143.085221103669 37.0635
143.19047792407 1.10985
144.09129898232 9.26768
145.100154879879 32.9723
145.385977194346 1.72538
145.964654596046 2.41617
146.069814695811 6.00556
146.10342489141 2.97123
147.115965249829 7.21825
149.060152013064 1.96857
149.090791550545 1.30578
151.076723987126 1.43953
152.345119685374 1.45409
153.06605941384 1.77399
154.072211785544 1.3844
155.083561128812 20.7786
156.091346784183 23.6957
157.100105538929 35.6124
157.180376709892 1.2852
157.539334561088 1.11489
158.106144366187 7.64404
158.333593338538 1.53185
159.114896626907 17.3278
159.399526863286 1.05615
160.080308741706 1.21493
160.122395227382 2.27486
161.114927293394 4.04718
165.058545898527 1.24427
167.084114232604 1.65439
169.100286940125 9.62016
170.104297283472 9.42317
171.115177121465 25.3394
172.117114914818 6.39042
173.132208650894 20.6214
173.194742746245 1.56607
177.09140946573 1.66409
182.107522733849 3.42015
183.114160035503 8.43426
184.119140670312 4.85827
185.128706702607 9.10786
187.145550795625 6.55187
195.109519061236 1.74769
197.127001242707 1.96794
199.1459520584 9.56249
203.127610918721 1.59069
211.143985340526 3.17814
212.120016826607 1.44956
219.138547581897 1.10906
225.152527238905 1.21474
227.178618407742 1.08679
255.035116748714 1.20178
271.169359915727 3.88638

