>compound 4-(diaminomethylideneamino)butanoic acid
>formula C5H11N3O2
>parentmass 146.09174007966
>charge 1

>ms1peaks
43.0194919554019 1.34879
45.0346060714048 0.60915
60.0564920028478 2.86937
86.0605802263672 7.83692
87.0446693866007 10.1587
104.070808705095 2.66055
111.055186352729 1.31683
128.081595671273 2.16632
129.065607220993 0.572492
146.091636824965 100.0
146.202497537632 5.46769
146.237834841299 2.36796
146.293098119091 0.810296
146.321041814961 0.747957
146.349926568595 0.895339

>collision 10.0
41.0397187453093 1.23783
43.0196704680971 10.588
45.0344925273374 7.46985
56.0502779864298 0.92848
60.0564901391388 9.82325
68.0498846775235 0.573193
69.0342124443118 4.69952
83.0608019637577 1.36437
86.0606803492051 32.8791
86.1460488183322 0.897179
87.0447152906504 35.6165
87.1297583687092 1.11204
104.070702445354 8.23297
111.055326356131 4.45335
128.081737845238 6.45345
129.065812519909 1.63467
146.09174007966 100.0
146.202856323726 4.49543
146.237200777635 1.82925
146.292362484562 0.608973
146.32126575994 0.568135
146.349794976413 0.623673

>collision 20.0
41.0395828315488 11.046
43.0201691345989 54.6153
43.078093366288 1.9081
43.0952554486658 0.703598
44.014211913999 3.59169
44.0491755240763 0.540251
44.9981938796239 0.58048
45.0345548016946 50.6152
45.0959192620063 1.32958
56.0502546361389 4.89189
60.0564551907005 23.7702
60.1269571829669 0.535896
66.0346035626635 0.597225
68.0502227404212 2.89155
69.0341909334496 24.1723
69.1102897624449 0.530292
83.0606481731527 5.24814
86.0606610263661 100.0
86.1459639567803 2.7994
86.1714031698553 1.26641
87.0446421432866 83.0716
87.1298921302558 2.62026
87.1569285319614 1.04033
104.070656772244 4.85863
111.055374989445 9.5942
128.081598314409 3.23741
146.092175426217 12.6559

>collision 40.0
39.0239902204009 8.54098
41.0396575229704 39.7177
41.0977842146596 0.788399
42.0350566365481 0.806836
43.0240888457927 55.0618
43.076998229844 2.27091
43.0924661184735 1.06228
43.1085072303699 0.712137
44.0143279169238 19.8179
44.0487058353513 2.91727
44.0736763051021 0.575426
44.9980473589598 7.00294
45.0345773691394 100.0
45.095885865 2.62543
45.1149082280652 1.09264
55.0297123150086 1.07611
56.0501423310973 4.16148
59.0495921754178 0.888166
60.0564407990302 4.22531
66.0344725134857 1.14866
68.0501644640853 2.39875
69.0340283335735 17.5508
86.0604552112986 21.2174
87.0439637259104 3.10577

