>compound Cucurbitacin B
>formula C32H46O8
>parentmass 581.304395093012
>charge 1

>ms1peaks
521.282012090611 1.41057
581.304395093012 100.0
582.305156053616 1.39587
611.30515605362 1.0e-13

>collision 10.0
521.28690925629 5.08274
581.310724074126 100.0
610.31072407413 1.0e-13

>collision 20.0
521.282351430012 50.634
522.285728778097 1.01925
581.303233821278 100.0
582.30508711189 1.2495
611.30508711189 1.0e-13

>collision 40.0
83.0116491368566 0.713095
189.09053304775 0.831071
355.186293503997 4.76227
425.223178187785 0.626733
521.287912963535 100.0
522.29301440716 1.25347
581.303742476537 1.47588
610.30374247654 1.0e-13

