>compound &#38;beta;-Nicotinamide mononucleotide
>formula C11H15N2O8P
>parentmass 335.063022021154
>charge 1

>ms1peaks
97.0290290592603 2.53827
123.055228700263 26.9613
291.977524714231 1.68657
292.993146889592 1.33663
310.963985571564 0.85465
313.405715264953 0.993528
314.11412525099 0.834585
323.511831408864 0.668826
329.050676403385 0.720665
334.014014099261 0.85108
334.061827702962 0.803262
334.147311828046 0.697731
334.308317773451 0.787179
334.373612502115 0.757609
334.526493294642 1.08533
334.679828442857 0.883549
334.911785940431 0.904732
335.062228121092 100.0
335.119977768455 22.0897
335.276664833542 0.724812
335.508909937008 0.67071
335.74158083979 0.865954
335.88298928744 0.806756

>collision 10.0
80.0511875260178 0.653817
90.9756788313221 0.871213
97.0279778012213 9.89021
123.054998317367 100.0
123.138414711706 0.693627
123.382562891872 0.543004
123.439747525498 0.517868
135.03882103892 1.04447
203.020804686844 0.606187
230.970855886498 0.762733
242.099300681555 0.569112
289.014127319229 0.972415
293.846947085697 0.716794
331.88333825728 0.68693
333.89110845385 0.680574
334.15892896885 0.771543
334.288954161789 1.04714
334.890299051549 1.09229
335.063022021154 16.6204
335.123600230732 11.2753
335.182632050796 3.02877

>collision 20.0
41.0362858615403 0.712758
80.0476117604118 0.89553
90.9765115023636 1.05904
97.0289434192968 25.5594
123.054894228541 100.0
123.143738153747 0.833468
123.461948199975 0.524202
138.914730172268 0.768056
164.913458911311 0.603267
229.869691061534 0.668351
232.953726361001 0.775776
237.107262619723 0.693217
335.054349461772 0.52624
335.141945880819 1.07611
335.236884112998 0.625416

>collision 40.0
39.0253645325092 0.859653
41.0398621343137 8.97511
44.0154920376271 0.660191
53.0377232468861 1.29513
69.0335635027416 8.49684
78.0353404546532 3.20268
80.0489357364469 11.1333
96.0451960956883 2.15627
97.0280064126947 39.7179
98.9835659726548 0.80207
106.024728633576 1.37923
118.870719523386 0.92849
123.054357537575 100.0
123.290796621536 0.562184
123.394769437341 0.618738
125.088123169897 0.772731
128.868699482946 0.6026
148.54969819215 0.833823
258.880879432015 0.691251
260.837423666753 0.612024

