>compound Dulcitol
>formula C6H14O6
>parentmass 183.086083905319
>charge 1

>ms1peaks
57.0349512002203 1.87468
69.0342407462385 2.42933
81.0343684576169 1.9007
83.0498508672894 1.15622
85.0292939197438 0.957815
91.0395938360857 0.98703
99.044521473306 3.14073
103.03930116049 0.924095
111.044140130669 2.3574
129.054556854039 20.0907
147.065126549828 8.49466
165.075450098938 29.5283
183.086083905319 100.0
183.206413451419 2.01962
183.247867451977 0.927708

>collision 10.0
41.0396565597738 0.744304
43.0189659286312 4.42847
43.0550965902768 2.5116
45.034741912648 5.77047
53.0395847035725 1.19332
55.0188581489536 15.7145
55.054496496014 6.59293
57.0345688214671 34.7368
59.0499888749044 0.584481
61.0296698851071 7.24562
67.0546594070311 0.959844
69.0340805728085 32.2537
69.1093525250473 0.734588
71.0499963221329 5.71921
73.0290790755405 8.10343
73.0608602866057 1.30221
75.0449236732443 1.83973
81.0342109470872 18.5671
83.0499323912257 24.2796
85.0288966956446 19.8035
87.0443315346585 6.31548
91.0391406722804 8.68272
99.0443945134043 41.8287
99.1341731178192 0.751382
101.059628783885 2.07944
103.039159273304 13.2504
111.044246955754 38.7109
111.136681238131 0.577037
117.054772649172 1.20023
129.054583064175 100.0
129.157921987671 1.83749
129.192199907861 0.905533
147.065063313899 9.46754
165.075336562772 12.8711
183.086089114766 4.11759

>collision 20.0
29.0389024123016 2.91625
31.0183147225262 2.49465
39.0244023388812 1.42728
41.0396416972863 8.21802
43.0190311646247 20.1733
43.0551169048327 13.639
45.0345472712259 41.5841
45.0971618455728 0.677839
53.0397384719891 13.1602
55.0189458355213 68.651
55.0547663108511 40.9909
55.1060340905154 1.35027
55.1424705010557 0.533856
57.0344978458776 100.0
57.102783102468 2.03162
57.1233216434162 0.936976
57.1432623768266 0.527555
59.0502423692913 2.38603
61.029403611525 29.4575
65.0389478972439 3.27153
67.0549037539409 2.09513
69.0340859558527 94.2761
69.1088346631816 2.00857
69.1316735908797 0.891874
69.1589771329898 0.509348
71.0132888210642 1.21397
71.0499921963115 17.8338
73.0291762278792 20.5553
75.0451446806029 2.47321
81.0338783375247 28.5702
81.1144955609262 0.550507
83.0496919614809 50.9128
83.1334172687665 0.834081
85.0287514633213 39.546
85.1128196694951 0.71043
87.044733872516 9.73283
91.0394119323042 2.77355
93.0337534035048 0.897838
99.0441680806075 36.5699
99.1339452847543 0.667408
101.054520536042 1.04318
103.039560555021 6.43353
111.043711506434 20.3105
129.05449957142 8.34424

>collision 40.0
27.0233169194958 2.11108
29.0024004566232 5.23069
29.0386674037001 8.07867
31.0183404042455 12.2739
39.0242770841312 21.6652
41.0397615694394 67.9878
41.098704626304 1.18454
41.1187271698492 0.585707
42.0340024351883 0.62115
43.0192699261942 100.0
43.0556346950727 22.0214
43.0955952248543 1.12604
43.1157895999475 0.828564
43.1321523548185 0.708612
43.1549011084039 0.576618
43.1817685759261 0.510449
43.2441155483193 0.687814
43.2806315308247 0.532833
45.0345116988058 81.4205
45.0959765231462 1.47715
45.1136234215294 0.958719
45.1574047197749 0.80677
47.014542310859 1.17595
51.024565383194 1.19494
53.0396525733488 62.5179
53.1247434692928 0.703049
55.0188759294673 77.5148
55.0548826784271 53.407
55.1223355553278 1.36184
55.148546173308 0.971158
55.1730399373093 0.60489
55.2022387825698 0.575562
55.2624207505107 0.599101
57.0343729145123 88.6089
57.0868711670546 1.93501
57.1236969410917 0.926168
57.1479184654871 0.574243
57.1961871138936 0.529523
59.0149959610666 1.50494
59.0491602463402 1.46213
61.0299227373474 23.6284
61.0776491930491 0.704634
65.0398531452973 5.97728
68.9977760310052 1.59761
69.0344118709501 93.2254
69.0932083042872 1.69336
69.1099379312553 1.93744
69.1324378364014 0.873344
69.1699659628746 0.514731
69.1916413829302 0.573364
69.2088433547034 0.580732
69.3332965362227 0.550345
71.0123481012745 4.85947
71.0493251770925 5.98523
73.0283804510011 7.95281
81.0334978300685 19.9743
83.049855213017 6.91618
85.0293469264224 12.306
99.0441121244515 4.34632

