>compound 4-hydroxyestradiol
>formula C18H24O3
>parentmass 271.170370700045
>charge -1

>ms1peaks
74.048797205187 0.94429
175.073848365922 3.79452
192.136063723114 1.9871
193.073454437673 1.25131
230.586151864074 1.28455
266.265108350669 1.02364
270.12770302401 2.16542
270.185238928986 2.23109
270.247352248747 3.72154
270.315406236464 1.54268
270.759824584169 2.21969
271.170857485799 100.0
272.1708574858 1.0e-13

>collision 10.0
26.7650005967045 1.11348
69.0697174033567 2.50464
82.0632599280522 1.33518
105.067431768596 1.23183
129.064190099749 1.1912
134.998966451868 1.97369
136.045250558682 1.04163
143.047626772452 1.5846
149.059103572844 13.7125
157.064124724085 4.43362
161.055564795939 5.59489
175.074943118518 61.3074
183.063138367 1.56441
189.091473636527 2.90641
193.006298496976 1.07747
209.081224841844 1.80086
229.086107888594 1.23667
253.158222138536 2.17383
270.170264577256 1.74369
270.2528541312 6.17893
270.311196611942 2.69534
271.170370700045 100.0
271.266983824398 2.38923
271.623483830431 1.08614
272.62348383043 1.0e-13

>collision 20.0
57.0704979982069 1.41523
67.0560292653637 4.00467
69.0698840368806 4.08772
81.0677865632988 3.60189
91.0515316837644 1.62315
91.7438242776409 1.68002
95.0852074753782 4.46932
103.05073913466 1.70495
109.100439688914 10.71
115.056483203218 2.18309
123.044803022121 5.17233
128.059827257144 1.33673
131.050044431624 2.10274
135.114748499792 2.62486
137.056090115717 1.90429
143.047545775215 2.07101
149.058063344674 32.8556
157.060640965804 4.44484
161.058067693801 10.0021
163.073969321959 4.26574
175.074670075395 100.0
189.091389633162 3.46065
229.113358782053 1.80315
270.253398854364 1.9497
271.178772845139 6.23197
271.271393854349 1.47082
272.27139385435 1.0e-13

>collision 40.0
55.0529364460484 12.3018
56.9674886114193 5.3539
67.0541615586503 31.8345
79.0513320163739 4.09404
81.0688744991875 15.2877
91.0557157634719 8.54683
93.069448963794 4.12929
95.0866805130684 20.7558
101.985806336805 4.6892
103.054540387903 27.1791
109.101269117809 6.16377
115.053389495037 12.1854
117.06886070972 3.29693
119.085739130289 7.64182
121.063685628689 5.86984
123.043988992807 5.73151
127.053754973413 19.0492
128.060618932123 43.2404
129.068555959082 100.0
131.050583066369 38.2098
131.525089669979 2.72917
137.059278684173 4.33649
143.044855097575 3.90773
147.041783825989 5.23306
149.06055575484 10.2952
157.063215090041 37.2871
160.050369557435 9.55493
161.056903399066 6.55573
173.061474663933 3.36142
175.073989194643 65.4377
198.124554806906 4.10015
199.12455480691 1.0e-13

