>compound Quinestrol
>formula C25H32O2
>parentmass 365.245789558172
>charge 1

>ms1peaks
95.0894624611313 1.07651
107.044701855485 3.32211
114.059284265774 1.06919
122.066223047014 0.694347
145.093414774495 0.856778
148.079141072184 1.14201
149.133679573673 0.913925
159.11896160163 0.83602
171.093539246726 1.51773
197.085690781779 1.15606
211.134094456574 0.883662
251.141335731377 0.862259
286.253958573594 9.09789
287.254831294744 2.50485
287.438119078273 0.781606
290.119158382571 0.847536
295.20177834234 0.949131
297.183453803425 16.2835
297.449142479085 0.884996
298.519776583289 1.06844
324.18942172133 1.86449
329.163339267443 0.936728
347.215244856195 0.794239
348.193964525066 1.51884
357.828568321175 0.703174
364.256617311508 8.34369
364.839513879308 1.2936
364.930682331313 1.86254
365.247656254208 100.0
365.46920160729 1.07405
365.6793196154 1.17159
365.836338774276 1.18156
365.960114284103 1.62224
366.011291882651 0.787725
366.058236855311 0.880454
366.173982943101 0.775318

>collision 10.0
43.0203317671746 7.29423
45.0342420640022 2.95552
55.0170816252537 3.26203
55.0553588131486 1.97375
60.0579833552212 3.32331
79.2387304909146 1.82487
85.0651189170661 2.55414
87.0530584315584 3.00995
97.0635318800126 5.44536
99.0383122580073 2.25238
101.05484086442 2.02851
105.071650934288 3.7972
107.048866522525 11.5398
113.060276837262 4.09037
115.075974706129 2.55376
121.099719351897 5.24969
124.080324388771 1.83518
125.061716917536 1.82411
133.06526814635 2.15087
135.121586400567 2.61148
143.103612414299 2.94936
145.063719732252 5.73707
157.096232162997 2.29028
159.07405397475 7.20668
159.115442446562 13.9783
163.14462058065 2.37403
173.131629999605 10.6526
173.291017246571 2.16494
174.407564179624 1.82918
177.130660072404 2.57412
183.080733488731 3.68838
185.082969955646 1.99249
185.131227029968 3.87273
186.095430770041 1.96744
193.16776448694 2.0979
197.090676254663 3.19389
209.114011205502 2.23601
215.104889762182 2.83764
225.128293312746 2.31561
228.967688212112 3.37841
229.034593679507 4.8244
231.079805410462 1.87016
237.13255594843 3.45178
239.144745089395 2.78234
258.860400060498 2.00677
261.226937532262 2.74296
279.170929890987 13.7495
283.219605627714 2.15297
286.250409436773 27.3021
287.249595720845 14.5587
289.028322731145 2.12772
293.148247989764 2.14713
297.186107509736 100.0
298.137323339474 1.87884
347.19863373095 2.28584
347.309603863924 2.82809
348.131563732507 2.62672
364.226726387746 4.25179
365.134883557288 24.2815
365.245789558172 99.9147
365.428311069894 2.79887
365.697580946961 1.84122
366.047116913971 1.87621
366.23990222607 2.4768

>collision 20.0
43.0182314979985 9.49988
55.0568561389229 8.30746
59.0613416379609 6.56304
61.0293958139375 7.16573
65.9791433051912 4.67747
67.0527634333513 4.75651
71.0484389765022 8.06974
73.0327908187194 10.495
81.068216368905 5.60455
82.0685884731725 6.27551
90.9767413617017 10.6923
91.0555972699662 12.9436
93.0688224019639 9.03093
95.0372219528062 5.11249
95.0823656249993 10.845
97.0676726413344 14.6413
97.1008064089105 4.54466
98.067674221902 4.42202
99.0430862717392 6.54861
100.119100159677 4.9079
105.071997410601 17.1827
107.048489459922 100.0
107.093194453797 5.07977
107.504341889972 4.55198
109.100978252402 6.94353
117.069407674547 9.74303
119.087681686914 9.04461
121.101153712226 14.2068
123.082977124948 6.84551
125.126421212126 9.50842
127.073682791453 5.56521
128.074168595048 11.023
129.051378134293 8.98834
131.045230042748 11.4436
131.086939939293 16.1255
133.07300804344 22.5533
135.102989953722 11.8269
137.095734678992 5.08312
143.006935537784 7.32263
145.097298486149 5.10336
147.083511625669 18.9782
149.137144099285 5.11249
151.112708076164 4.42566
157.065134033023 16.8298
159.115237761989 66.5289
167.114567907809 7.07854
171.11300839975 13.8015
173.128151898767 34.3257
174.142781845498 6.53286
175.109190811358 4.74928
177.128468842806 9.55307
179.105134081627 8.00094
183.084305101628 9.56459
185.102429414814 17.8235
187.145674036508 9.60066
195.076319876974 7.83957
197.09655126913 9.48419
199.111943155243 7.75271
203.051455091964 10.803
209.094065590416 18.7259
211.110203811644 7.69291
213.147936713683 8.88251
215.10121443713 14.4883
223.109391929 11.0021
230.792265074339 4.54031
230.857863865441 8.32337
237.120772758631 8.50528
251.145899076853 17.903
255.117794187627 5.52749
265.143049120299 4.93814
279.167150251997 19.1407
286.251759114051 30.6201
287.251363159298 16.9852
287.306943830733 4.87026
297.18278167805 86.5164
297.943141826177 5.90978
305.136135205763 4.64381
347.090636788223 6.8206
347.303775187671 5.28221
364.323727350722 4.63691
365.100557243744 31.872
365.227197225411 12.4766

>collision 40.0
35.9040936639322 1.81786
41.0400699022186 5.74539
43.0189922370108 18.5235
45.0326842175997 2.41512
55.0191464435221 2.74952
55.0549098280849 6.38059
65.0403950503622 2.21967
67.0541711290712 8.09048
69.0692709162951 5.75044
71.087292495144 2.88819
77.0389286180983 2.50133
79.0539538352847 11.6002
81.06850063247 12.6168
90.9792727973077 5.48247
91.0550971246648 19.6963
92.7947455235469 3.03149
93.0721499903037 13.5867
95.0483448335017 8.19447
97.0622460918644 8.48545
99.0427418198475 3.8657
103.050496034998 4.88202
105.069959698565 13.1905
107.048617007393 100.0
107.082229356703 21.8433
107.145342334539 2.96339
107.164640827455 2.12842
109.063782609656 8.23303
109.099549349167 4.80369
116.060508193533 1.99992
117.067344050579 4.8598
118.051344227352 2.13842
119.083645153758 11.7673
121.058154182916 9.11452
121.097349649824 3.60113
125.022785400503 4.87892
126.112006002794 4.33316
127.055605349237 3.53576
128.059017483463 2.26511
129.069225109778 3.2587
131.085361529196 18.8255
132.091529526863 3.80115
133.062283294257 20.2583
133.094584598837 5.78069
133.32880901319 2.08105
137.091231896077 2.54183
141.085154700966 2.55729
143.094511591832 2.74235
144.092640733855 2.84316
145.067387226795 9.22745
145.106441529401 3.17828
147.078353537085 9.35738
147.111152455221 4.30407
157.073838479234 8.40732
159.108125060566 13.4902
160.089642965247 2.51047
161.133837579909 1.92201
166.076459776593 2.4668
171.104254525498 6.31587
173.134080904286 6.21529
175.068130969775 3.24903
179.087816441922 2.31115
183.076888555901 5.35404
185.106427515863 3.7504
186.130445620124 2.9894
189.125743322689 3.82274
199.106371279486 2.91572
205.105796017257 1.99242
216.069650610907 2.49156
223.108885040595 3.18599
238.451320663485 2.75405
365.234078668169 3.16828

