>compound 6&#38;beta;-hydroxytestosterone
>formula C19H28O3
>parentmass 305.210839613996
>charge 1

>ms1peaks
215.140624645025 0.614211
251.17887804204 0.773366
269.188829823311 3.65504
287.199530774406 3.5107
305.210645470762 100.0
305.365836753698 1.85058
305.430916989924 0.822506
305.51442576838 0.541779
305.64831869475 0.505741

>collision 10.0
81.0689802694218 0.964891
83.0485587552354 1.10583
91.0534501753029 0.55152
93.0688810905662 1.18495
95.0838642586967 1.21085
97.0637774813464 1.71893
105.067867949467 0.91108
107.085783792855 1.13593
109.100256231776 0.503433
119.083873856538 0.922282
121.095992537653 0.673527
123.079208954141 1.43188
131.084430709446 0.792429
133.10009407675 1.13026
145.099654194422 1.5022
147.113934880702 0.785263
155.083809030531 1.00494
157.099184101387 1.50212
159.114674133217 1.09829
161.12704254101 0.697773
163.110275547775 0.507345
171.117061031645 0.543846
173.098660321885 2.07451
175.111973284016 1.0634
183.114089563865 0.637797
185.130754613606 0.830127
187.144306954121 0.994056
195.116668455713 0.652672
197.12785967918 0.726882
199.13682326884 0.876148
203.14075799034 1.40966
205.157057799795 1.05521
209.132989870616 1.50084
211.146749728976 2.73773
213.12569673789 1.01281
215.139995005334 2.4263
225.16180418537 0.81834
227.160430386414 0.982379
229.157280178819 2.38922
233.151542706967 2.59468
241.192685500404 1.71364
251.177474847095 4.98185
259.205376548772 1.36666
269.188596636585 25.7075
269.336955436194 0.510651
287.199409666582 22.4205
305.210839613996 100.0
305.367519471826 1.80064
305.425928003203 0.866665
305.519618814574 0.516734
305.555120954726 0.533018
305.60506339581 0.541906
305.656830957761 0.522229
305.726434808718 0.531053
305.845857908415 0.642269

>collision 20.0
41.0378941963504 1.40177
43.0167483428251 2.18647
43.0539710417904 1.03751
55.0172953345404 1.17837
55.0521756916668 1.24733
57.0338182173868 1.49567
67.0543706651821 6.32769
69.0332289917764 1.01901
69.0689861287464 1.96081
71.0472191585656 1.15211
77.03682624134 1.65857
79.0529522475861 2.39768
81.0690840872027 10.8573
83.0486682378294 18.3542
85.064983135495 2.17843
91.0536163895011 4.72859
93.0686825512505 8.32724
95.085073372755 13.1064
97.0636394727272 18.4248
105.068787493426 13.429
107.084121844334 10.4193
109.063008308935 4.29803
109.099673162791 4.69337
111.080965131253 1.85231
115.053011769591 1.05017
117.06855349251 2.38067
119.083923407284 15.1228
121.063107634173 5.27207
121.099589814236 6.10202
123.079507284697 12.101
125.067873706923 2.36003
129.068878237604 1.47833
131.082578979625 7.90186
133.098833687149 14.5575
135.112931589008 4.53267
137.093864124084 4.86146
141.069553051377 1.64978
142.07741802607 0.955479
143.083731222521 6.43664
145.099805316623 16.4687
147.115448320745 10.515
149.123780519934 7.58415
151.111318735682 2.74819
153.071333263735 1.15565
155.084562058793 7.30319
157.099789460845 23.1047
157.213740194968 0.64379
159.114955351582 15.0143
161.118145298784 5.52013
163.112036722597 3.86464
165.126461317127 1.17155
167.083850184972 1.18233
169.100564301978 5.31535
170.108694157573 0.638543
171.115729270263 7.83223
173.09932057689 21.7573
175.111937970727 11.0186
175.182043964472 0.944029
177.124382314771 2.59119
179.138220320585 1.31623
181.098084266361 3.37211
182.1095743119 1.00093
183.114584098974 5.12562
185.130327685325 11.3952
187.144000713072 11.2484
189.126743245399 3.04881
191.123330272338 2.05984
195.114375105186 9.16397
196.124744970489 0.992076
197.129882878602 12.111
199.14316283701 9.61908
201.142576994089 1.79658
203.142442733486 3.839
205.155642981183 1.74722
209.130775248945 11.9858
210.139030738643 0.562701
211.14671896225 23.0651
213.130340686822 9.20269
215.1417381466 24.028
217.156957809955 2.72177
223.145120078672 3.39682
225.162413645016 10.6317
227.170474224575 11.0726
228.146487463835 0.562895
229.157206140051 18.0644
231.141114429238 0.999721
233.152911521353 15.5964
235.166734679573 3.10609
236.153028002723 2.07286
241.192399090719 12.9987
243.171935205729 6.0943
245.183514059103 0.849754
251.177962299993 34.167
251.327356877559 0.673635
254.162933945782 0.548743
259.204678017579 3.61624
261.18345653669 1.14726
269.189090182014 100.0
269.372365673146 0.856603
269.430153272626 0.549709
269.479641252845 0.718178
269.804809449712 0.733752
287.200033236533 54.352
287.310775601783 1.21709
287.353873779226 1.09659
305.210372217033 33.4722
305.363930063987 0.842358

>collision 40.0
29.0366953590804 1.14969
39.0217703587493 1.59957
41.0382856649079 14.864
43.0176471843308 17.1218
43.0538482979296 2.84073
45.0322326260051 1.08757
53.0357580215685 3.45054
55.0178786887748 16.6895
55.0535399703201 40.7455
55.1101265410485 0.953021
55.1394956315863 0.875141
55.1793184784543 0.58107
56.0583111209049 0.578
57.0337240454419 8.46703
57.0687968764301 3.2507
65.0368030171039 6.13099
67.0532940478303 45.4398
67.1089707198328 0.916708
67.129267507861 0.882746
69.0322199846511 3.50158
69.069514150354 16.2737
69.1381965923914 0.645194
71.0491150765585 2.80656
77.0378232665769 22.0342
77.1143050295241 0.620061
77.9361562259616 0.532511
78.0489117669315 0.836485
79.0531554503162 57.4067
79.1320380264769 1.02608
79.1589773327601 0.7862
79.356907836182 0.704343
80.0619705443565 0.943175
81.0693355015965 56.2826
81.1529275943848 0.978787
83.0483567631488 55.9491
83.1317017348371 1.11603
83.1695502603674 0.746717
83.3062988567399 0.537949
85.064220152213 5.37296
91.0533559804546 67.1461
91.1397045787129 0.956549
91.1910930032384 0.598165
91.2394998874887 0.510353
91.4270627679642 0.716545
92.0587091334592 0.695474
93.0688666846891 83.964
93.159010331739 1.68003
93.183862916479 0.977771
93.204634108447 0.738938
93.2678932481744 0.517396
93.5064623028549 0.517263
95.0474216486625 7.53612
95.0842256993613 46.6398
95.4055738829765 0.516327
97.0638822758794 42.9082
97.1535174080078 1.32804
99.008962943046 0.749071
99.0419041345296 2.03943
101.056014254221 0.511596
102.046479292155 1.27582
103.052657179043 4.57296
104.062021317045 1.6284
105.003405536123 1.48537
105.068853753878 100.0
105.162589981453 2.29479
105.204430741892 0.586593
105.318875042864 0.631851
106.072097843726 0.686385
107.048298704769 11.0636
107.084313346727 35.6382
107.181870713861 0.930434
107.213079666186 0.619074
107.384538050311 0.676522
108.042830418611 0.626237
109.06389277151 18.3693
109.099241329693 10.2577
109.156642440706 0.738878
109.193666725921 0.587397
110.139921788943 0.53969
111.079548045225 7.05727
113.055814621789 0.761033
113.093089534059 0.559005
115.052260258706 8.17578
116.060045429222 3.74772
117.067909424332 29.0835
117.142121652959 0.846862
118.073808233052 1.16071
119.084195975777 62.6637
119.18216876705 1.28689
119.575695940766 0.620513
120.142548617566 0.674086
121.063316273188 16.3474
121.100837504761 18.5287
121.208110409769 0.573551
123.078768298276 21.1553
125.058141018164 7.48735
125.10833115979 0.662212
127.05071308506 3.52503
128.061192744982 10.5463
129.069058705614 18.7794
129.126795090022 1.02746
130.075557986068 9.22161
131.084247054774 54.4661
131.189581613841 0.956637
131.672318668732 0.512622
131.802363430162 0.521738
132.05377813585 0.922372
132.094077167857 0.630237
133.099821375507 35.8577
133.253040148059 0.707982
133.529691815684 0.666192
134.070992604782 1.33071
135.107718079898 7.38377
135.16810948919 0.826748
137.055044803741 0.836396
137.097038402809 1.60406
139.071633595409 0.545436
139.110982756211 0.576761
141.068726991987 12.6161
141.252799281544 0.510206
142.076660407919 26.2498
142.17528307436 0.500662
143.084225411008 31.9916
143.252337004763 0.66611
143.275438738273 0.649006
143.309790410323 0.512873
144.051693502709 1.13581
144.091197721519 5.96612
145.099554660915 50.1099
145.267203421314 0.556908
145.379031195919 0.551033
145.622785554058 0.774319
146.073187844419 1.24315
146.352555132529 0.542723
147.113314591884 14.6213
147.482368851769 0.564432
148.087730161227 0.924179
148.992239217962 0.510159
149.093517709815 6.71042
149.127037431522 2.51825
149.554554089608 0.73658
151.114274710849 1.75887
152.063715714367 1.35735
153.06948141154 4.12925
154.07437891086 5.88365
155.084626020916 29.7186
155.193446380739 0.769988
156.090640472976 5.16325
157.099467699682 52.7465
157.214392472584 0.502019
157.246166800242 0.534207
157.427596882295 0.516362
157.609373283496 0.533613
157.746851226803 0.756345
157.815988478132 0.696585
157.869878243448 0.505499
158.089112544792 3.31762
159.115300897551 32.4148
159.239474341087 0.966434
160.086499406437 2.08643
160.125129889369 1.29894
161.107073767433 6.86246
162.100361898156 0.806113
163.10812157912 5.24627
165.067393393898 3.57517
165.125515596295 1.43073
166.076923783272 2.48936
167.084374861009 11.3139
167.76226688955 0.651784
168.091697823197 7.28737
169.099203165821 25.0857
169.974896157647 0.713681
170.103827776818 3.67778
170.14962532733 0.53621
171.116470430822 16.7164
172.081714183401 0.742313
172.122242913748 2.20552
173.106803561135 16.9242
174.102309344167 1.01025
175.112051950286 10.1774
178.100690803814 0.65648
179.088157579501 3.40832
180.090753624455 3.55793
181.100013027174 10.2765
182.106873161485 6.84189
182.171920378849 0.627318
183.116799402458 17.8
183.198519714356 0.565336
184.124662133222 3.2697
185.131032881509 25.1828
185.199023977724 0.884095
185.238317233378 0.770666
185.621559562439 0.550864
186.136701940744 2.03886
186.188334679039 0.534582
187.125364899238 3.07729
189.128662166005 1.75542
191.136322837989 0.662122
192.099622752225 0.504151
193.096699005809 1.45609
194.105417480108 2.09579
195.113472652969 9.38805
196.124114564609 9.04029
197.130427798048 13.8805
197.214977829455 0.518602
197.252938068403 0.526128
198.134756127926 1.31124
199.147443251651 6.64734
201.158057527367 2.19452
207.112484389009 2.59702
208.127130629092 1.64481
209.134155415082 5.19389
210.138453566037 2.08621
211.147318915888 10.5682
212.15000115092 1.97883
213.128018394159 3.46865
215.146579204244 5.40797
221.127915138088 3.83301
222.138062236658 1.36066
223.147298798795 1.35106
225.163789843172 2.34941
226.170055602344 0.624871
227.158786543927 3.37184
229.153551746826 2.11441
236.15723589521 1.5015
239.149937348269 1.2525
241.156552462069 0.990885
251.180583335018 1.9773
254.170793136223 1.09641
269.190245255851 1.83159

