>compound 11&#38;beta;-hydroxyandrost-4-ene-3,17-dione
>formula C19H26O3
>parentmass 303.194999868461
>charge 1

>ms1peaks
285.18469249656 1.19776
303.195096384258 100.0
303.352777442001 1.70001
303.402052323125 0.816465
303.569603757415 0.601
303.832086162588 0.552178

>collision 10.0
97.0640612505105 1.20035
121.064903473584 2.34528
123.079079738562 2.18499
135.080542837386 0.608084
145.100114612613 1.43499
151.111391631469 0.934971
163.112364648577 1.2087
171.11604967052 0.582864
175.111163033458 0.899122
189.126657121813 0.595158
195.118055323986 0.536074
225.156108272963 0.875776
227.142011048611 0.844934
239.145238856892 1.90543
243.174572581202 0.722806
249.16242699261 1.13814
257.156355225547 0.780018
267.174118561382 6.72651
285.183453571318 13.0648
303.194999868461 100.0
303.353038462869 1.58433
303.403203824906 0.805407
303.515866811765 0.585622
303.621547108127 0.530019
303.772532007913 0.558209

>collision 20.0
39.0243202270982 0.549205
41.0391014590366 0.721359
43.0174892180157 1.6137
55.0189591383858 0.860088
55.0548727218625 1.92073
57.0346473651587 1.26575
67.056112775611 2.56427
69.032757370811 2.05459
69.0697180274429 1.36261
71.050388356301 0.777564
77.0399215444363 1.6084
79.054118971795 4.34358
81.0699791278048 8.08142
83.0492808629585 6.19169
89.9644874281955 0.55909
91.0539374077416 4.02363
93.0702512883359 10.7613
95.0510123168263 1.08872
95.0856945185003 6.33171
97.0647365310122 29.9302
97.210003422029 0.594915
99.0473992227635 1.65445
103.00970100794 0.728312
105.070047835764 11.8235
107.0861600082 7.96116
109.065717050882 11.5188
109.097853144758 6.79533
111.078975955332 2.91049
115.06844689222 0.973483
117.068749717101 5.76999
119.084986549294 8.78082
119.139504608061 0.585506
121.065041229288 52.3218
121.097431959682 14.1726
121.214616886743 0.518603
121.341162540683 0.529102
123.079258309291 53.2037
123.18112532178 0.954481
123.593118138045 0.634247
128.060115081993 0.908734
129.067394412943 2.96498
130.071600796761 0.564533
131.085952958322 8.25366
133.100921695934 11.8725
135.080857068907 11.4676
135.112782908359 5.00998
137.096729497637 2.62117
138.118319586269 0.518102
139.110185191724 0.859468
141.068498280015 1.99965
143.084840903241 13.347
145.101104788045 41.2631
145.210229151621 1.28911
145.243192797725 0.544732
146.995024237758 2.59282
147.109267391884 11.869
149.096539107798 4.88051
150.095460562893 0.860838
151.109806163349 6.80662
155.081496492667 3.24468
157.099710811854 5.75173
159.116254060443 14.955
159.588617795634 0.58704
159.8851629766 0.537204
161.100055760477 4.51124
163.110793981005 19.9996
167.087558400213 1.91805
169.099114531337 8.77763
171.113844594973 7.74595
172.122008635009 0.517395
173.095609277926 6.85695
175.111139011427 21.058
175.233105171786 0.557305
177.127326795191 3.14964
178.074559301084 0.515183
179.081722184145 0.521363
179.136739293761 0.901892
181.101011215515 2.3423
182.103696673782 0.575602
183.114447778243 7.5566
185.131907572868 11.8102
187.110558824296 3.92763
189.125620894518 14.3645
191.10305931888 0.858694
193.108290548042 1.92566
195.11696382094 9.35208
197.117136690828 9.52792
199.108903956828 5.66523
199.147883284386 1.33314
201.125445491102 3.78151
203.141847853844 5.98866
204.146988487276 0.507803
205.112619221455 0.975748
207.116581802995 3.93327
208.112980216803 0.537559
209.131649799085 10.8892
211.123818426049 2.53073
211.177333051013 0.807696
213.130342532922 1.76472
215.142105714619 4.09071
217.119774501305 1.1526
219.113911421529 0.993664
220.128853993833 2.21644
221.134538735727 1.95964
223.148064753787 6.83591
224.127549640206 0.685929
225.159621655344 12.9756
227.143828283672 18.4941
229.145295177769 0.756454
234.134487517543 0.72745
239.146032836866 29.7336
239.262157756137 0.867549
240.177831028216 0.506707
241.159372740892 12.8673
243.174141947633 12.2832
245.15055907425 0.925412
245.236560172549 0.548701
249.164319556052 13.9879
252.148883122138 4.43876
257.167207044248 6.64407
258.168439876424 0.864838
259.166000985164 4.03446
267.174194270783 88.121
267.310350477962 1.23023
267.369748946398 0.869439
267.4533527657 0.642338
267.486211040871 0.568705
267.547767772776 0.67791
267.65749374076 0.56142
267.827697573405 0.827101
270.16365790581 1.05356
284.17564351757 0.60201
285.185277088957 86.1281
285.343203651991 1.25732
285.432447707598 0.612087
285.629659001094 0.649469
285.721658836347 0.512255
285.841085967892 0.869782
286.190143932864 0.607095
286.31189142979 0.799748
286.715899830021 0.535104
303.195417087986 100.0
303.352019810315 1.55508
303.399116013044 1.44012
303.474082379046 0.664488
303.516726013811 0.516165
303.686767571135 1.54767
303.980318101053 0.524214

>collision 40.0
39.0251437524731 1.55192
41.0388760091772 8.57917
43.0187467304802 12.6502
43.0541329380786 7.53696
51.022519191223 1.45176
53.0365802310264 1.90679
55.0189039784754 21.5394
55.0546579720084 24.7141
55.2781582846846 0.941282
57.0320342454704 3.44671
57.0713288389346 2.79383
57.0968445396392 0.841811
65.0365015246713 4.73121
67.0540321700566 24.4705
69.0327793929896 6.01184
69.0703868019805 9.78398
71.0491520602714 4.95756
77.0397446854329 19.8358
79.0546733394726 42.2491
79.1080796240219 1.06671
79.1368724336778 1.24135
79.1619285877463 0.808143
81.0320845625385 1.1553
81.0697038200962 35.7073
81.1530127720234 1.01522
83.0490245257698 29.4114
91.054467139261 55.7677
91.1426492766252 1.33201
92.063776362506 0.852805
93.07009769416 66.4095
93.129378520645 1.98393
93.1569696680486 1.12066
93.2186368037515 0.909868
93.4368761284719 0.857362
94.0800845547368 1.06642
95.0498539107044 8.26467
95.0848949676343 27.288
95.1344315409912 1.75338
97.0652311823523 89.2681
97.1544798172888 1.35936
97.180464491173 0.86244
97.2170070373358 1.06053
97.5708079542635 0.981848
99.0441176117184 4.87718
102.092000028584 0.768288
103.00896118843 1.21884
103.053408626204 5.89892
104.062852770392 1.94332
105.069888821334 100.0
105.166219436528 2.09309
105.380010923809 0.7999
105.562888889306 0.954147
105.721470208625 0.933149
107.048233134043 9.26532
107.085474383841 44.0043
108.066872787819 1.05683
109.064945762527 41.8376
109.099679196941 12.7826
109.157671183405 1.25711
109.190326282235 0.764972
111.080122393411 1.25847
115.055202151221 6.79679
116.060150934342 5.74678
117.070013983811 36.8351
117.448350332202 0.796047
119.08531429694 48.9054
119.182172990284 0.884429
120.054148531866 0.824661
121.064868323977 82.0913
121.099911310183 19.5206
121.15720853031 2.07816
121.221523451457 1.23138
121.290789057699 0.980318
121.315445321449 0.95599
121.436756047779 0.924893
122.221833210372 1.27048
123.080249468907 57.655
123.18044626578 1.0151
123.307583344811 0.773101
127.053962652667 2.30619
128.063092335241 15.1379
129.068734040161 24.0661
129.757148051609 0.821182
130.077911024221 9.43964
130.131256190346 0.935887
131.08550026567 28.2298
131.140886006598 1.76714
132.094138466389 1.35465
133.100131250636 27.1874
134.072887660207 0.953115
135.07979609869 8.1278
135.11384380477 4.49462
135.197050140681 0.787859
137.096555994351 3.48829
141.070443003676 9.1448
141.121065934541 0.838796
142.074198250524 8.6291
142.113910766735 1.49267
143.086333417281 29.3372
143.172451088994 0.934973
143.404230454414 0.842922
144.090829521813 2.32588
144.125695494507 0.934958
144.5609524926 0.917344
145.100783157284 56.7414
145.190692736874 1.03838
145.76408487179 1.02626
146.074984390775 2.75803
146.989868164245 0.86042
147.079874022198 13.9927
147.115693634024 10.8238
148.087951922401 2.46333
149.095271825652 10.083
151.110638692751 2.61022
153.070436796058 4.17076
154.080215212427 4.13237
155.086993318786 13.9635
156.089342825383 9.3274
157.100920896953 20.2427
158.080418830836 1.96232
159.115103311319 18.1574
159.188327404706 0.763624
160.125248365569 1.64059
161.021947667617 0.874463
161.098958553791 5.67327
162.102424338682 1.09174
163.111632105797 16.4386
165.07406960336 3.19483
167.084134913891 5.09704
168.091091000193 5.39866
169.052581653305 0.974433
169.098989554664 15.4631
170.075230173675 1.0692
171.113514746935 10.2585
171.15631927304 0.92015
173.093790105059 8.94293
174.100131491004 3.69901
175.109734480401 9.33609
177.130577821888 1.98433
178.073249976809 1.24088
179.083943495426 5.43713
180.097047567512 1.72867
181.099775575015 8.28198
182.108580539459 1.57699
183.117582126053 9.57505
184.089212506576 3.5995
185.116184993671 5.29405
186.132143908398 0.840048
187.127795380165 1.34817
188.132432833763 0.799855
189.123484277574 3.09443
192.097871067488 1.47575
193.098400638645 3.50149
194.109696453843 2.01655
195.114064629028 3.23715
196.123566789679 1.07349
197.123599720389 8.77838
198.098117121533 1.52278
198.135966562553 0.838184
199.132560472717 3.60399
201.129294430988 5.03553
202.069867923151 0.946029
202.130746389221 1.78825
204.090628737604 0.911971
205.096974426165 5.89756
206.105036587629 1.88763
207.114271708751 2.33759
209.131325717807 4.11738
210.104936475956 1.78994
211.144110724024 1.68191
213.127751991702 3.33666
214.58633301964 1.66503
217.156835857654 1.51071
219.1139214815 1.32089
220.12313109026 1.73057
223.146353830527 2.36984
224.118023313778 1.39085
224.168909388285 1.21216
225.160353715964 3.1176
227.14033034407 1.91058
237.129713535917 5.47802
238.138584797269 1.64979
239.14332354955 2.70395
241.156835512122 2.86597
242.163837233747 1.25159
243.139805417514 1.91335
249.166444425793 1.7727
252.15238955341 6.05365
255.144753538512 2.22675
258.16229734673 1.13355
285.183766988052 0.914011

