>compound Buspirone
>formula C21H31N5O2
>parentmass 386.256479558387
>charge 1

>ms1peaks
122.071348107105 1.12978
386.256479558387 100.0
386.499654788683 7.54365
386.7410068224 0.502121

>collision 10.0
122.071082458926 4.65578
150.102637266982 0.614172
222.148285743193 0.608545
265.19058217949 0.543243
386.257091963945 100.0
386.500457976222 7.95495
386.742177643555 0.551248

>collision 20.0
122.071191512299 24.9844
122.210277356649 0.933885
148.086637840553 1.88855
150.102246856832 3.15851
152.106423564148 1.48678
168.101309612564 0.923876
180.101625012077 1.05691
222.148771549109 3.34072
265.19061671761 3.0207
386.256226333926 100.0
386.499706016726 7.00674

>collision 40.0
72.0813895926312 1.69589
80.0496128376628 2.78614
81.0697783522253 4.55073
95.0798720181476 5.28354
98.0964068424087 5.59023
109.08523515607 6.71673
122.071395328687 100.0
122.210344038103 5.66928
123.079781944841 4.06493
140.106534059764 3.84779
148.086573918461 14.0737
150.102135385615 10.9102
152.106421000809 13.5826
168.101469077492 6.82053
180.101332503714 4.42755
222.148541031338 7.33475
265.190699987624 5.85755
386.254697219569 3.83024

