>compound 17&#38;alpha;-hydroxypregnenolone
>formula C21H32O3
>parentmass 333.241414459013
>charge 1

>ms1peaks
91.0577201602713 0.829858
119.086491995687 0.622006
133.100296616427 2.42902
135.118490028575 0.693226
147.111542725047 0.871043
149.093440705593 0.54118
151.107865701292 1.56115
155.088993414325 0.501098
157.099158431365 0.53278
159.118474457392 1.59804
161.129992408478 0.507508
163.110671016267 5.57258
169.095546239111 0.609835
171.113764252634 0.696094
187.109363172362 0.94107
199.157476681075 0.595187
223.05695028046 0.786896
223.105061375858 0.606843
231.170050331426 0.685647
255.209749033669 0.905087
269.225480852588 2.30162
279.209173956147 2.46801
287.239080657186 8.41443
291.101035987799 0.824851
291.15861974519 0.667936
297.222416869265 61.1222
297.384965454851 0.83897
297.552442873526 0.635791
297.71717465614 0.655318
297.80415630037 0.756016
297.86510534592 0.551089
298.004395860538 0.611485
298.22028554075 2.07957
298.528187978119 0.653615
298.662954877401 0.513964
303.534736964254 0.680089
315.23439561108 42.8808
315.394584385932 0.750431
315.461908598318 0.833606
315.650134258296 0.511044
316.237710334085 0.807371
328.572077965298 0.520402
332.230568532623 2.60489
332.329830400458 1.36174
333.106565914206 0.977921
333.242693617575 100.0
333.415296561449 1.62165
333.454372089231 1.12234
333.50944704767 0.881176
333.605992496661 0.700214
333.696578184668 0.917256
333.7945995132 0.609537
333.866479015592 0.796279
333.945779924213 1.00402
334.017589883389 0.852551
334.200080997829 0.780654

>collision 10.0
67.0542839546228 1.0393
77.0389049401179 0.90205
81.0716733272079 2.02402
88.7988878967678 0.606452
93.0671113060775 0.948283
99.0832799667168 0.811556
105.068360893942 1.32251
109.100733611975 1.39321
111.075439696741 0.586812
115.052349383374 0.503769
119.085553399555 3.52592
121.099499312643 0.914915
123.116854028198 1.52949
125.000775508419 0.544704
133.101309068861 17.0779
135.115997899114 3.87489
137.100169126601 0.925102
137.130813322389 0.669944
143.083590221597 0.683867
145.097682358109 3.53776
147.116072101109 0.988992
149.126579286894 0.716762
151.111161235451 4.35328
159.02435372836 0.563051
159.112277626858 3.21551
161.131051913233 1.65304
163.109166302669 13.6903
169.102325322453 1.08702
173.133850530102 1.66374
175.149197996828 1.14678
177.128341652789 2.5676
179.140533154528 0.640804
181.105428318441 0.710392
183.11861549439 0.613688
185.13006565761 0.522835
187.115385444873 1.47251
189.160415172107 0.565093
191.143267271042 1.27295
196.984394088807 0.800333
197.131954040146 1.45971
199.142490915518 1.3794
201.125264127164 0.907883
201.162171822909 0.908115
205.151837519393 0.501773
209.133706384475 2.43875
211.144236942424 0.525805
213.170406245387 0.792425
223.061685451952 0.505683
223.144690591834 1.08738
224.062637290737 1.25772
227.177222677938 4.1525
227.226376501984 0.580065
229.181418645209 0.509167
235.163204263901 0.607357
237.163245727159 0.65414
253.441057520495 0.501915
255.195430558183 1.68868
269.225637130056 10.3938
279.211770638543 9.73924
279.301507962672 0.716755
280.370773242289 0.612022
284.978112256995 0.728837
287.238847145205 11.5368
292.183321336403 0.563009
297.221393541395 100.0
297.372442409598 1.91592
297.46348700687 0.904165
297.551332589499 1.10223
297.611719938343 0.537585
297.769099323179 0.824224
297.975221784568 0.557546
298.052621082441 0.588217
298.233175441667 0.85236
298.328768129314 0.506181
298.711771912405 0.581513
298.846735184779 0.598117
315.232060330927 31.8862
315.391313515417 0.885234
315.460784298462 0.538284
332.231657605197 2.13559
332.335628741378 1.72134
333.141453234055 1.23718
333.241414459013 13.4918
333.398667247939 0.617479

>collision 20.0
33.0359568768946 2.05503
43.0199471323107 7.81539
77.0364663182088 2.50543
79.0542157333564 1.70957
81.0712784061877 16.9906
85.066296623048 2.24875
87.0465966140674 1.87485
91.053582744575 7.1722
93.070059760687 2.01726
95.0828082421775 7.17106
96.0846968600372 3.80144
99.079006737948 7.34149
105.071596589596 6.11382
107.086283345285 6.39302
109.093637495388 2.32495
110.063200467945 2.45825
111.079852176509 2.23661
117.069209820207 4.63595
119.086633797435 23.8861
121.102059023028 13.3236
123.113788701392 4.80972
124.083318526154 1.7111
125.090813746072 2.26374
129.062214361112 1.90877
130.070995479715 1.62151
131.085698043259 6.00558
133.100859155161 100.0
133.206468759987 2.18264
133.467794286051 1.88181
135.116186881837 17.9246
137.100065627726 1.9614
143.085737133076 3.23392
145.102863175045 13.4585
147.11819947978 12.719
149.122339469028 4.76262
151.112441178156 16.9945
153.125842419734 1.94585
153.910241515383 1.60098
155.088143171325 2.17643
157.101690526373 4.33964
159.114397063108 24.1039
161.134091943252 14.1096
163.111775632976 33.1937
169.101283999402 4.38427
171.110206038879 4.7829
173.130766232532 6.55106
175.14143017945 3.96947
177.128971660998 8.32326
183.120030624513 3.84518
184.12687649338 2.01482
185.132341511267 4.6557
185.338929658492 2.12706
187.111653989084 8.07407
189.129436189921 4.66045
191.145055467975 5.46799
195.109501747977 5.29505
197.140087389065 2.11541
199.147147371693 8.64495
201.13471062853 4.34649
203.140477373906 4.21998
203.186438484666 1.90278
209.129260591858 9.41092
211.148077568151 11.0511
211.186933459932 1.7962
212.218780069375 2.17382
213.160615342829 16.4179
215.128196473408 3.06891
223.145030781012 3.56831
224.222484711348 1.88294
227.180748505735 27.428
229.151475577586 3.72536
231.18085713545 2.55321
235.167483101052 2.05979
239.18403728517 2.9509
241.172532771009 1.95876
247.163023220877 2.46379
253.195118570814 7.63329
254.194659956834 2.96605
255.186863601725 8.10462
257.198916437837 1.70913
259.167713927519 1.92217
269.225170817924 28.976
279.211040311504 17.3932
287.245673106446 2.63755
297.220630201976 69.1451
297.316724474602 2.32613
297.378155563667 1.9415
314.229518686055 2.33257
315.233263671596 5.97972
332.327997834919 6.34338
333.213288937609 5.00209
333.333828818323 3.25632

>collision 40.0
41.0396455497045 6.7971
43.0174604038301 7.95591
43.0540808739023 12.4731
55.0550455677086 16.9228
67.053970609072 34.7469
68.0504836015098 2.89514
69.0712081202918 5.59195
77.0334962802488 6.55737
79.0538356711555 14.0608
81.0702535905729 62.0123
81.813342675581 3.63455
83.084833010972 5.04875
84.0508096579212 3.0134
91.05421121747 58.5509
91.1443353781464 2.969
92.0556067350687 2.76475
93.0693420330539 24.379
95.0856029336618 22.9007
103.053080353415 3.32773
105.069423420846 100.0
107.046145865708 3.58323
107.084560984425 25.8653
109.097930246562 16.422
111.086131852506 3.61516
117.071144383823 21.4675
119.087104341217 55.384
121.100146860314 28.1876
121.136645904811 3.5018
123.07442570583 2.70601
123.110069627303 6.2086
129.06743634326 9.85888
130.072672631124 4.03889
131.084739132366 19.196
133.101342170529 92.7512
135.112820926011 12.8036
137.091580901405 5.58987
141.067288889288 5.17432
142.07192170653 9.15732
143.085948306344 13.2234
144.096385518147 7.48927
145.099295984163 35.0823
147.114006901866 9.69079
149.092469359932 7.33287
151.103928995105 5.40612
155.087514331294 10.9782
157.099748051651 21.8718
159.116026212834 25.6418
161.137082271341 7.90075
168.090818050039 3.98212
169.09946037691 10.045
170.106568487628 2.83485
171.116049123155 17.2133
171.163725395246 2.89702
173.134186270697 6.41923
179.081246658466 4.98075
180.09344372311 4.06781
181.100887460535 9.07454
183.114515563854 7.20069
185.132929802229 9.69213
187.152458110671 6.26094
195.117137261676 5.73522
198.819145866234 2.98168
199.146877825442 5.32649
211.148396884162 11.7946
212.147829122286 7.15833
212.234724680993 2.76082
213.156293533686 4.308
227.173936726676 3.51825
237.159242375891 2.82644
239.17329407605 4.60608
240.266610498804 4.38204
241.149734573792 4.17516
259.025516086484 8.21181
275.784837004562 2.78112
313.908225372749 3.18184

