>compound 18-Hydroxycorticosterone
>formula C21H30O5
>parentmass 363.217885101142
>charge 1

>ms1peaks
121.064674584957 0.509489
226.945973572678 1.17724
269.187906312661 0.896033
362.198822845388 0.743096
362.314898689782 0.704629
362.92552991066 1.39784
363.216727271213 100.0
363.444476371649 0.850732
363.596677219766 0.723261
363.883150054208 0.735607
364.189278504875 0.752174

>collision 10.0
90.9754817836661 1.11988
97.0623198287746 0.94403
121.066786297279 1.5389
147.115287768305 1.87853
158.963076202379 1.18692
173.132170999727 0.89382
211.144636709175 1.24006
226.950040296971 2.54638
227.14196793892 0.565964
251.177200331764 2.64387
255.175755053237 0.592073
267.167905901951 0.614666
269.188455332643 7.04405
279.173874731093 0.801289
285.186013729886 0.821976
309.1838329213 0.691969
315.192502609595 3.41564
327.193253240625 2.54849
345.207150710978 1.7855
363.217885101142 100.0
363.386385907384 1.88479
363.470597702647 1.1132
363.541308447707 0.553175
363.594867942254 0.528392
363.669046603742 0.671875
363.801819773671 0.800812
363.913095791641 0.86213
364.088635321417 0.521821

>collision 20.0
41.0400777463551 0.934271
51.0227415387503 0.689363
57.0674666282468 0.745601
61.0104627197871 0.746551
67.0523011752224 2.39903
77.0367932411526 1.5459
79.0585844936414 1.82854
80.9480888594371 1.0168
81.0695883588133 3.82452
83.0507546916126 1.30063
90.9764049469894 11.8221
91.0548951310413 4.05885
93.0731359282279 2.1267
93.1796367235011 0.929626
95.085270909791 3.73432
97.0653582647132 10.8458
105.071337637077 5.58501
107.086794478039 2.1816
109.066580193558 4.51936
109.102745570911 3.32934
111.078700061878 0.771594
117.071102723234 3.53864
119.084549774816 5.10344
121.065010919659 29.2478
121.092981677498 8.2925
121.17197062734 0.763022
123.081035111935 16.7204
125.093738820775 0.790021
129.069968054505 1.98632
131.086101238443 4.64991
133.099402703268 4.66119
135.077153552009 2.51349
135.116316331261 4.67095
137.092775481935 3.03166
143.084001714195 4.09003
145.100485538809 19.0106
147.114448804838 25.6843
149.096414024875 2.84276
149.131572663998 2.4514
151.107117493143 2.03518
157.095838289325 2.49858
158.963566428811 4.61548
159.081021524971 1.08138
159.118235171188 3.01961
161.097657988292 4.41231
163.10933244179 5.64664
163.142915863971 1.47783
165.120154703307 0.969783
167.084491554974 1.62446
169.102735926195 6.21454
171.116206698261 4.3012
173.125377358697 13.2559
173.174785499743 2.19443
175.110103872137 2.95245
177.125718852119 2.26329
179.104991233406 0.665512
181.099584367797 1.47256
183.116468884203 5.25881
185.129141360852 5.39139
186.138249509595 0.680492
187.114957380739 5.15729
187.312251797678 0.813353
189.123512561546 2.53351
193.12336378547 1.54755
195.113544603301 2.28482
197.121709887706 1.63818
199.140036024079 2.10466
201.126020535335 3.83492
205.121211143085 1.10407
206.964129283841 0.832878
207.134595717061 1.7082
209.13047679697 3.89181
211.142866101076 14.2336
213.138356603542 1.22759
213.47997939914 0.713709
215.13936420493 1.24276
217.125484703224 0.754523
219.139305714319 1.75965
221.142374243145 0.697075
223.143548338613 2.46349
225.163324514043 3.67827
227.177447806823 5.77735
231.139466323872 0.672645
232.071556309459 1.08874
233.149632704046 1.22773
237.159934782416 2.08768
239.161971818045 1.58841
241.191747135419 3.62872
243.146645998284 1.50179
249.157712093071 2.89424
251.115112235706 1.01896
251.177526334134 24.4624
253.154927318203 4.1265
255.17613410711 6.03619
265.157353879266 1.3469
267.174472427973 4.23106
269.188985052036 45.4904
269.343863559803 1.16999
269.383810977704 0.747614
269.814632503189 0.869617
271.171414985054 2.7406
273.174041741797 0.912061
279.172742403909 8.91972
281.187244779529 0.773475
283.160588166911 1.01804
285.18374971104 7.63071
285.289408780466 1.2902
291.181390915738 2.00774
291.267053857225 0.714103
297.184656271817 12.2487
297.267322289278 0.913569
298.250433428789 0.717212
299.185870336942 0.73011
301.170488201542 1.50773
303.190672959324 0.933167
307.707656276198 0.760742
309.185236915168 9.14197
315.193761326807 28.5817
315.355979418674 0.928013
327.194978953614 16.4817
330.817535548843 0.844093
333.204888197065 0.96204
345.203314142118 7.49653
357.274179140934 0.718692
362.220153591141 1.00175
363.216642431349 100.0
363.381650799106 1.95702
363.457428679503 1.35325
363.567505839983 1.29351
363.670686526281 0.832878
363.734489565033 1.16758
363.883701789168 0.663506
364.020832470581 0.800645
364.132930878451 1.02895

>collision 40.0
43.0178231348792 10.3781
45.0319781499046 2.21311
49.030651157256 2.2051
55.0174656240256 12.0877
55.0555369916379 9.25231
57.0325385995725 2.04315
65.0400285764422 4.09541
67.05555894458 35.9089
69.0344833261655 9.49829
69.0690562170472 10.6983
71.0482762572455 4.46087
71.086060725018 2.27911
77.0377158477417 12.5396
79.0536958347857 31.7664
79.0951912084401 2.10608
81.0716498537168 25.0577
82.1489321523483 2.08824
83.0506540506947 22.1616
83.0881944649 8.56048
85.0273983770124 3.70296
85.0618066617245 2.57068
90.977828335087 5.35069
91.0537853019185 57.4767
93.029196414383 3.63076
93.0698870789818 45.572
95.0470928996077 2.16703
95.0853641464267 29.1415
97.064816651826 90.5078
99.0459051299862 3.72277
103.056903955853 2.99438
105.070217451901 75.7023
105.164054857648 2.66662
107.085860310835 23.1016
108.137416335052 2.05976
109.065367852925 50.4794
111.082000263032 3.03619
115.050199139062 2.99672
116.0578954556 3.40504
117.070894108454 33.8663
117.400706915233 2.10535
119.086083358434 38.3026
121.064764695224 100.0
121.095838458305 29.2815
121.165627082122 2.4765
122.093699843491 2.79068
123.08111632835 73.935
123.187697866669 2.038
123.842332161984 2.43691
128.065883521097 7.80469
129.067780420187 30.8468
130.079110343313 2.63653
131.083646034031 67.7289
133.100861127574 36.2331
135.07746173881 10.0839
135.114657960786 9.7264
135.158940470745 2.21726
137.093290168781 3.78704
141.070532929102 12.7778
142.078146398506 17.6457
143.085492218019 33.8137
144.092121386655 3.33913
145.059865218656 10.651
145.099848415339 54.0046
147.10893526018 34.8829
148.084839117105 5.70882
149.094438464145 13.0794
153.068273989359 9.0496
154.075291896075 4.31301
155.083038902061 22.1747
156.095605580071 4.25784
157.103660095976 24.5862
159.111982220463 22.0442
160.12178139737 5.11763
161.092361367664 20.1794
161.129535917427 6.90524
163.10935422 20.9176
164.078090790617 2.69246
165.067153463832 6.22734
165.929452322305 2.28879
166.075121680873 4.00208
167.085864292575 13.8595
168.091830858357 5.01402
169.100000979486 17.7218
170.109979884144 7.14696
171.114167202078 16.1043
172.121635256381 2.86286
173.094376347889 15.5413
173.129892571172 15.1658
175.107496844051 19.7461
177.125834963553 6.19383
180.092397507036 5.1131
181.095958201198 14.3749
182.106637351412 2.99133
183.116725194332 21.1435
185.129249171179 17.9639
186.10032303122 3.25308
187.122903149354 5.28546
191.142260478051 2.46864
192.089159058635 8.61981
193.114885519142 3.25782
194.113741982574 5.06854
195.112949362409 18.3543
196.141052458796 2.08335
197.127194279208 9.4261
199.108809939192 5.91383
199.149204821783 3.5237
201.121925052543 3.5803
205.090701372712 2.07137
206.110190114311 3.43296
206.751504773619 2.64346
207.115425544721 10.4249
209.131837713964 11.8921
210.1349164757 4.41107
211.146974512894 17.677
212.121816132748 6.16321
213.133080893577 8.38061
214.128761752685 2.24065
214.165229466806 2.23891
215.142780729973 3.28917
220.124896209814 2.09943
221.129936441044 9.93984
222.140547471717 5.06058
223.149845133641 7.13586
225.165426608908 6.63358
226.16564335546 3.74315
227.14198945571 4.79931
227.201302088114 2.11044
229.135586176324 3.54537
231.129928069797 2.10759
233.129604804314 3.76647
235.147184352747 5.30327
237.162724605343 5.7262
239.161128338358 3.92893
241.17100403601 3.76282
249.150791242451 5.57979
250.173576065006 4.6602
251.180718151224 4.10496
253.153732136591 2.04642
254.167028319825 2.34512
256.179354882307 2.11044
257.15041371884 6.2991
263.127959025633 2.69158
267.171543234996 5.16762
269.172808049302 4.94817
279.170622001954 6.65587
281.181460692368 6.24569
283.16628802337 3.21431
284.170777174868 2.60786
315.183216367575 2.96002
326.212910991682 3.35428

