>compound Cortisol 21-acetate
>formula C23H32O6
>parentmass 405.233793769514
>charge 1

>ms1peaks
105.071183868171 3.73304
119.088060238639 0.996723
121.067351441951 1.01886
123.071068077438 0.604285
147.067561384662 0.97474
201.604082369871 0.817755
223.105903732236 0.521609
225.864951434847 0.731699
232.647716638478 0.51595
265.103315890236 0.569341
267.131134757529 1.08865
281.095970802923 0.808909
281.209745595838 0.562233
299.195885504587 1.02664
303.31341749769 0.575577
309.193436776379 0.864194
326.176924119854 0.839517
326.952056899803 1.07919
327.204027899563 1.11863
365.198874060307 1.34926
387.185448092671 11.0793
387.288224723418 0.536957
388.195468835126 2.65456
388.996325520331 0.648991
396.295827758589 0.521866
404.217607666243 10.9065
404.736293241533 1.14516
405.233793769514 100.0
405.38816742488 1.67963
405.463718408853 1.07444
405.522364747506 1.06563
405.605736654057 1.13943
405.674642670864 0.585694
405.892565273552 1.39369

>collision 10.0
43.0198808275178 1.43677
77.0404900054658 1.6645
85.0256397462741 0.75188
101.023797588849 2.04361
105.070616859146 13.8346
105.117404135753 0.964186
106.075884310697 0.666913
121.065868301927 6.54967
122.065986201783 1.28276
123.082055421442 1.1716
124.180925411624 0.608977
129.056200293457 1.09667
131.085661590701 0.992535
133.065964918187 0.910489
147.073415162449 1.28536
149.091727836711 1.02396
157.088051481978 0.64574
161.097849519928 0.819847
163.102775718702 1.87122
181.110339982927 1.33672
187.109652250344 1.03197
199.109458883863 0.950898
202.118440223325 1.59396
213.547846391074 0.772607
227.128346412474 0.65173
231.133646438725 1.1702
239.13562515489 1.56352
241.157675405595 1.39912
263.148942863995 0.742259
267.171770666302 2.73573
269.173924623397 1.28201
269.212003653835 0.979817
281.186140433693 1.48306
291.173555397191 2.55342
299.197226926661 1.74752
301.460547690631 0.696431
309.184491468409 12.7009
315.201220790185 0.996461
326.93804802529 1.71996
327.198357386739 7.57864
345.200573269107 1.38083
346.946329911825 0.624883
369.214715850379 1.88626
387.190864748531 11.5026
387.289311028706 0.804788
388.187237800451 5.08282
404.204848533296 0.829706
405.056871107538 0.651818
405.23064766783 100.0
405.461086304975 0.890204
405.597658583288 1.37567
405.729792625553 1.18793
405.774452696458 1.06892
405.836688485316 0.817495
405.990166912936 1.13497
406.0715309148 0.638514

>collision 20.0
34.7270566764319 3.05728
43.0166898469402 22.5724
49.9422718299158 4.17068
55.0585524992852 6.24312
57.035200537575 5.76533
57.0723783288369 4.87216
61.0287218759917 5.20759
69.0330645830315 8.83726
71.0823701262721 3.63397
81.0350008404983 4.09899
85.0294146794294 10.6524
93.0704812781254 11.4231
97.0656026623433 9.75445
101.023254934176 13.5571
105.070869616717 100.0
106.07429584103 4.24955
107.09246942754 4.69284
109.062600084307 4.04657
111.083307570623 6.2537
119.086265868058 12.7712
120.047903584497 2.922
121.066958017209 62.798
122.069068977026 6.45928
123.080529593033 9.33789
129.066586666838 9.54601
133.065747057999 6.95231
133.096852276804 7.60787
135.082900720735 9.31952
137.100969257803 4.86256
143.090829617011 5.24513
147.066919867047 11.667
147.117555454912 7.24869
149.099612333907 2.97955
155.087880484882 4.61286
157.102674885967 4.44713
159.081149222694 3.75388
161.097651155991 3.75048
163.107667423201 3.43158
171.113805637174 5.70668
171.19400385942 3.26555
173.091441751581 4.309
175.111975067938 5.5585
181.0985282329 3.83142
185.022153176177 3.25659
187.106890127832 10.9137
199.110518963778 8.06528
199.152184633417 5.7137
201.122146435916 10.4053
207.120712448906 6.26817
209.13579103592 3.28457
211.107566091166 7.46696
213.126621476721 5.50225
217.132264335768 3.57338
219.106575306571 3.8373
221.142909461127 3.17349
223.152195556454 6.84801
225.144453876793 3.33376
227.144103533823 5.43443
235.154742734028 2.96334
237.161830913897 5.51093
239.148215812815 12.2239
241.158578658585 22.3359
241.5023735073 2.84789
243.148468793053 2.80129
251.145288784471 6.26026
254.123296745046 4.12876
263.153341157564 3.91076
265.150330427644 3.37543
267.18026645351 14.9115
269.187351359833 7.93262
273.16820987871 5.53227
276.144466893712 3.61447
281.194173487439 14.505
287.193346854765 3.39059
291.17752422852 7.66047
297.189330293291 5.96203
299.198115678849 9.14101
309.192204687621 66.5854
312.181824062266 4.5301
326.162847059152 4.6256
327.199590046101 67.4494
345.218522317476 21.9899
369.212114290208 17.2305
369.286504903687 3.19775
387.216687110344 9.03936
405.133395569665 4.2683
405.232922404793 56.8518
405.333006308443 3.05627

>collision 40.0
43.0196172450686 66.9234
43.0503002696708 4.13702
53.0422865187225 5.3137
55.020339462902 9.6797
55.0541365647217 17.6983
57.0332434277513 17.7463
57.0725630609782 9.20393
67.0572264613474 8.51213
69.0361114507618 20.9599
69.069491411706 5.95348
71.0522179190402 3.99902
77.0375100171739 8.27685
79.0558904597284 15.3615
81.0301417060806 5.60276
83.0486383816263 10.658
91.0587000190047 25.3338
93.0335239272837 4.32116
93.0716129634875 37.9772
97.0668859375376 31.6107
98.0715626508277 4.10663
99.0486845553468 12.1803
101.022434551488 4.46309
103.041075857487 3.95296
105.071862653249 54.5332
106.076153588884 7.34769
107.086011414297 18.4757
117.068188483695 20.0036
119.079440606471 9.02711
119.523662504565 3.77491
121.066379095128 100.0
123.079406168345 7.67832
127.076137617195 6.62477
128.067708266952 9.57663
130.079101428581 3.90516
131.086854776109 22.0357
133.065237547171 4.27841
133.101781102501 9.87682
133.126800855065 4.38106
135.089064388609 8.28732
137.064279497146 3.82326
141.075716358546 5.3
143.08670803166 12.5744
145.10303094969 14.5873
147.117141396493 9.43139
149.097973723812 5.91642
153.068947203659 5.95989
155.089484998883 11.7265
157.105394104131 20.4321
159.078564616327 4.90828
161.099747816894 5.13223
163.109462198395 7.81308
167.088127704366 5.54201
169.107223231298 12.025
170.103729741001 4.64979
171.078481750643 15.4296
171.108715716672 6.57102
173.093655076306 16.2564
176.156357049684 7.16674
177.124574682365 4.94052
179.09747619733 5.42693
181.088612577294 3.72227
182.109356181421 5.62642
183.11751542297 13.9324
184.082595085238 3.9874
185.121329120631 7.55477
187.108010350986 8.01121
193.092744727327 4.69869
195.123372597338 5.54617
197.118156105516 5.39672
198.137380307376 4.81948
199.141186294802 6.61593
203.103079071948 4.07061
207.110547091011 6.49922
208.126465517646 9.75128
209.089401103207 5.73178
210.140874634498 5.41044
213.156945239313 6.00152
219.117400442946 5.40369
220.12747184358 6.02054
221.135421617826 4.55924
223.144452734594 4.09131
225.140822634499 7.1598
241.165652089481 15.8089
242.116961817351 5.39594
242.16950352612 4.64902
244.136329623575 5.40701
245.125512290223 8.36933
249.179137482566 4.26622
251.142754484326 4.56699
253.16152293405 5.88748
267.176584805538 6.09513
268.183608307668 5.55208
281.200125340908 9.576
286.191875217188 6.60257
287.205983717472 4.52936
309.184063870184 4.67988

