>compound Hydrocortisone succinate
>formula C25H34O8
>parentmass 463.232681499065
>charge 1

>ms1peaks
101.018549449703 0.529302
267.173313642038 0.569537
299.194169890447 0.955899
309.192526471435 2.12186
327.196577989468 4.54135
345.210930855028 2.6168
427.211958656586 3.44839
445.224003421774 14.9637
463.233708640938 100.0
463.446582792721 1.18517
463.525902198279 0.93418
463.682502747516 0.712224
463.871508157304 0.764339
464.177161563571 0.826297

>collision 10.0
43.0530323261501 0.9881
60.0798782241551 0.638701
73.0256723775421 0.908164
101.02066084829 1.08979
101.069354029189 1.12198
101.6119628409 0.645447
119.08595886651 0.766638
121.061565871657 1.71835
127.082489788926 0.612023
131.079797809319 0.813371
137.09405293633 0.616967
143.08291347517 1.3842
145.099891632605 0.838011
149.100084036554 1.54626
159.029192880559 1.1088
161.094166396106 0.838696
163.107279667272 1.02189
167.082928582236 0.925505
169.101874107294 0.589305
173.115847300795 1.19197
185.098250355674 1.92997
187.110330149835 1.06305
199.109314679933 2.93529
201.13233802424 2.04344
209.130817317042 1.14093
213.120045594436 0.771446
221.132976370543 0.737968
223.141693804819 2.02314
227.140940325853 0.897087
229.154592899924 1.41282
231.133625911333 0.601277
239.149222596974 1.54324
241.155359977771 2.47258
251.151462727187 1.31566
253.172242328228 0.840955
262.177409086367 0.700012
263.184107164097 1.70657
265.14983140094 1.58136
265.185117023028 0.682866
267.171099325328 7.26954
268.183090201116 0.633666
269.18867455996 2.85562
273.161467126212 2.41256
275.119903678019 0.809996
279.176223782851 0.908463
281.201884616688 3.27066
285.185244867535 3.17666
287.207020383953 1.5094
291.175174051025 11.4385
297.188089098994 3.61389
299.200657543547 6.86757
306.964568532691 1.36396
308.181031688897 0.57077
309.186588365923 33.0475
309.296759664148 0.629065
309.348841289464 1.40432
310.676115797254 0.639364
315.193706325212 2.18451
317.210652617257 0.967109
327.196846050079 44.6969
328.081205324248 0.730346
328.388169214756 0.663499
328.762006433899 0.626943
345.208340038813 25.867
345.611423324553 1.10733
345.965993808571 0.914495
363.223028175431 1.68499
409.20915447921 1.35497
417.232161136411 0.710181
427.209596645526 26.0363
427.398451454971 0.581227
428.087531880118 0.723858
429.273439893708 0.713019
441.316653003756 0.644325
445.222309912728 63.0642
445.462189113764 0.582653
445.543240626308 0.653068
445.732131087543 0.675993
445.860487412408 0.837176
445.965336682758 0.768563
446.241961046777 0.954461
446.386981631882 0.896737
446.945790439607 0.596192
462.239415051659 0.750911
463.232681499065 100.0
463.426541330011 2.10481
463.574350687685 1.12553
463.640731441529 0.743597
463.817448219637 0.715265
463.922643838014 0.723661
464.042565230274 0.98552

>collision 20.0
43.015753054354 1.42004
55.0208501110273 1.4339
56.7616608656366 1.2973
67.055472546289 1.49583
77.0375499771934 1.97797
83.0816901786817 1.35577
93.0691620302086 2.07374
97.0640815910473 7.1032
99.0419549814273 3.40645
101.022656960845 20.666
101.831879415314 1.1201
107.084977202451 1.36775
109.064092754411 3.9543
117.066817094107 1.54892
119.031390966422 1.72176
119.090676318925 2.48643
121.063309008681 16.0033
121.100033812566 4.10456
123.08025393562 4.35495
123.108826391271 2.64487
131.081554589853 4.0007
133.060521175959 2.6212
133.100329224507 2.12839
135.083164988475 3.23403
137.093568889412 5.84438
143.078675127283 1.50801
143.171800915452 1.17349
145.098865682511 2.0811
147.077983536242 3.80106
147.11573362394 2.03991
149.096213444692 4.54433
152.650754933304 1.15458
155.08512407333 1.67933
155.30061034747 1.18609
157.097424642204 6.6514
159.028422373859 2.16733
159.110661413901 5.63064
161.094072001968 6.22629
161.128446939752 3.05794
163.108089612193 7.43817
169.055599727555 1.20847
169.101486975114 3.45372
171.078231545492 5.99268
171.11414133459 2.51429
173.094503418133 5.34454
173.136232974148 1.2123
175.108458652701 2.53198
175.14559273892 1.34739
179.100663336227 2.23103
183.111773949531 4.21783
185.0932091746 4.27414
185.128967738368 3.45043
187.110801814672 6.41219
187.777961165165 1.18448
189.125797512581 4.97242
191.13993260583 1.82304
193.108860493826 1.6257
197.096118192262 2.04683
199.120455909275 3.73674
201.126064972114 7.4691
205.11057242809 2.72681
207.125687547007 3.57561
209.13111680405 4.75407
211.137535714773 4.06115
213.159754828474 2.65606
215.14397476591 3.25471
217.156535066601 1.49653
219.108225212842 5.53629
221.128713649515 2.50815
223.148148433217 7.22083
225.132716841883 3.30262
227.141410562564 4.85305
228.144039803839 1.3009
229.158641370031 3.20131
231.131659805877 1.98314
234.066448395818 1.45981
234.135835952664 1.69017
235.150301621374 1.10227
237.131988403928 2.06626
239.145420473351 8.99986
241.154663632769 17.5644
243.170095627509 1.87188
245.145710955795 1.10685
247.143353355658 2.56275
248.160707104477 1.12967
249.165427908143 7.64311
251.143068631811 10.4487
253.15944746709 2.58973
261.157230502192 4.10593
263.177805334553 8.26766
265.157716253225 5.21536
266.156384485239 1.54588
267.173125725914 41.4239
268.182681492576 3.67622
269.189127827789 10.5061
273.159745288385 3.88571
279.169904087346 5.05828
281.184188596492 19.1145
283.165920178714 2.71447
285.180649285875 9.58519
287.207691314975 2.91969
291.171708103692 27.6638
291.259565605146 2.11167
291.378882880832 1.11498
297.184754019892 13.4931
297.999849509699 1.24091
299.196904213441 6.63803
299.27348078937 2.13659
309.184204085242 100.0
309.331975076465 1.73567
309.656766195654 1.24032
312.165638175563 1.10482
315.20051887558 2.85232
317.219347150456 1.14503
327.191610232767 85.9249
327.345891787416 1.51686
327.54402742351 1.47744
345.204057608251 33.0772
363.208792587565 4.47029
385.180506466037 1.82722
409.206407453866 4.49064
417.254648491932 1.18469
427.210302344354 19.246
445.218586115959 20.7239
463.227683234768 18.6849

>collision 40.0
30.6153562890462 2.00941
31.0217276191134 2.26965
43.0177697110242 7.48322
45.033694935633 5.94763
55.0183708022008 18.0744
55.0530591754702 5.10749
67.0519287963105 3.89926
69.0382898849481 1.80492
69.071742300945 4.34985
71.0490212861345 1.80643
73.0287987671696 27.5128
81.0679426229873 2.29646
83.0475878411111 7.68461
85.0700224279983 6.62653
91.0533339526371 12.5559
93.0715855554983 16.8741
95.0462240947668 1.83778
95.0832589614748 7.25467
97.0649668026944 33.0057
99.0421390882121 7.34022
101.023641491071 100.0
101.115387852106 2.5438
105.070443278721 22.3811
105.116311149063 1.68876
107.044730163393 2.50374
107.084806121271 6.379
109.064684200879 12.9962
111.085174800118 3.13982
119.084720939746 17.1223
121.065559295707 54.6752
123.07988297949 24.5946
123.833779514797 1.68142
129.069634150124 15.9806
131.085489913892 12.2671
133.102220670002 15.9973
135.077626628468 8.43598
137.097058471015 3.52931
141.066345877412 13.1307
142.075866019287 2.95002
143.087860220218 24.2577
144.057194274203 3.51894
145.100918524255 17.9194
146.089843347332 3.04863
147.086551434852 9.37205
148.08688355611 3.09239
149.098303171935 4.79875
153.070332871053 3.52656
155.084004636083 22.3069
156.096415498197 5.38708
157.041637263573 1.70258
157.099807753477 25.1571
158.076728054476 5.52623
159.115176519579 25.0787
159.394749052458 1.75671
160.092009760538 1.89632
161.097873207297 11.5853
163.067474721325 3.03452
163.113353402496 7.07676
165.08038831753 1.97739
167.07750306929 1.65696
168.094132586413 4.65815
169.102440907239 12.5535
171.100690728303 6.17413
172.203048677402 2.69387
173.096440064303 17.4879
175.10761444632 6.40606
177.132923624156 2.06564
179.082599848015 7.6598
180.093073553186 2.92231
181.101895641695 8.53936
183.113540955612 5.88181
184.121322704787 3.49702
185.126020354892 13.0876
187.112964304017 8.60612
189.123124696706 2.37026
194.105932618746 1.77441
195.118188108961 14.112
197.115707994825 5.08523
199.131275153341 6.86164
201.05336163331 2.6655
201.122370705627 6.02339
201.158598904086 2.53598
205.098717018818 2.46374
206.118089073687 1.64192
207.114731238128 5.63545
209.130640801664 14.9937
209.410482592293 1.65901
210.139935896591 3.77634
211.133207195879 4.03048
213.128676778106 6.47918
215.134690459929 4.09028
217.117986612589 2.8321
221.128329733799 1.85293
223.149358807687 10.5853
224.150716730791 2.35781
225.145690032428 8.16053
227.148222704669 3.24384
228.159360922281 2.79322
229.069887521822 2.14652
229.125979585425 2.05847
233.116144921471 2.06394
235.149629603445 3.64036
239.15156183505 10.189
241.161844102939 21.7048
243.172193184234 3.58736
245.116831724776 3.36361
247.142224472593 1.911
249.167441045591 9.12916
250.174695417104 3.6095
251.151990953002 14.8229
252.156267098502 4.97816
253.165801676053 9.4635
255.178290591424 3.07725
261.163458407154 2.38146
262.170077462528 1.80439
263.174052858969 1.64534
266.157480815498 3.0527
267.177000041132 10.4211
269.182717697354 7.50439
271.133351781309 2.29328
281.18650062179 5.18441
285.175202703633 2.43608
291.178627088675 8.52355
294.17296602404 1.8666
297.180945922104 2.66535
299.194052224383 2.48513
309.191968730087 5.761
320.46190077902 1.68488

