>compound maltotetraose
>formula C24H42O21
>parentmass 689.212024241963
>charge 1

>ms1peaks
689.212210483406 100.0
689.438440939144 1.0078
689.710528648445 0.619779
718.71052864845 1.0e-13

>collision 10.0
689.212024241963 100.0
689.439425329474 1.02531
718.43942532947 1.0e-13

>collision 20.0
689.212183146931 100.0
689.43740346395 0.946075
718.43740346395 1.0e-13

>collision 40.0
347.093479147179 5.55847
365.104660808363 5.26709
509.147456367277 6.81079
527.158170898892 10.3211
629.189265775851 1.12282
689.211563789292 100.0
718.21156378929 1.0e-13

