>compound Undecanoic acid
>formula C11H22O2
>parentmass 187.167570981253
>charge 1

>ms1peaks
57.0698455983434 2.92697
71.0834045848855 0.888514
89.0589367690694 1.4
103.074458789674 1.98677
121.000083809365 0.519469
131.110380684965 0.564571
145.02290206991 0.634656
147.525666458428 1.15732
165.59007261894 1.37203
166.090269056174 0.874867
185.970504100363 0.542042
186.119433061722 11.8302
186.222748562606 5.46775
186.541663160396 0.680973
186.595708177423 0.541999
187.035072563124 0.991363
187.101007215481 3.10794
187.168453242755 100.0
187.419345311662 0.513815
187.510769696242 0.526793

>collision 10.0
41.0406155258311 7.77937
43.0183641055015 5.14016
43.055405154992 53.5022
43.4057541178198 1.94745
55.0520040853132 2.51362
57.0334901073627 3.61164
57.0710377757295 100.0
59.0479378220735 3.10406
67.0532841846168 1.85343
69.07103616034 13.0181
71.0875339331209 20.728
73.0654059941122 2.69704
74.0991946031265 2.24165
75.04428154393 8.6631
81.0689128364423 5.61764
83.0123546136955 1.69296
83.0469827534924 4.0689
83.0876856788659 9.90038
85.0652781415652 1.62958
85.1032998735126 8.22345
87.046256072339 5.85302
89.0604405918801 45.3898
89.2689096038413 1.96241
91.053245091301 1.95296
93.0698427422489 4.25393
95.0871710617608 8.29749
97.0649796945744 3.66678
97.102666210129 6.58544
97.9916829557167 3.07968
103.075177471779 61.6594
107.086455564763 3.67824
107.983040491463 1.62686
109.067383045784 1.68279
109.102353603932 4.46788
112.077755203927 3.98582
115.070059152635 2.31892
117.0889213385 14.5113
119.082388906355 1.75057
120.993598640765 3.2944
121.102390130896 2.13611
121.99903046207 2.19148
123.113855254463 2.33582
130.128607015439 2.4569
131.105220496505 6.65159
145.124458780451 2.63123
146.985985675215 4.03731
149.13168508193 2.8686
163.017315920399 2.62739
169.153056032325 2.43059
186.119182352515 11.9105
186.222530337052 21.2937
186.26104057124 1.66826
187.095379372035 6.92231
187.167570981253 78.2731

>collision 20.0
29.0389751169234 4.43345
41.0400398090567 37.5875
43.0194275085251 13.7657
43.0558075171667 100.0
45.0316594342856 2.79326
55.0558629679164 34.5701
57.0705474621843 91.6777
59.0481290191664 4.26904
61.0113066014061 3.5216
67.0561785949683 7.10977
69.0708025338865 24.5289
69.5144377803016 2.28827
71.0851676526454 4.12359
73.0674122976552 2.80148
75.0437137513442 10.95
79.0548712409538 2.70901
81.070436353341 10.8782
82.4974545208293 3.15179
83.050829587536 2.17448
83.086277892819 13.8792
84.0773549525546 2.68655
87.0513511217563 2.20032
89.0600984554455 30.8534
89.9763419183717 5.53816
93.0702937494924 3.17747
95.0152735408373 5.2629
95.0844328940758 20.9906
95.9723028277548 2.34574
98.0627465788 3.38803
100.443319356399 2.5758
102.994923932496 2.43848
103.07373838599 11.6728
107.958130696256 6.97647
117.088100562661 2.56627
118.943512784991 2.32972
130.161002006433 8.71259
186.219434848271 8.77055
187.122458271778 2.85063
187.224148964316 4.22002

>collision 40.0
39.0256409519489 6.17095
41.0400141763478 100.0
43.0198589003283 16.7736
43.0558028869161 72.4616
44.0253675807157 4.08227
44.9996561563158 4.89056
45.0327586488194 9.58229
51.4773546871414 7.01756
51.9395945455164 4.15869
53.0383127827881 6.11108
55.0561535971569 49.3997
57.0317209770494 4.83898
57.0709837368398 15.6841
59.0493269807911 8.60767
59.9337227677402 4.80965
62.9903819512724 5.29943
65.0391021244908 7.49723
67.0544160484273 4.94755
68.9557278396437 4.57574
70.0180548464932 3.52533
73.0639478388707 7.27294
75.042993347519 4.02844
77.043854804318 3.99461
79.0488171054874 4.25916
100.991283220079 4.65571
102.989355623028 4.19266
114.351894707201 3.91153
133.102355251919 5.1385

