>compound PGE2
>formula C20H32O5
>parentmass 375.216124265794
>charge 1

>ms1peaks
257.51387903153 0.740886
295.997515267661 0.532388
296.976335465557 0.604409
298.938334230386 0.537341
317.211725005882 1.98061
335.223353933494 1.96092
338.633716595454 0.598391
341.292415320157 0.629593
356.282174058153 0.935552
357.216336233929 0.575697
357.296172810979 0.562801
359.312787957181 2.03327
360.318118920784 0.75979
374.289980363184 0.835254
375.066426987814 0.630098
375.211023054205 100.0
375.38310164278 2.01904
375.439946686121 1.33732
375.514733574078 1.00417
375.561939580825 0.91347
375.734735935188 1.10133
375.930332937865 1.04931
376.013842848486 0.860258
405.01384284849 1.0e-13

>collision 10.0
55.0145155849733 0.66688
62.0560032229418 0.950334
111.110673489153 0.567104
189.094362730756 0.873279
250.99660459047 0.592197
267.274023030155 0.623417
284.187607269252 0.615139
296.979285414346 1.37481
298.315877997174 1.38117
298.99839925059 1.237
299.207081885351 1.38747
317.210866287932 1.76017
335.220414309167 0.882079
339.28890733739 0.52434
341.310277146668 2.37429
357.215883129686 0.632645
359.323695358172 0.997732
374.252763768301 1.83985
375.216124265794 100.0
375.379035394868 2.125
375.499301217276 0.707554
375.630477522542 1.03346
375.777776708553 0.631257
375.841510417326 0.57638
376.009665717705 0.680971
405.0096657177 1.0e-13

>collision 20.0
55.0504211203403 0.816908
57.0686258370999 2.85773
61.0086295977067 0.678401
62.0556407913497 5.74851
67.0515969821448 1.97244
70.9909178807847 0.50246
71.0813007826349 1.28078
72.0860925351857 1.26885
75.0424684499957 2.24213
81.0665108378693 1.21964
83.0795487410542 1.0867
84.0863172476014 0.739938
85.0987596698262 2.94712
91.0500954655824 0.745769
95.0810050572533 4.1809
96.0392582320198 1.17003
97.0982306502336 1.59636
101.05774525709 1.29608
109.097330917484 1.23029
110.086027303177 0.582919
111.107896439468 0.544331
121.097236302507 1.37109
121.741632139186 0.698032
122.047923859209 1.4434
123.113710998932 1.31927
133.056504049434 0.621257
137.134653668999 0.857847
145.09401090638 0.942812
148.973276506924 0.975671
154.06991874722 0.570017
155.076899652504 0.751447
157.089581702605 1.35221
161.12366540967 0.789712
169.095054354001 1.88649
173.089497131832 1.83531
175.003937589941 0.641416
177.085103506812 0.632351
178.908063142866 1.36475
185.082201631293 0.521343
189.091013110042 1.03875
189.156622288364 0.748503
191.006019600744 0.692611
191.17272387689 0.627095
194.18453777885 0.813023
200.002139482401 0.704429
209.139187267565 0.94836
209.18664139111 0.559212
211.106780668828 1.12099
215.932663979693 0.529693
217.119346530595 0.773394
218.94646704633 2.20625
220.922095365667 0.924024
221.909800398375 1.12079
224.129774896481 0.529861
225.003727814143 0.529861
226.132908367699 0.572656
230.126660921347 1.01334
233.116349372993 0.643161
241.180222918748 0.765521
247.205602393042 1.50502
253.190678887948 1.09066
263.187604594355 1.06065
264.175500194899 0.632351
265.250599751935 1.18773
267.26554710055 1.98773
270.269422082209 0.521343
271.18946856338 1.50245
273.172499408287 0.97312
274.177768235249 0.708124
276.11821648125 0.738912
281.183811284943 1.61402
283.258207214922 0.566807
285.261061551549 1.38258
295.947445528647 0.605424
296.976231786056 1.57634
298.242334764832 1.04906
298.302356022412 6.52724
299.094517091648 0.882691
299.19397343338 2.94685
299.310151237571 0.951349
302.196631265718 0.862987
317.205385004186 2.13119
335.213020775279 0.677454
339.286276412014 1.75016
341.301627165167 5.45756
343.17128640224 0.981213
343.814746853956 0.727623
352.336376196542 0.965203
357.198907849906 4.15132
358.191012497995 0.969455
372.552194220686 0.550079
374.24009274061 3.11169
375.212081530463 100.0
375.311460868391 3.25398
375.389322482057 1.79727
375.427318205318 1.12161
375.453484763579 1.46628
375.494495547514 1.27126
375.680147000036 1.07876
375.802512062323 0.561881
375.857928968311 0.643469
375.942407924681 1.61876
376.138966242752 0.604471
405.13896624275 1.0e-13

>collision 40.0
55.0159101130483 4.58417
55.0495353555565 6.09193
57.0285343298934 7.03088
57.0684524630255 100.0
57.4411691650225 3.20617
58.0620957969913 7.17446
59.0477294238137 3.01318
62.0576175035643 24.1218
67.0533267976144 27.3046
67.0763980252562 4.63805
69.0382019176463 3.16591
69.0685700350892 12.7984
70.07246029719 8.60103
71.0816089646931 15.9705
73.0214373156609 5.71016
75.047647554726 3.01036
77.0355358971454 5.0835
79.052166818162 18.0141
80.052493956706 3.08051
81.0692293315148 19.3385
83.0803315749577 4.51463
84.0780372512508 9.36231
85.0983453603108 7.53963
90.5260703249661 2.94577
91.002858231051 3.38185
91.0533113019646 7.70433
91.0781626832872 2.99539
92.9968162314864 6.23727
93.07082308011 19.8399
95.082598795088 11.5107
96.083728268076 6.36913
97.0559485019868 4.46522
97.0904284399571 4.39835
102.050794796418 6.14882
102.09547505268 11.5221
105.06752980896 15.0142
105.973282364024 3.88266
109.100503791461 15.4361
110.103551343256 4.82539
112.037229401841 5.20088
115.066371607736 4.18888
116.902819003525 9.17748
119.082948314341 4.02906
122.990585906802 5.58401
123.082119794561 5.36122
123.115757402333 14.1052
124.969072756742 3.12016
127.082905621333 4.09921
129.066733199751 10.6506
130.068740726225 6.47678
131.004211219045 5.36802
131.082721921486 6.80823
133.064247107663 4.24561
133.100035076424 3.15066
133.950963502756 4.36823
134.107551683862 3.88266
134.913541061218 3.4244
134.952349347951 4.47437
135.110538078605 7.17362
139.073394291578 6.97482
143.083061937536 3.48159
145.103640139416 6.29888
147.118690214499 6.17627
149.018042104193 2.92801
150.950733025495 4.33102
155.081624748932 6.37476
156.948859860091 3.16841
157.096133788669 3.66001
158.076357688149 5.35826
161.083378461223 4.06719
161.135763645353 3.39161
161.888184303905 4.48169
168.080150073757 3.38368
178.075610027168 6.19457
182.093636738964 3.5211
183.114033971483 6.08111
184.124161842845 6.09209
185.111802759553 4.97892
190.081835475039 4.04126
196.110998217866 4.22731
198.141475191846 3.55479
201.093030884252 12.088
201.151451477727 3.93817
203.361721211812 3.13297
210.975567504188 5.60439
211.105438994308 7.69236
218.070736856488 5.08742
228.172617530997 3.54655
239.140962716656 3.15371
249.124116002069 2.94448
282.177387144676 4.34423
296.091131360826 4.5407
298.308242083006 9.09372
327.30824208301 1.0e-13

