>compound TXB2
>formula C20H34O6
>parentmass 393.223232427595
>charge 1

>ms1peaks
314.981080403775 2.05998
357.203628434304 1.55227
375.21346368807 7.83151
392.976590701237 1.52971
393.225905925132 100.0
393.401922060917 1.9596
393.468490617253 1.14256
393.573599231828 0.950512
393.648745931969 0.657858
393.774403040147 0.901807
393.9686815724 0.889142
394.208654548594 1.595
423.20865454859 1.0e-13

>collision 10.0
178.944282403725 1.54025
221.003859581006 1.4047
303.191174710713 2.75104
312.966351603631 0.501092
314.986357289238 2.52763
315.060807059541 0.527918
331.183167855613 1.60685
339.187468414782 1.23496
357.203049477632 11.1142
375.214282887244 41.8895
375.528139737429 0.569142
375.943013860639 0.626237
376.181669444034 0.680791
393.223232427595 100.0
393.400710798691 1.88005
393.537433906801 0.764794
393.60469433562 0.867463
393.70899312644 0.890247
393.944702173719 0.762185
394.09487511971 0.659114
423.09487511971 1.0e-13

>collision 20.0
45.0378041794703 0.948732
62.0182022238477 1.51585
81.0675870780657 1.36053
93.0689030253564 0.702211
112.816449603375 0.569287
121.06094840617 0.738508
122.077688462956 1.06214
134.952581826312 0.608954
140.963796474364 4.15256
142.954935210597 1.06739
142.987396690139 1.30858
149.392999047287 0.571508
164.962969180144 0.849776
178.94230150805 2.37684
193.076336795249 1.01686
205.025953315763 0.578061
206.155271867119 0.83958
213.030434638912 1.03977
216.972783295534 0.911871
217.360405457459 0.683002
218.973070552191 0.959178
221.007161307816 2.91857
234.95024127562 1.27483
236.941690719501 1.15705
257.104917161726 3.83913
275.121771979211 0.697587
284.066941157243 0.80297
285.180666383107 3.56479
303.192695214674 13.6327
303.937602777502 0.597627
314.969560542603 0.640611
331.187642858456 12.1893
331.977370389453 0.721157
334.233862384722 0.594514
338.869324237187 0.71146
339.190372927385 9.96122
349.187960271552 2.53503
357.200979074628 40.2016
357.342031249365 0.856039
357.556680987651 0.569465
375.213745671242 100.0
375.438712206698 1.14786
375.485184709241 0.700684
375.669484332987 1.36759
375.780049202893 0.683199
375.906276234697 1.23531
376.02415835597 0.967764
376.356033282876 0.59916
377.134940485931 0.995497
390.651734462554 0.586403
393.223478232551 60.3245
393.36672724396 1.0245
393.536260279395 0.639493
393.608888363142 1.0552
393.891488946162 0.771294
394.126621926808 0.574504
423.12662192681 1.0e-13

>collision 40.0
43.0575977797475 24.8284
55.0596470724592 21.3664
56.9646162875006 13.74
62.9527105398663 63.8779
72.0930866549564 24.2254
86.0077827612105 15.3778
86.6338438381224 11.5772
134.953542640603 42.2858
138.969790524835 23.2728
139.121735799508 11.8628
140.966771409997 62.7383
141.963420245022 11.6298
142.993300470482 100.0
144.012602778022 12.5474
153.011987183133 11.0739
156.965068559202 15.0056
158.990055493963 11.2822
178.941600616384 15.7909
221.000385219861 12.2218
225.083949684216 16.7588
254.08394968422 1.0e-13

