>compound Phenylacetylglycine
>formula C10H11NO3
>parentmass 194.080925224102
>charge 1

>ms1peaks
76.0398326522247 18.0822
91.0546302513215 3.3051
176.070833312962 0.5346
194.080925224102 100.0

>collision 10.0
30.034171838708 2.27101
65.039174320526 0.710538
76.0398478202518 100.0
91.054588651375 74.3331
120.081368030426 2.43303
148.074528044021 1.10571
176.070378681302 0.886633
194.080831748801 4.34902

>collision 20.0
30.0344005190009 2.20978
65.038332386978 2.29164
76.040010445936 21.9715
91.0544624158392 100.0

>collision 40.0
39.0213291907485 0.657329
41.0384396521643 0.50308
65.039257683335 16.7989
91.0543196334428 100.0

