>compound Phytic acid
>formula C6H18O24P6
>parentmass 660.869570998925
>charge 1

>ms1peaks
562.886639306655 0.599381
660.86883175577 100.0
661.267581466138 0.538022

>collision 10.0
446.906570384074 1.07525
464.921852523792 0.77931
544.880043498758 0.857781
562.889817839416 2.6208
642.860644656499 3.39499
660.869570998925 100.0
661.069644937448 0.847873

>collision 20.0
98.9819575189152 1.13588
109.027564268263 0.741559
160.998388896488 0.571021
268.965791486711 1.40336
286.981626692718 0.867266
304.971130275322 0.538021
366.938350739784 2.09873
384.952921043072 1.39058
446.906702568957 11.2581
464.916515097057 14.0052
482.921929165951 1.44255
526.870775334987 0.722498
544.879945732246 10.8952
562.89299052455 34.2081
580.900421635363 4.96123
624.842800869055 4.46903
642.859417581579 25.8571
660.869681627938 100.0
661.255949908843 0.587289
661.787160895366 0.518775

>collision 40.0
74.4482589916545 0.686323
81.0328422576505 9.78319
98.9839944101778 38.0753
99.7467054247169 0.738602
109.029045079283 20.01
109.079637762044 0.903246
118.983435033865 0.855175
160.937947040958 0.943607
160.999580429392 8.4769
170.98961769882 0.773018
178.950873518264 23.3016
188.995417782442 19.8902
202.950429591741 0.70701
207.004583047592 5.87628
240.964042273603 7.133
258.919416844576 12.0421
268.962576121873 39.8127
286.971018545334 41.9861
304.986670639618 2.16848
320.937567066556 1.22227
330.898307603807 0.883168
338.889803073431 0.735366
348.926091559702 8.37839
366.937977306184 61.7547
384.946671996672 38.0137
402.97134400183 1.64923
428.893086447806 8.79674
446.904749582464 100.0
447.097665905026 0.952148
447.476720286912 0.992265
464.916237127717 57.0981
465.021730807918 1.40358
482.925273751095 15.0534
500.93308603157 1.81643
526.874086750422 7.98309
544.883352837125 23.477
562.891035504039 20.0599
580.902775675521 2.92803
624.841468746947 3.09306
642.842729653973 3.17528

