>compound Suberic acid
>formula C8H14O4
>parentmass 175.09567330082
>charge 1

>ms1peaks
55.0550107006641 0.946295
69.0694359114773 0.728967
83.0863944054904 3.94594
111.082007054622 2.62205
139.077286719877 1.26886
157.085711469249 100.0
174.073009709033 1.134
175.09567330082 33.3774

>collision 10.0
43.0579574985007 0.656483
45.0372673073255 0.531913
55.017977046363 3.38929
55.0548672951085 14.9518
61.0287948189675 0.767341
66.0205916067385 0.602613
67.0540397021325 1.67495
69.0707502511768 15.7734
71.0507958510907 0.732219
79.0551032715523 0.560913
83.0862429184832 100.0
83.1702369184472 0.828712
83.2423037973161 0.537343
87.0825703867076 1.66349
91.028956947667 0.508085
93.0700154712939 1.53211
95.0464124223142 0.588159
95.085514646574 0.934044
96.041960253625 1.40981
97.0648871401164 0.682329
97.9647712136394 0.513522
111.080303991932 44.1576
121.065923707927 0.715199
129.090111375183 5.21652
139.074808983953 19.2685
157.08534840792 73.1786
157.204787267003 0.525244
157.408011946453 0.6763
174.079211178611 0.67067
175.082957636063 0.524352

>collision 20.0
41.0397494408011 5.61989
43.0185401617225 1.24495
43.0557800805584 1.50099
45.0341832816837 0.896498
55.0187538818761 6.58912
55.0550743198526 100.0
67.0544494311677 3.71518
69.070290069414 38.1351
77.0406621343997 0.721153
83.0510900526334 0.524263
83.0857929037092 83.9858
87.080770172249 6.22045
91.056176862932 1.31902
93.0693490648023 2.88069
95.0848156200502 1.06659
111.0805245639 3.49984
121.068607075284 0.820046
139.074470829913 0.659787
157.089552215335 0.560766

>collision 40.0
29.037568042532 0.830534
39.0244301538439 5.671
41.0395358907163 48.1706
41.2402824574055 0.577335
43.0185512531531 5.65145
43.0555209001283 3.68637
45.0345696390611 9.97383
53.0391638782981 2.9965
55.0184626135593 4.94517
55.0548201740612 100.0
57.0301901034186 0.881204
57.9415521416387 0.699397
59.0496023250257 0.713855
67.0547165226513 1.28782
69.0703906303708 10.934
77.0369246389853 3.36244
83.0851533522173 1.49987
87.0790873377287 0.723788
91.0605982630573 0.850038

