>compound Thymol
>formula C10H14O
>parentmass 151.11110007116
>charge 1

>ms1peaks
43.0551851561446 1.93152
91.0539439618842 1.62286
109.064554450027 58.0678
110.007834216989 3.53507
132.110967934399 0.966991
149.954150282387 0.544505
150.113343689805 1.15224
151.036135322318 2.70173
151.11110007116 100.0
151.196851731859 0.824646
151.257596210833 0.576652
151.36123582002 0.520478

>collision 10.0
41.0402086367572 0.692653
43.055200753203 15.9799
66.0192137539204 1.44893
68.9831926891119 1.2024
81.0697200469934 0.983241
91.0543892521675 10.6808
94.0413769016425 0.935542
107.049446878424 0.714924
109.064716971425 100.0
109.159426972102 0.675768
110.007927556625 4.20464
135.079057760282 0.769864
136.083980062342 0.556948
150.107054549515 0.822842
151.110389098004 2.70091

>collision 20.0
41.0396350381404 9.59
43.0191791109506 0.890764
43.0550169958816 45.9499
56.9645161085274 0.748064
64.9396088027503 0.930589
65.0384890744597 4.79872
66.0200087643658 2.84952
68.9825651435435 7.81133
70.0380740757405 0.851663
79.0544615503025 1.53329
81.0702000336281 13.7062
82.9462981549374 0.550371
84.9984701524166 0.747459
87.9538026416714 0.874725
91.0544219719767 83.7233
91.4176619397839 0.622758
91.4525806469331 0.590562
93.0354691880467 2.20092
94.041764492528 10.7324
107.049658362368 5.35249
109.064781839281 100.0
109.162180503039 0.849742
109.192670520788 0.577011
109.35002125843 0.518145
109.382288181481 0.57901
115.044780159652 0.787602
117.0690056141 0.969223
135.079779208338 1.16315
144.997628594115 0.715663

>collision 40.0
28.037411807634 1.30201
39.0240745313233 15.4969
41.0393985318635 62.8715
42.0342981735158 1.44854
43.01880622612 2.82121
43.0549957066744 32.579
51.0225142060347 5.62915
51.9404149208508 1.48315
52.0263593702824 2.16645
53.0375927936488 3.61994
55.0183758121626 2.91515
55.0556806773202 1.47627
56.9638235541674 2.84485
63.023626249106 2.8161
63.9315870675099 1.87945
64.9374714700292 4.09499
65.0388847343453 100.0
66.0453716129923 25.6763
68.9537260283868 1.39333
68.982502976631 4.55629
76.9286856493117 1.57807
77.0394515923934 15.0703
79.0551515292434 15.801
81.0714705767806 5.25467
91.053846034421 58.7157
93.0324278100583 4.12152
94.041527196546 80.0796
94.0971222852213 1.33341
107.049884282383 12.1836
109.063076485261 3.93836
115.050745352348 3.10996
116.058176990893 2.5348

