>compound Psychosine
>formula C24H47NO7
>parentmass 462.343598185478
>charge 1

>ms1peaks
264.270313353444 3.65856
282.280441576591 2.6984
300.288886332679 1.09114
444.331027179877 4.23949
461.331420301202 8.59874
462.344448645031 100.0
462.598656102353 1.00845
462.73042293624 0.661624
462.907222989436 0.853857
463.151428397228 0.683804

>collision 10.0
247.241853675721 0.576661
252.270242452244 0.696527
262.249564199926 0.534599
263.257872417507 1.5399
264.269736514671 23.1277
265.259056368698 0.518599
266.282788052928 1.66485
280.268855850281 0.562873
281.267613511104 1.84776
282.280600306625 32.3867
300.291132929177 4.5535
414.321928834397 0.62079
426.320861690427 0.797013
443.323793133547 1.16396
444.333094195362 20.3592
461.33101334623 6.24655
462.343598185478 100.0
462.534632022992 1.73525
462.605132563226 1.03976
462.728799224635 0.5204
462.796279003187 0.624134
462.887655737859 0.64197
463.008217309491 0.621458
463.295578310877 0.56388

>collision 20.0
56.0513510224003 0.802872
61.0300884484792 1.02676
69.0718268761873 0.808403
81.071547681344 0.8609
83.0859447487793 0.628352
85.0295707388119 1.24464
91.0404557468728 2.18886
95.0869071743375 1.14162
97.0299467719122 0.909427
97.1020267285956 0.557206
121.101970313121 0.595224
127.038671353723 0.771179
135.118386236475 0.598488
211.206646508406 0.727629
252.268774585965 3.75206
262.254169545138 0.797247
263.258015322739 1.59101
264.269561153263 42.9956
264.416098331299 0.641081
265.261334418214 0.877729
266.286329895413 3.13487
280.263813876348 1.92699
281.267379543812 3.6568
282.280655341844 100.0
282.431543862563 1.74037
282.476635513813 0.938482
282.53050937185 0.6978
282.594960188315 0.515058
282.641651794481 0.500719
283.280241682295 0.566117
294.279886992562 0.557336
300.289600681641 5.45607
324.292726453633 0.621039
396.31084626473 1.02259
408.309419321857 0.565035
414.323361799651 1.24958
426.324130006969 1.49532
443.320959567393 0.549191
444.333451018066 12.7337
462.342980519605 10.7943

>collision 40.0
30.0345970987477 3.23074
41.0411255959113 2.69184
42.0352997232168 0.521569
43.020213847847 3.07264
43.0561570962572 8.06376
44.0520301750369 3.29204
45.0347302473345 4.94341
46.0298215706039 0.934305
53.0404712248276 0.943019
55.020007045898 1.51778
55.0559027906329 24.3096
55.1238082134345 0.505338
56.0510234087227 35.4568
56.1199612663467 0.696453
57.0350084714337 4.62321
57.0715898997257 21.6799
57.1238896692812 0.513578
58.0304120349575 7.01504
58.0641195017945 0.678391
60.0461607791724 6.34131
61.0298350162277 24.8265
61.099603151526 0.570619
65.0401503017774 0.566526
67.0557768759742 17.8455
68.0522498978018 2.27035
69.0349479712597 4.31603
69.0709996639913 23.6865
70.0666024195152 7.35187
71.0146757945432 1.04711
71.0868992491193 10.0119
72.0448913910928 3.91319
73.030189660477 11.5428
74.0623253039423 1.8135
77.0399999836101 1.0803
79.0556253363738 11.2892
80.0522835821393 1.37324
81.0354731349278 1.96121
81.0712855853341 18.8456
82.0673392033487 8.76021
83.0510834148637 3.72998
83.0874880132182 15.8104
84.0844534881048 1.36927
85.030074169673 15.1175
85.1019084555153 4.54581
86.0606509032401 3.44677
87.0452849427064 0.595328
91.0433591695295 7.91007
93.0708917405224 12.9536
94.0643321926628 2.47947
95.0863431346126 17.0802
96.0816048627387 8.7802
97.0294451830161 13.5832
97.0602525794353 4.71716
97.102181035668 7.79172
98.1006469324996 0.737453
99.0458474514338 0.704472
100.075498762895 1.38631
101.024886640471 0.710884
103.03893651061 0.551691
105.07097379272 1.02435
107.085827351213 7.94688
108.080282157311 0.769818
109.030940247565 1.09967
109.101097016964 6.88159
110.097275380044 2.76427
111.117284697704 2.17522
121.101829315628 5.89423
123.118152192591 1.59826
124.111943881539 1.03129
125.131294147225 0.592338
127.039894011525 1.89223
135.117619342418 3.24572
137.133145436279 1.50356
145.04947120006 0.53914
149.134060625859 1.35476
163.148165484569 0.699096
184.207534103681 1.38111
211.205273790648 0.63185
212.238223674566 0.832446
236.247659759611 0.61636
252.269724144379 29.8867
253.270934457161 0.527523
254.252413905905 0.581413
262.254873697046 1.67559
263.256500989827 1.40618
264.269579357504 64.7688
264.457022783229 0.616886
265.262852332288 1.11094
266.283928577738 1.24416
276.27068589755 1.99067
278.282465915843 0.68697
280.264256684661 1.7666
281.266918800862 3.49514
282.280346837282 100.0
282.430570490146 1.49985
282.49849105837 0.703507
282.574196356313 0.840417
282.795998996219 0.810945
282.923465828713 0.737613
283.283945979862 0.538516
283.370972316392 0.509533
283.461346534474 0.612771
283.529835845575 0.527615
288.269728046185 0.804933
292.260237532841 0.956609
294.279805397117 2.21805
306.279518190632 0.726117
318.282026439412 0.620026
324.291957931772 1.28704
330.283733842621 0.590447
360.288404038813 0.686584
378.290867602954 0.571873
408.312557201123 0.926193

