>compound Petromyzonol
>formula C24H42O4
>parentmass 417.296809913683
>charge 1

>ms1peaks
42.4650211633019 0.56394
338.942946315168 0.889321
416.347052552663 0.755626
417.296319105609 100.0
417.476256016156 1.75969
417.52828115377 1.25678
417.584902386356 0.860016
417.62952752635 0.644775
417.692366577914 0.568261
417.781751528834 0.673324
417.931125620475 0.780402
418.091070076765 0.771049
418.282783156439 1.44156
447.28278315644 1.0e-13

>collision 10.0
203.05166189178 0.673784
416.33149781125 0.788894
417.296809913683 100.0
417.478886806699 1.80808
417.581028196871 0.744217
417.663666004952 0.760792
417.80232192695 0.949374
417.933421801758 0.631876
418.047450883971 0.628231
418.141278231843 0.629781
447.14127823184 1.0e-13

>collision 20.0
124.084982846224 0.949573
159.782941536221 0.687656
177.156946056722 0.603422
416.362800076678 0.588467
417.296644212438 100.0
417.563617239441 1.43363
417.724827401003 0.625327
417.810540171415 0.518612
417.922989887023 0.778916
418.064610802154 0.520607
418.251559397993 0.803101
447.25155939799 1.0e-13

>collision 40.0
135.000200660896 39.9538
191.931843201376 39.8408
244.968403407924 37.3271
272.158581994381 36.4316
327.666046234662 38.2204
350.642644055523 38.2805
417.298170902056 100.0
446.29817090206 1.0e-13

