>compound Lycopene
>formula C40H56
>parentmass 536.437107943276
>charge -1

>ms1peaks
121.105384977525 0.549552
123.11232759438 0.523682
129.088652647841 0.537342
161.130314984807 0.568809
170.112503570352 0.625232
175.137405851007 0.538487
209.131020649857 0.521475
222.137529858357 0.705542
243.205983706972 0.607075
269.225703088215 0.586342
329.23583797854 0.625247
346.254376092793 0.679266
375.308619986528 0.819527
444.374525143695 5.57856
467.364715679063 1.89961
535.420534083108 1.22441
536.437863543218 100.0
536.620509847552 2.047
536.723864870131 1.32384
536.773699012226 1.19525
536.839242416698 0.724036
537.008734808867 1.00406
537.148726233377 0.975127
537.295001204326 0.554359
538.29500120433 1.0e-13

>collision 10.0
25.9016497360609 1.15306
36.9702699826598 1.76711
69.0712285309438 7.92693
81.070618926628 5.26692
83.0823838504465 1.59801
93.067941379578 1.35725
95.0890349883527 4.57394
105.0676351418 2.07948
107.052951138409 2.13531
107.085985290218 4.67852
109.103818629579 2.6379
111.080539703564 0.897385
117.051463239447 1.30217
119.083060451625 5.16318
119.114009289116 1.29685
121.057915193568 1.53741
121.098703006042 7.20983
123.11541612143 6.23526
125.135665180884 1.37634
127.237261153767 0.886084
130.160741197892 1.09645
131.084500571964 1.61419
132.08904259672 1.21391
133.0983834388 3.39371
134.103668403392 1.28723
135.116202496104 6.20836
137.134603275843 4.18371
143.084701178208 1.01966
145.102943034404 8.33653
146.101446747072 0.841482
147.114565252329 4.52165
155.085399464826 0.82941
156.094294865569 0.991289
157.101327961408 4.0851
159.116868782399 4.49073
160.12387630876 2.10512
161.132354294653 2.65008
169.101049753121 3.23656
170.108850393857 1.1972
171.118674605492 2.94009
172.114624098999 0.858574
173.133508062694 5.0874
175.147569227687 5.84596
181.099505697912 1.47115
183.116454492553 7.26596
185.127639789744 5.04104
187.149069053854 4.61445
188.149726340021 2.97577
189.169876285012 1.45089
195.111168263716 2.2875
197.135329893401 2.73022
199.147867621329 3.06566
203.180768276656 3.01974
209.125950764346 3.63333
211.147102209328 3.78595
213.169185029151 0.89328
221.130438171183 3.58793
223.144228720342 1.35628
225.162520750563 4.36222
227.17029835774 1.27358
229.188993414568 1.24973
235.146162532997 1.31006
236.147862573743 1.05972
237.165664682017 3.5098
241.189897604541 3.0987
244.217929596312 2.07316
245.128450267791 0.979682
249.159352205082 1.86049
251.175455892499 4.72063
251.664799973619 0.950846
255.209205247723 1.84317
259.236869211242 1.11704
261.161193767568 2.35925
262.168812899726 1.13938
263.178835534423 1.27638
264.184687509195 2.61671
265.190150444853 1.37651
267.208259244306 4.58299
269.22401209007 8.44271
270.319477985975 0.973975
273.169090476975 2.40955
275.180570354678 3.60323
277.196774749499 1.95014
278.209483798507 1.08503
281.05344292903 0.849994
281.224229340441 3.93093
285.240000148527 0.991302
289.190285097635 0.82176
293.224911960036 0.958905
301.181889336856 1.32776
302.191435698794 0.912296
307.244044128291 2.15377
308.256538869004 1.09645
309.254338044202 3.29641
317.217136057091 1.13814
320.251740342082 1.65568
329.222978061082 1.24137
331.240736624906 2.10876
333.255695919993 2.09474
334.766187013404 0.813331
335.262775315533 1.19371
338.015132933728 0.957549
338.294334105527 2.49554
345.15304660458 0.996226
346.266472712565 1.46127
347.270065284678 2.2455
350.291433247806 2.7011
353.169703336816 1.57839
358.279101482592 0.965884
361.291636541872 2.78026
362.325602191139 0.820398
365.032068745782 1.80684
375.308146499463 10.7651
378.328316945445 3.00385
387.348328588962 1.07343
397.511727682932 0.917719
399.306637950174 3.02551
411.29949109263 0.966479
412.303137148217 0.872811
422.072711764849 0.894618
425.313644982831 1.36665
430.354991696411 2.97355
444.372840876055 41.7501
444.487587216231 1.60025
444.51954922167 1.527
444.824516937494 0.951777
445.23045007215 0.884972
445.536113212755 0.914011
453.774970061419 1.07292
454.35719248585 1.81268
457.384210094826 1.27501
463.979319203098 1.42506
464.176238244067 0.910257
467.367612296436 8.29377
483.20291226716 0.972626
518.923043544434 1.01677
519.146740734357 1.48885
535.376626180877 1.40626
536.274647293813 7.17685
536.437107943276 100.0
536.646069729549 2.43262
536.7656461898 1.1127
536.928013760595 1.57784
537.197945206218 1.60962
537.32374509501 1.45675
538.32374509501 1.0e-13

>collision 20.0
35.5657995309717 3.42121
55.0539470096469 14.7879
57.0355308623617 5.84152
57.0735751756305 11.7153
59.0492558013889 6.57925
67.0557702175327 4.27473
69.0706381628548 100.0
79.0545402797224 12.3819
81.070048138484 58.1118
82.0537556927564 3.59921
83.0854329943119 15.7485
93.0707848474565 15.7656
93.1112946136492 3.75972
95.0869713457274 42.2524
97.073075706955 3.81638
105.067244151665 28.2324
107.086183830416 69.6597
107.140835924421 4.20296
107.579572129978 3.43838
109.100159169137 41.4347
115.077163312622 4.20059
117.069514128628 5.93105
118.116202647897 3.60125
119.085238707886 61.3388
120.096121452862 4.88176
121.099298954711 56.5555
123.11623426789 30.9811
131.080719513999 11.1201
133.099693731607 35.04
135.118139990948 17.2356
137.132954195734 10.4466
142.076581044487 5.63002
143.083204806603 16.8942
144.084049868893 5.61088
145.102193881969 73.492
146.10608998436 3.67397
147.11646335721 36.4976
149.133643631954 15.6373
157.100325125889 22.0321
157.140111836435 3.85406
158.125607637252 3.73313
159.116385938727 44.8586
161.13326522848 25.1198
163.146675426188 4.57392
169.09952587999 25.6663
171.117896197642 43.0998
172.124006717101 3.85051
173.13374901336 35.5348
175.147497317599 22.0956
177.158374538068 17.0708
183.11355295073 24.2175
185.130787069157 37.8512
187.145541760395 12.8353
188.15553855808 5.74428
189.164350392031 6.63772
193.097069536972 4.89294
195.116083412127 15.6733
196.122081907923 17.0569
197.134211095977 30.6735
198.90358223849 3.65831
199.143213522172 11.2092
201.162625146972 7.72467
203.184909181755 4.27288
207.117997468268 9.06706
208.124107980119 6.49353
209.132652606376 30.5148
211.143150874575 18.286
212.152190196074 3.76216
213.161097339156 8.89657
215.176958758876 3.58924
217.191753006115 3.87276
221.138817392217 7.15735
223.144542857522 19.566
225.159234589827 9.36067
227.181253462213 4.89863
231.939964367836 4.52322
235.14761129884 13.7634
237.164666081221 6.13492
239.172653926161 10.1443
243.118378999785 4.9559
247.141738057395 11.5721
249.162198319356 10.6829
251.178852670271 18.1781
253.194919556839 8.88674
254.213699069419 6.84535
255.213553058304 4.44489
261.166693579289 4.33614
262.163786201299 5.5657
265.198487130537 5.38399
267.207388491109 17.5312
268.206063777371 6.77972
269.225084845565 24.0002
271.238274847186 4.88649
275.177208223373 14.1333
277.199206679323 13.9276
278.113180675795 5.83622
281.048917128236 5.01361
281.229878337107 10.0047
287.173189752858 4.20769
289.197365867733 8.36378
290.20678160719 5.81862
293.225967062343 5.1184
294.177334476563 3.77162
295.122982769109 4.3632
301.197734291076 9.3253
303.195697458889 4.04473
305.224853937648 5.3042
307.249960049928 5.40674
309.256892359386 8.48004
317.203059557676 5.49162
326.543088736924 4.22464
331.2485501137 4.96972
333.256012813488 5.91467
345.262593627918 4.90094
350.294675640784 16.2107
357.24663741131 4.58308
359.267876826326 8.11351
361.285031123855 7.04808
363.325333846525 5.26349
375.30405867774 23.676
415.066904505378 3.56463
415.914377263906 3.58595
430.357352198184 5.91421
443.452095663059 3.87593
444.374875341321 18.2436
447.726690772834 6.38067
465.233360103834 3.44613
467.372163052191 17.1547
484.846696447012 3.5582
487.964618631038 4.04046
535.438541259772 8.07527
536.319624138431 10.2092
536.40346752113 6.23721
537.034919925339 3.75941
538.03491992534 1.0e-13

>collision 40.0
41.0405179329827 14.9568
43.0161532319505 2.18622
43.0542693119081 5.75539
55.0561538105775 6.48152
57.0688980868802 1.77847
67.0517205113566 8.37694
69.0696334841105 100.0
69.1273146516773 2.01953
70.0705477785118 2.40491
77.0394918811093 3.17564
78.0453347815125 4.59411
79.052293277875 4.64422
80.9425089421434 2.38788
81.0698193981656 56.3391
81.1129943160714 3.13268
83.0852393634328 7.4731
86.0677802936378 3.43657
91.0562765938661 9.42877
93.0694357369605 50.1059
93.187606118175 1.8925
94.0788739552943 1.93484
95.0855251987971 23.913
105.069657423986 44.7935
107.084676583579 24.8676
109.101074540926 15.6488
110.102942393623 2.51504
117.073896536153 4.02322
119.084576413557 38.2626
120.096136085537 4.45708
121.053524119515 3.61587
121.10089203569 20.4909
123.115458189257 5.62437
128.061524507028 3.26936
129.06935098058 4.50105
130.07361800769 3.00624
131.086126683534 15.4782
133.101999353592 33.5462
135.114969509855 11.6094
141.073307622615 4.40531
142.074171941181 5.62406
143.082993426771 17.3872
144.091866996794 4.47625
145.098718329749 36.6638
147.114170780055 2.48081
149.124292151391 2.58628
150.141143507891 2.52596
155.081196812216 3.68076
156.091534933778 5.01414
157.100342242385 27.6697
158.10668668749 5.56639
159.114389847182 22.8123
160.123691100791 1.77193
163.105652792917 2.64324
168.08934441187 4.35144
169.100438132477 13.3354
170.108530827326 3.39012
171.117062395459 17.8851
172.125469600268 3.1245
173.131978587062 12.8194
175.147322322939 3.97185
179.087095271517 3.8605
181.099776866825 8.07681
182.104058165707 1.9079
183.120170454241 17.5859
185.130019364461 15.8165
186.135944873411 2.1577
187.14169670204 1.78115
188.013711973099 3.17337
193.099372962325 6.31637
194.108136157643 4.36851
195.114257915917 6.29029
196.122067115634 3.79834
197.131718321438 14.3378
198.137885869155 5.12309
199.149322730901 3.01042
201.166670223902 3.61381
206.106599372398 1.96659
207.038022554301 1.96194
207.115192012836 4.93036
208.119920938074 2.41534
209.133755319659 7.8427
210.136334425729 3.9445
211.144384991194 4.74221
212.139690849764 2.53453
220.126291809224 4.44738
221.129159924693 5.98234
223.146121392491 9.98256
233.128111497793 2.82913
237.162924120972 2.5221
243.204086909836 2.59874
251.188708586833 2.38136
258.137286964683 3.94468
259.14022979372 2.63874
268.130722892057 1.88847
273.797878117269 3.17814
275.18121387301 1.89454
277.191007075054 1.8069
281.049092358513 3.11233
326.971421385263 1.8005
425.987733240159 1.89275
426.98773324016 1.0e-13

