>compound 4-Androsten-3,17-dione 19-aldehyde
>formula C19H24O3
>parentmass 301.178599411515
>charge 1

>ms1peaks
301.179600974318 100.0

>collision 10.0
255.174850002576 21.5287
283.171722590297 17.6354
301.178599411515 100.0

>collision 20.0
97.0624010258147 80.1452
145.100542049384 79.7848
169.103317794203 58.5915
237.160946201474 100.0
255.173052377557 82.4919

>collision 40.0
55.0558361210381 81.9228
79.0546044985546 60.957
91.0545341826132 84.2407
97.063837591966 100.0
131.083918769738 58.604
145.098285566839 62.9931

