>compound Adrenosterone
>formula C19H24O3
>parentmass 301.179859783952
>charge 1

>ms1peaks
301.179443303632 100.0

>collision 10.0
121.064397194519 1.72681
135.079088190326 1.53463
175.109286659798 0.958519
257.152589745895 1.25919
265.159746380392 2.87597
283.172137963823 4.39213
301.179859783952 100.0

>collision 20.0
97.0673414841456 6.97516
107.083384523069 3.64876
109.064220745682 18.2699
119.08493361374 6.40575
121.065320136086 40.7481
123.07862511544 3.53742
131.086274650662 7.97604
133.062885494477 3.41969
135.080311264507 17.9315
137.096758007225 5.70466
145.099743948712 5.84006
147.079532226296 9.07769
157.098007793963 3.49453
159.082425187398 3.64038
161.095054425728 4.06731
163.110287292618 9.05663
175.110955066219 8.63301
189.127257039519 4.84512
197.129626778063 4.26535
213.160798093787 3.63932
225.128601132256 8.97147
237.16616501617 3.99706
241.157148343938 7.14599
243.136594226088 13.4053
257.153890605302 30.1449
265.15890207542 24.3925
283.169993013886 23.8438
301.179045991906 100.0

>collision 40.0
43.0168280073377 6.67182
55.01854162378 30.244
69.071449855782 13.8595
77.0380456242288 7.63908
79.0554092870565 17.4287
81.0725987293885 13.3018
83.0486372688615 10.8848
91.0539106767676 31.7967
93.0706021191088 26.4757
95.0845548543686 6.10084
97.064415881336 32.1146
105.070517138089 23.854
107.04802909779 13.0644
107.08681014544 16.1866
109.064683365942 32.9564
111.082104857787 7.37467
115.05207372995 9.33165
117.070624122104 10.1492
119.085318498135 15.0257
121.064928898866 100.0
121.101388134876 7.82745
130.078392322903 6.26774
131.084997652054 19.1062
133.102861095805 13.7255
135.07900524203 16.4971
143.084414023726 12.6316
145.10399514598 9.25998
147.078061067605 12.486
157.101122480679 10.3276
163.111716684765 10.763
173.090835528241 8.43447
183.117205209028 8.18148
199.11234005062 13.3458
242.130768265023 26.1226
257.152666596531 11.4497

