>compound 2-Amino-3-methoxy-benzoic acid
>formula C8H9NO3
>parentmass 168.065392584359
>charge 1

>ms1peaks
150.054835357486 38.438
150.1673589896 0.589911
168.065392584359 100.0
168.185515740056 2.18258
168.223047590519 0.810188

>collision 10.0
77.0393722267777 1.24153
92.0498439780954 1.05632
94.065385495343 0.614266
95.0493893863662 1.67642
122.059761483426 1.04152
150.054625507926 100.0
150.167816318714 2.47392
150.201190626012 0.891924
168.064943350167 2.87984

>collision 20.0
55.0176828028467 0.563736
63.0236855505801 1.12371
65.0392353476881 3.95532
67.0548521094001 5.66588
77.0391087379006 26.5839
79.0468052110617 1.03567
90.0343059795727 3.29892
92.0497459354278 24.0161
93.0573105775807 2.76803
94.0652349423 10.852
95.0492368800821 26.318
107.036202455752 8.02151
122.059556572948 8.85835
135.031060232257 4.54547
150.054685162832 100.0
150.167256517931 1.8812
150.201784437667 0.697349

>collision 40.0
39.0234666905181 17.7927
41.039098484811 9.16073
42.0342409483048 0.700953
50.0151074253411 0.828624
51.0230517243681 20.768
52.0309824998145 39.0399
53.0366971713978 2.81051
54.0342647224296 0.693567
55.018516760116 1.17939
62.0155025483251 0.74759
63.0234835319863 61.1232
63.095738426564 0.72215
64.0184415820447 5.88072
65.0392746827247 89.6238
65.1139893147122 1.26129
65.1351803357121 0.577049
66.0432755236189 3.98199
67.0551089884113 21.1152
77.0391046202601 100.0
77.1194145984262 1.37462
77.1432104966943 0.570613
78.0343609546866 7.42992
79.0420994140766 54.8226
79.1242134371747 0.634314
80.0493041778874 0.788741
90.0341415261217 23.89
92.0495067102955 20.4087
93.0569617445603 10.5353
94.0647566852688 2.48399
95.049079278524 6.93226
107.036401389735 32.8696
135.029357932585 0.625968
150.054577952721 0.658748

