>compound 3-ketosphingosine
>formula C18H35NO2
>parentmass 298.273685338744
>charge 1

>ms1peaks
280.259322154747 0.620125
298.273758201149 100.0
298.430445069475 1.48715
298.482079458338 0.67695

>collision 10.0
55.0549602115142 0.650593
57.0698011482233 1.1933
60.045240275185 0.759645
69.0701986369076 1.11591
79.0548581399437 0.514032
81.0697556248865 1.68093
83.0868500476928 1.01409
87.0451564003402 0.583308
93.0685286975031 0.538072
95.0854203634873 1.47251
97.101152689879 0.789454
107.084997201829 0.615424
109.100718567072 1.26538
121.100158410313 0.745971
123.115836150458 0.744148
133.099822511386 0.620783
147.115190459127 0.563928
237.220547896238 0.620857
245.224670120892 0.760906
250.252010157904 2.9687
251.235833890864 1.99429
262.252966503801 2.49519
263.23581526283 4.04705
268.263980748481 3.10096
280.2625860515 8.45529
281.246387936592 4.38906
298.273685338744 100.0
298.430808501125 1.30838
298.477840006298 0.585372

>collision 20.0
43.0544293534698 19.2144
55.0182492549523 23.8744
55.0544681490243 32.7065
57.0703572183265 46.7975
60.045180553817 33.4923
67.0549052413168 46.0622
69.0703388154863 50.6702
71.085870897993 26.3788
79.0549705885182 22.1058
81.0700938630562 69.0926
82.0656216291383 23.4716
83.0855925767016 38.231
87.0439205001201 18.1731
93.0691498168243 23.4917
94.0649853369994 38.1132
95.0497265820567 18.6725
95.085708622614 60.3659
97.1001108649232 25.8522
109.100505295008 32.2198
121.100877651221 24.2852
133.100516803829 16.0205
250.251963825919 100.0
251.235866919852 41.8155
262.252404856891 64.9588
263.236334184066 35.7422
268.263865700971 24.0474
280.262254688527 90.6768
281.247691345103 17.367
298.273904503451 81.1319

>collision 40.0
27.0237321268716 0.648805
29.0388203441455 1.46583
30.0346435000717 2.32193
39.0238022849962 2.7186
41.0388567104439 47.5762
41.0984638983353 0.919807
42.0334525562084 4.23481
43.0185370377504 5.42052
43.0546195770681 55.2171
43.1153555833618 0.652934
44.0145816041679 1.95255
44.0491428156079 6.80148
44.2971140643245 0.517246
45.0333718951754 2.52484
53.0384715483436 9.15631
54.0337961012347 8.37715
55.0183712411074 29.9094
55.054880084068 100.0
55.1234138663004 1.2065
55.1416208439972 0.794913
55.166976801791 0.506518
55.3573510991576 0.603661
56.049629251065 14.2224
57.0329964951276 4.41604
57.070158515132 54.4638
57.1220984952243 0.769204
57.1404761801122 0.846137
58.0292950367866 1.80538
58.0663226964196 2.63323
60.0449869962076 23.4928
65.0394050169935 6.12958
67.0546657644418 70.7024
67.1138597182506 1.00202
68.0501451195117 29.4396
69.0352657519005 4.43967
69.0706567105868 35.1558
70.0654901039929 8.67217
71.0501627662766 2.59984
71.086656733472 6.95595
72.0437633212486 5.30216
77.0390430266195 13.2321
79.0544438402753 36.1683
80.05089452882 5.29066
81.0336066366974 5.01182
81.0697919888684 41.5725
81.3900272845405 0.637531
82.0653747677873 25.3352
83.0485611536603 7.3001
83.0854593411195 13.2754
84.0442180248825 3.2589
84.0816352233242 1.82267
85.0631700077647 0.639919
85.1021810355148 0.956664
86.0606383260521 7.30504
87.046804109138 1.2869
88.0387525732975 0.541651
91.054247681906 21.3035
92.0563904195952 1.28632
93.065211871024 26.7739
94.0653998430937 43.1541
95.0494857280806 5.12325
95.0848516019127 21.5762
96.044162476879 7.25962
96.0793529972124 6.00731
97.0634854257577 4.72455
97.0971290923763 1.78052
98.0594502317615 4.53457
104.059443246461 0.730541
105.070171783809 11.0509
106.068798409957 1.12813
107.083491798216 7.3943
108.08105934053 4.50015
109.092387361212 4.96793
110.061316598224 0.721899
110.094061682971 0.582737
112.073602609567 2.17674
115.054747485934 1.14753
116.069583076038 0.527246
117.069143197652 0.597775
119.082790302216 2.4642
121.097285478935 3.26219
122.09510906555 1.70284
123.08332068573 1.6378
145.105882300928 0.5747
250.250148653277 1.19608
262.25034535666 0.596347

