>compound 4-Hydroxy-L-phenylglycine
>formula C8H9NO3
>parentmass 168.06517822986
>charge 1

>ms1peaks
95.0485584250694 0.639885
123.043884224432 2.51963
151.038769360876 100.0
151.151781284965 1.25483
151.186577531646 0.672751
168.06517822986 24.7073

>collision 10.0
77.0388921021819 1.11463
95.0494531626245 7.00627
123.043787993138 31.6126
151.038732927511 100.0
151.151341071078 1.35793
151.189411330403 0.546095

>collision 20.0
43.0176153846302 0.567034
65.0390081186034 0.795678
67.0547697024764 3.97876
68.9975311307349 0.984875
77.0393704216872 24.4046
79.054697472552 0.954281
95.0493450480742 97.9432
95.1393033083779 1.2119
95.1680783414933 0.501139
123.043836881482 100.0
123.146144243463 1.23566
123.174853900282 0.606872
151.038366059591 22.592

>collision 40.0
41.0389711654062 5.34407
43.0175660891362 0.634767
51.0233063264634 15.4363
55.0192261903965 2.83423
65.038954015654 3.80792
67.0550839501834 6.57186
68.997511679292 1.47359
77.0391574336576 100.0
77.1209316522989 1.54232
77.144798153456 0.628385
94.0420909314241 0.993587
95.0495750025243 16.8091
123.044417522943 1.45408

