>compound D-(+)-Neopterin
>formula C9H11N5O4
>parentmass 254.087675817938
>charge 1

>ms1peaks
194.062391343995 2.21133
206.065835681582 1.63296
253.110488471889 2.0526
254.088990043947 100.0
254.119439002157 22.5602

>collision 10.0
61.0460624394682 2.28608
121.098348767812 3.84907
164.062284271034 3.51429
190.069268004886 7.74118
194.069585565243 3.76706
206.066008034183 23.5274
206.10340890519 4.09582
207.074762436451 3.20593
218.069326438569 4.46622
236.077614330966 15.9136
236.102282616925 9.12818
236.124396365011 3.69738
254.087675817938 100.0
254.121758447179 18.4656
254.169178281191 2.40533

>collision 20.0
93.0485167834814 5.59632
145.051738482122 12.9041
145.071587515658 5.69358
145.083501318161 4.58573
177.061245053883 8.02116
178.078927986336 6.67596
178.111549399321 3.83972
189.035121293934 7.94439
190.071542610209 39.1993
190.10261153043 12.1551
192.055282067692 13.1609
192.086184416999 4.47519
193.055253501807 25.3746
193.098602536396 7.09527
194.063525972912 55.335
194.103301908554 7.36575
196.085345498473 4.92064
206.064490260411 100.0
206.098349833544 22.7068
206.13084689497 4.4118
218.067589063944 18.2686
218.110529443826 5.1327
236.080281311031 42.2364
236.141875389371 3.94838
254.085896033391 20.1181
254.113962667075 5.00269

>collision 40.0
66.0357335588778 40.6101
78.03465885009 59.6101
92.020321642222 37.6137
92.04116750187 56.5851
92.0602470559013 25.2749
93.0298696526131 63.0883
93.0446172825375 34.5398
93.0561539028148 21.8083
94.0297235425278 40.2835
95.0490588295422 31.0083
97.037173578228 26.3849
106.040442638072 100.0
108.052651069852 24.7758
109.065457320189 72.4314
118.032798637607 22.8743
119.023684360861 23.314
119.0362927202 34.0239
122.038787562574 82.1215
123.04102521283 22.7204
124.049058502367 31.5846
132.051207199636 28.9098
136.052457766231 38.3748
145.053841673943 23.4401
147.069819949294 58.9732
148.035553164309 46.4163
149.042886404414 47.9189
149.065890955732 25.9122
160.039083572382 20.7964
161.042386789403 55.0239
164.060349930061 40.538
173.050079017435 31.3829
177.06667873397 46.2031
193.06145742461 38.3941
194.072099842974 32.5425

