>compound mafenide
>formula C7H10N2O2S
>parentmass 187.052417295043
>charge 1

>ms1peaks
106.065121871612 12.0424
107.049398361427 1.48393
170.025750364153 38.2824
170.143383756711 0.591119
186.221034692955 3.58241
187.052417295043 100.0
187.174425104922 2.08043
187.221845544037 1.34767

>collision 10.0
63.9861666713565 1.96099
77.0395141172471 0.947425
79.0543965417084 0.530292
106.065403845348 75.687
106.159487978436 1.32918
106.187740040871 0.63654
107.049304066493 12.1615
170.026342827827 100.0
170.144812365267 1.8205
170.180175267718 0.918994
170.25103200233 0.572471
186.220115231695 3.74324
187.052002558732 9.27633
187.224502968269 0.652124

>collision 20.0
57.0702650093885 0.7125
63.9852701165728 7.24962
77.0383351651078 3.36399
79.0538481835785 2.21213
106.064300995831 100.0
106.158679878345 2.00309
106.187556725124 0.95032
107.048400384867 24.4103
130.157275270214 0.759312
170.024355990018 6.43459
186.219179701428 1.31194

>collision 40.0
39.0233765264894 1.53733
41.0404081698544 1.17434
45.9756989375283 4.45456
46.9839363943426 0.667236
47.9661413238351 0.537585
51.0239347789407 7.48661
53.0395623312416 2.86268
54.0339263452376 0.944563
55.0194669858829 2.63701
63.0240153326841 2.45743
63.9861007821034 46.8333
64.0586581719966 0.782694
65.0395314578607 0.594781
66.0406172096676 1.30387
67.0423251896119 3.58219
77.0393127991349 90.3452
77.1183984042436 1.75082
77.144832352833 0.834667
78.0373397766805 2.89117
79.0550204294897 33.132
79.1356873238554 0.599321
80.0497493329233 4.02919
89.0383473587015 5.42851
90.046213769379 1.44806
91.044362211256 0.88612
104.049248951162 0.508083
105.055901390923 0.551806
106.06527886622 100.0
106.158889682686 1.6254
106.195249766479 0.6898
106.287257789868 0.548723
107.048909923829 22.9958

