>compound Meclofenamate (sodium salt)
>formula C14H11Cl2NO2
>parentmass 296.023092153619
>charge 1

>ms1peaks
158.964513561146 0.8064
217.066840941414 1.62623
242.040909448148 1.25974
243.043128097512 6.39383
278.013662799847 18.8478
294.931120500144 0.65834
296.023109419479 100.0
296.210861424105 0.983132
296.295199825987 0.752898
296.383311419048 0.586135
296.522186848087 0.685317
296.690248830623 0.611316
296.81753378907 0.801241

>collision 10.0
90.9769932400618 1.51485
158.96969746937 0.776397
169.951352854427 0.540026
217.068758991803 3.40985
226.945908268441 0.520218
242.036650339848 6.17662
243.043530008602 34.6582
243.152420988928 0.851117
243.234465034679 0.52901
278.012158421217 100.0
278.209893577689 0.98051
278.311413574853 0.594112
278.341736808279 0.506892
278.437509945912 0.675727
278.484059213926 0.561956
278.540645538343 0.660544
278.674692790941 0.636519
279.403976440453 0.653573
295.150689780861 0.518728
296.023092153619 21.0185
296.312458898669 0.572169
296.448970883168 0.522259

>collision 20.0
90.9770461739847 1.36971
157.043327001135 0.590651
158.964656590172 0.957074
180.076024786209 0.804374
185.042245604727 0.548006
208.071086979403 1.20508
214.041209031531 0.650125
217.066055482425 1.30188
242.036986950704 16.6487
243.042815048612 100.0
243.152044530185 1.9648
243.190463541719 1.60603
243.270890199453 1.01638
243.321107779413 1.10548
243.379066148383 0.892172
243.490555123862 0.749618
243.674843270908 0.787109
243.832363702665 0.567449
243.923359773538 0.614125
244.109505908076 0.589821
244.252579856113 0.540842
278.012312937873 67.272
278.130657780258 1.77667
278.216250364299 1.11208
278.313301728961 0.597792
278.452688570187 0.517579
279.113328157616 0.620017

>collision 40.0
43.0518025672914 1.26998
77.0366117073019 1.28507
142.276998862911 0.842377
151.052201750303 1.0305
152.057884013589 4.08424
166.602445124414 1.08846
177.059969886281 1.24434
178.064185515092 10.8321
179.069736679887 13.1423
180.080114679837 23.2842
206.058991429883 1.98302
207.068958215592 6.71897
208.073016883719 22.4
213.033876938782 3.27535
214.040484297535 16.5587
215.049600555367 8.08913
242.035996756372 33.7826
242.13583882706 0.835182
242.167299336319 0.843811
243.043815959466 100.0
243.188141721248 1.66766
243.227186262834 1.80586
243.284659818338 0.795745
243.645597967765 0.924401
262.992851856506 2.258
275.987987570521 0.856586
278.016761324423 2.10276

