>compound Methazolamide
>formula C5H8N4O3S2
>parentmass 237.01173976716
>charge 1

>ms1peaks
195.000874698117 7.35834
237.011667137428 100.0
237.147221781525 1.76854
237.19636728822 0.855922
237.230454225401 0.564495

>collision 10.0
57.0452491972542 1.11242
195.000902103689 100.0
195.126677774988 1.62506
195.166916978972 0.769632
237.01173976716 29.5921

>collision 20.0
43.017521444927 1.34221
57.0445805497186 11.8985
116.026339218321 0.856164
132.020755697736 0.581084
194.998430918313 100.0
195.123653949764 1.65581
195.165969724789 0.80765

>collision 40.0
30.033941144871 0.93722
43.0187941806284 9.3726
45.0455926174844 0.779049
57.0451483048758 100.0
57.1142268362681 2.04549
57.1358248676994 0.746686
59.9907747708031 2.4589
72.9982326213949 1.38366
73.0397289745863 0.731221
79.9803134207483 8.96676
114.996743200976 0.630062
116.027138229866 7.15129
132.022001726311 0.519216

