>compound Noscapine
>formula C22H23NO7
>parentmass 414.156432023704
>charge 1

>ms1peaks
220.098489750242 1.8606
414.156432023704 100.0
414.331508757539 5.57705
414.417530842829 2.49344
414.586380604041 1.36236
414.649207673325 1.03469
414.732256091501 0.983413
414.826396650905 0.899787
414.884918931032 0.824747
414.946995212214 0.805378
415.074689804197 0.670031

>collision 10.0
179.069850310133 0.554843
220.095125568738 18.9386
220.230950517942 0.777545
353.101672399139 2.55333
365.101211368889 0.973322
414.151924371193 100.0
414.332972600986 5.47523
414.418764796057 2.66723
414.533998427798 1.21434
414.585266932948 1.35541
414.658757114099 0.902682
414.732686608134 0.85967
414.780769912676 0.839108
414.825898246555 0.816495
414.874749523906 0.72305
414.972435021866 0.648331
415.017250732025 0.62485

>collision 20.0
179.071493484054 5.24159
205.073994854715 0.880062
206.082633434407 2.4035
218.082437648315 0.539677
219.090348207688 0.830273
220.096519084347 100.0
220.229895794047 4.99361
220.281877999397 2.20132
220.375188065638 0.802424
220.4123132811 0.961284
220.454083865156 0.611015
220.520720826356 0.565332
220.554882567789 0.547521
220.598104177425 0.525664
221.104844759469 0.722363
248.093401818281 1.02807
295.097825857847 0.539139
307.093156334009 0.507436
322.086056217938 0.618617
323.093678924762 2.58318
324.10147774073 1.2412
325.109602936926 0.99104
334.086565652137 1.14534
335.093716753897 0.762162
350.081934409283 2.53949
352.099647778002 1.20058
353.104205065979 25.2988
353.270157106768 0.817585
355.119326979681 0.747372
365.105129574935 7.63085
378.136236013268 0.610498
381.123356663169 1.29502
383.115338489494 0.890476
396.1471824948 2.33231
414.155342986397 61.5013
414.332994370218 2.70974
414.405835900698 1.12501
414.535688730323 0.503263
414.587451652752 0.514078

>collision 40.0
44.0511506399563 5.85215
91.0556101795411 1.39582
119.051151444828 0.806439
121.066192680211 2.92125
149.062290234055 0.902116
165.057820492806 1.66759
175.06970467153 0.595058
176.064909752569 0.518613
177.062088068289 0.983024
179.072156565165 6.40821
188.058347043965 0.532799
189.063123227368 0.829363
190.080972851899 0.659174
191.066847144947 1.8
193.053117481977 1.55897
203.062676413756 0.949282
204.066843167774 2.2038
205.075114266377 30.4355
205.203228222687 0.771135
206.082828932826 13.2707
207.081432272452 0.580109
209.072459299294 0.539673
218.081931979435 2.97868
219.089287857249 2.73762
220.097282807055 100.0
220.230882281012 4.16007
220.279589926158 1.75282
220.376866461344 0.649604
220.41255234129 0.69612
220.450887064553 0.518526
221.07117974274 1.09902
222.071049452063 0.672915
223.077456188658 0.812521
224.08478495726 0.805547
233.062287449384 1.10775
234.069378032657 1.7393
235.077037878777 1.48305
236.084379027581 0.733385
237.063732501212 1.57337
239.08718097305 0.522301
246.070118136253 1.02368
247.076206064774 1.1683
248.086727715949 1.41093
249.067529105385 2.03062
250.065718359937 1.05344
251.07301940749 2.27369
252.079991746612 1.93083
253.088087081597 0.522373
261.057281764917 1.19184
262.064900151462 2.84531
263.072552731432 3.66023
264.080288469677 3.27339
265.063113401521 3.81194
266.091247101832 0.731587
267.0946353364 1.75902
274.064978124037 1.43279
275.072854986712 1.4617
276.079271800019 1.57665
277.074996517365 2.53228
278.069042644009 0.963996
279.070795276477 3.52736
280.075731586863 11.1691
281.083162925017 2.28531
282.09153822069 0.789611
289.053422980855 1.79831
290.061371389664 1.35974
291.068073142712 3.14337
292.075572342426 3.05145
293.07946289884 2.93121
294.089947255878 1.36753
295.095972432831 10.6026
296.10568759664 0.5821
297.091391135023 0.774792
302.059746894732 1.62127
303.067253376694 0.791464
304.075540311131 1.40531
305.080891907933 3.27041
306.05834870756 3.75283
307.066817506062 7.81279
308.075474086147 2.79607
309.078923140107 3.7796
310.087027579716 4.93665
312.101341921549 1.02052
319.06349564783 2.8865
320.076815971462 1.52644
321.078904757571 2.45298
322.086770776221 6.22515
323.093016328334 15.8705
324.102477434266 1.73308
325.109555341659 5.63673
332.072099265082 1.06658
334.088347779466 3.24531
335.067678924348 2.31318
336.092921810548 0.615837
337.077998751925 2.86488
338.086407669888 4.18563
350.083026306545 4.59502
351.081529245645 0.754548
352.108669024972 1.99443
353.105114215459 11.0671
365.105127564335 1.29838
366.100350761577 3.29472
381.123033090697 0.996189

