>compound Oxaprozin
>formula C18H15NO3
>parentmass 294.112757745576
>charge 1

>ms1peaks
103.054278279775 1.0027
276.102488643734 1.79305
294.112757745576 100.0
294.265369525026 2.02233
294.321846711216 0.985014
294.494951590985 0.509864
294.696584533553 0.560231

>collision 10.0
103.052975400349 3.98561
206.093390258883 1.0425
234.088847448935 2.80288
276.09932240673 21.9299
294.109676900121 100.0
294.265774746742 2.04379
294.316820993883 0.982039

>collision 20.0
77.038570336973 1.0211
103.053996102649 67.7391
103.145764314835 1.20376
103.177522120163 0.539563
104.049121245111 1.02668
117.069220177346 4.85404
167.084136414767 0.902496
206.095807108868 19.6164
234.09045071996 39.7548
234.227152449508 0.606707
248.105610018467 0.788418
276.101242123915 100.0
276.247736787102 1.77274
276.300273660774 0.812419
276.352066455175 0.563345
276.652814920981 0.503473
294.112060179557 31.0178

>collision 40.0
55.0183571641541 1.24057
73.0290235103378 1.13816
77.0389722545529 4.70255
91.0543629774392 1.02786
103.054250153492 100.0
103.145839739932 2.28914
103.175181950478 0.882639
104.049773074187 1.99566
105.033190285149 0.715764
115.053880251884 2.77945
117.069466063102 5.49953
128.04959915532 0.689717
152.061710915684 0.712788
165.069493385281 0.684276
167.085908677736 0.547111
206.095268561077 0.919947

