>compound Paromomycin
>formula C23H45N5O14
>parentmass 616.303528660713
>charge 1

>ms1peaks
293.128137602118 0.683479
616.299807655094 100.0
616.509883578995 1.79755
616.589079684916 0.956718
616.641879893517 0.884452
616.723026258402 0.891025
616.978524729633 0.94087
617.29448565237 1.46427

>collision 10.0
161.093913742507 1.05776
163.107632470608 2.12256
203.104741794906 0.774633
293.133990723416 3.39902
324.175657605192 3.013
438.215280356551 0.570112
455.236214328552 1.29136
456.217128506467 1.04107
616.303528660713 100.0
616.664302171661 0.914482
616.787373944238 0.737578
616.856385245269 0.69636
617.054391984417 0.845534
617.288582551191 0.738634

>collision 20.0
84.0473726354295 0.773523
98.057824177752 0.562642
102.058519718143 0.565998
110.060820487237 0.552406
125.070333264079 1.1856
161.092005203651 16.0333
162.076446915807 2.45357
163.107801951493 33.3237
187.114765528837 0.837407
203.101910488318 8.76128
241.118610532935 0.847529
257.111635905012 2.52829
258.10230718792 0.513877
259.128233492769 1.76511
275.121339783349 3.5793
276.10897856063 1.16036
277.136967427003 2.17263
293.135062052801 35.6977
293.278558085883 0.716525
294.122619923131 0.747411
295.14956429171 7.19973
307.148251090086 3.80134
324.178474022805 30.7727
420.195179122002 2.01458
438.206918264587 5.16533
439.207301609263 0.876003
454.207560036458 1.03267
455.236319712932 16.9613
456.218867851172 14.5791
479.241045368457 1.81404
491.235015324234 0.513706
496.26589671887 0.904491
581.263269749792 0.686588
599.28687580637 0.533527
616.303907124701 100.0
616.608536508589 0.990295
616.689376534917 0.914452
616.80529013733 0.883901
616.946329718373 0.903608
617.290227055917 1.20442

>collision 40.0
42.0357949400105 0.666033
43.0162700175355 0.524508
44.0469987858384 0.779438
57.052919562119 0.81939
60.0440556704379 2.59299
68.0496686231239 1.49559
69.0346067623382 0.554652
70.0649911185129 0.8476
72.0428320086314 2.88811
73.0272831901005 0.891894
80.0503393356712 4.17568
82.0618436941333 0.825541
83.0540099665295 0.753975
84.043039775126 4.97825
88.0352423277576 0.802052
89.0611352567237 0.546777
90.0573915177907 0.554436
96.0432654649453 3.65477
97.0268267018544 2.3419
97.073274908957 0.546321
98.0593154188635 3.28886
102.05335628194 5.952
108.043896006747 2.51109
109.028123067154 0.54213
110.060815989554 0.970432
114.05536335504 7.95734
115.036645655118 0.573528
116.069569923455 0.631643
120.066943621506 0.711775
122.061013901215 0.945122
125.06975628538 12.9337
126.052226963908 4.46092
128.070185720933 0.59691
132.061662611216 1.97842
133.049798176288 0.660754
138.054645450302 1.16961
143.079262413689 4.55754
144.06452809261 5.26345
145.09571595444 4.01055
146.08012093413 0.862485
156.063711855349 0.991882
158.082159409829 0.56256
161.089630833742 43.5261
161.200089924775 0.754064
162.075173320634 7.85924
163.106190383263 100.0
163.223340287638 1.47451
163.254083576267 0.87063
163.299606764919 0.64366
163.476570271864 0.594067
163.585049521567 0.881062
163.708068023046 0.552709
164.068114709003 0.919199
167.081229003063 4.76464
168.070700507825 0.643858
169.094065464172 0.661839
173.089382201953 1.69697
175.114074703152 0.513936
176.065160711304 0.681257
182.080415474928 0.697936
185.088980431278 2.20752
186.070202608149 0.648671
187.105406974597 9.62956
192.069980264341 0.61203
194.081078799238 0.947437
195.075635644542 0.5367
198.07245763994 0.544578
202.065575050183 0.539204
203.100019006999 26.6705
203.198810553969 0.536009
205.110698838553 1.6738
210.078089169829 2.16171
221.087299430317 0.682545
222.071424782677 0.558215
223.098382131903 0.7865
228.086615455622 1.20462
229.117280441613 1.94336
239.100532385053 2.32206
240.08496409682 1.54365
241.116342486923 9.75036
241.192751803585 0.505965
251.095556376287 0.52336
253.115154483477 1.03957
257.108420626375 8.21157
258.091123747769 3.07512
259.12512547791 11.4774
271.122486995133 1.16181
275.118736150295 3.53924
276.107320381061 0.816263
277.136691044298 6.12062
283.123008844209 1.05596
287.120541504566 0.752559
288.15932018301 0.744513
289.137490091307 6.03611
293.132312655153 7.72501
294.11573663678 0.686559
295.146459600743 9.8338
305.13633720393 0.981439
307.147399346609 10.5381
319.145545117932 1.32851
324.172154961624 4.35068
385.154533257416 0.725894
403.166648379125 1.07592
420.194915649821 0.867537
421.173203749174 0.580807
438.204174621588 0.689054
439.188934995313 0.690576
456.209858079206 1.63447
598.223501726657 0.570548

