>compound Phenazopyridine
>formula C11H11N5
>parentmass 214.109264959801
>charge 1

>ms1peaks
122.057956782698 0.712454
214.106869435712 100.0
214.238309195371 4.84767
214.285548943011 2.34229
214.350324671441 0.875647
214.417677543949 0.986233
214.46841341115 0.594691
214.523644082372 0.554652
214.559347364191 0.561719
214.595617908024 0.531899

>collision 10.0
77.0394240387411 3.67976
80.0377888060813 0.86469
93.058007027733 1.20625
108.0563137163 1.0213
109.06416166817 0.636243
121.051274506695 0.563708
122.059294130374 8.76191
170.071967081833 0.503607
197.082849037609 1.56514
198.090490643616 1.29451
214.109264959801 100.0
214.238622721199 4.64765
214.290471166899 2.13755
214.350720100485 0.892431
214.384180669313 0.822126
214.419653698165 0.93688
214.475606826557 0.640369
214.604919273819 0.539572

>collision 20.0
43.030155346877 1.69048
53.0269109635673 1.4355
54.034555156419 0.756841
77.0393611515769 29.8869
77.1198001920155 0.687382
79.0295344421801 0.598101
80.037641040955 18.7859
81.0451090293101 4.22952
82.0529470289609 2.27791
92.0497112293718 1.74504
93.0578150497703 20.8293
94.0654138731697 1.77373
95.048369355187 2.61706
96.0561708888047 0.662339
107.060543967669 3.67058
108.055734016426 7.43518
109.063713397429 10.8209
110.071372167011 1.42141
121.05102479121 10.3054
122.058620222048 100.0
122.159891372359 3.81122
122.191253583481 1.71267
122.241646185653 0.556541
122.267901536593 0.538753
122.293727822667 0.58581
123.066509876448 3.43339
169.075431564617 1.02035
170.071309396362 3.96593
180.055064886064 1.10492
184.086898957786 0.52121
187.097585623496 0.700909
197.082139658749 11.2535
198.0900233904 7.60382
213.101838971199 0.936948
214.109073770243 53.8453
214.2413788811 1.46687
214.286177134566 0.670313

>collision 40.0
43.0300595360864 7.95539
44.0376687705804 1.32517
51.0237747625243 5.39658
52.018839804285 5.04419
53.0267693213338 40.5124
53.093861184526 0.933186
54.0345073903062 8.57673
55.0422608103009 5.19672
56.0381300384581 1.52783
65.0388325132865 5.97848
66.0464594684733 5.35383
68.0373246338158 4.16119
69.0451337403288 1.56027
77.0389391247015 37.1956
77.1194302373164 0.791971
78.0297323629407 0.526352
79.0296291932395 4.54247
80.0374554064055 100.0
80.1195186314637 3.25847
80.1458199449661 1.2758
81.044994082866 12.2294
82.0528542298644 39.8523
82.1354379249846 0.982007
92.0488253410168 5.73957
93.0572080125438 50.7034
93.1457029136753 1.22869
93.173174634593 0.551033
94.0634859857437 1.48454
95.047818666793 8.84485
96.0556010657804 2.17174
102.033557622091 1.16149
104.025093263905 1.0039
106.039700681361 0.68974
107.060162392453 1.79668
108.05536214593 16.9542
109.063276780154 17.881
110.071159756189 1.17257
115.053702110078 1.69269
121.05042872321 20.6206
122.058294147135 10.8964
123.066012318264 0.79542
153.044338966615 1.46604
170.070405109371 1.01744
180.054959710714 1.41083
197.081573926352 3.02914

