>compound Pramoxine
>formula C17H27NO3
>parentmass 294.204983735428
>charge 1

>ms1peaks
294.207779692536 100.0
294.357696776071 5.72377
294.426789606558 2.52807
294.5262396547 1.35104
294.569708547263 1.44656
294.626222688955 1.01922
294.693861436551 0.934749
294.734350177618 0.944954
294.772480165935 0.860565
294.832309009092 0.79192
294.89611865871 0.717341
294.945980802603 0.659355
295.07174986004 0.544317

>collision 10.0
100.07539438796 2.16928
128.106093304321 2.4023
151.074132563795 1.01277
294.204983735428 100.0
294.357817976224 5.96331
294.43869408284 2.72817
294.568122645579 1.58136
294.634330427217 1.03667
294.7336700246 0.94477
294.891124040531 0.708174
294.963646495818 0.613448
295.039961440686 0.573169

>collision 20.0
70.0659683879446 0.6887
86.0607487314025 1.47515
88.076326758214 2.80256
100.075950485505 35.7472
100.167623100104 1.54908
100.196507101352 0.684763
102.091791069947 0.775351
123.044484916886 4.64074
128.107140285442 28.4187
128.209556186632 1.18485
151.075795081896 13.4568
179.106924380789 3.20591
207.138019538364 1.15219
238.144385674054 0.508258
294.207285166667 100.0
294.358296209979 5.37486
294.423883458343 2.37804
294.526789195531 1.14627
294.57015070573 1.2594
294.628328967837 0.868487
294.692908880145 0.79294
294.733367760812 0.7888
294.77220454651 0.728519
294.83410906509 0.653278
294.890762343731 0.600324
294.941263794825 0.550932

>collision 40.0
41.0396401114725 1.86969
42.0348488217394 0.914381
44.0505948541383 1.05268
56.0504583719328 7.49689
57.0697379594018 1.46375
58.0659349235992 1.70481
65.0393608210163 0.698474
67.0550781331621 1.61642
70.0660565952324 9.30743
72.0814760526986 4.32543
84.0815122632321 0.739457
86.0608509083533 7.5094
88.0762635659266 1.14745
93.0342103547029 1.79534
95.0498353124917 3.21529
98.096482960832 0.932264
100.076027748905 100.0
100.16703981014 5.18688
100.197803518634 2.42783
100.242470344265 0.922546
100.265423880522 0.855524
100.288746172993 1.01224
100.322413412806 0.560732
100.361654055997 0.504101
102.091724442188 0.796689
109.028900147341 0.760158
110.036559736158 0.549924
123.044581127763 15.8952
128.107253246837 7.12173
151.075481240584 2.68502

