>compound Sulconazole
>formula C18H15Cl3N2S
>parentmass 397.008438420967
>charge 1

>ms1peaks
125.01536478787 2.61628
183.002986830733 4.32448
328.973013869131 5.0214
397.008438420967 100.0
397.184578481786 5.20396
397.257049821708 2.25541
397.380350464276 0.996973
397.431632694549 1.10076
397.491229514894 0.779297
397.57511618986 0.713467
397.62147296708 0.735575
397.679214833599 0.682573
397.765061676412 0.621843
397.861897905429 0.568127
398.00809442079 0.595042

>collision 10.0
125.014534346236 52.5391
125.117246127756 1.73037
125.148173652269 0.755912
158.975055738756 1.84018
183.001118182669 69.6155
183.124270276342 2.64958
183.166206228967 1.05392
294.983061216947 7.61031
328.970933480969 51.9154
329.132410921205 1.68031
329.189434342631 0.724757
397.005931951755 100.0
397.186562729178 4.34066
397.248903968893 1.7121
397.379500702416 0.692405
397.430223816313 0.755123
397.537866007852 0.568464
397.693592543957 0.514958

>collision 20.0
89.0386400710177 0.510375
125.013506111065 100.0
125.116975642513 4.92321
125.149478954291 2.22476
125.201418957296 0.74929
125.226433536134 0.686596
125.252506112308 0.828899
148.033485107227 0.63767
149.014588018408 1.22035
158.975474798396 2.3769
183.001386647865 31.3941
183.124287632297 0.993771
260.014602680617 0.768885
294.983812856848 7.32789
328.971487268386 4.53942
397.007940193246 0.862211

>collision 40.0
89.0389092019138 2.20813
90.0466394723297 0.581083
98.9998113082347 0.985478
125.0140009972 100.0
125.116908241655 5.0207
125.15031163436 2.2923
125.201163470791 0.798905
125.226381391589 0.736002
125.252662967221 0.882785
148.033942501403 1.18735
149.015184252983 2.20233
158.975991627567 1.06137
183.001926827155 1.25319
225.046742763441 0.934011
260.015615137897 1.1852

