>compound Sulfathiazole
>formula C9H9N3O2S2
>parentmass 256.019627399067
>charge 1

>ms1peaks
92.0500182360436 0.935641
108.04503366837 1.0887
156.011814353749 4.45642
217.512915992205 3.33267
256.021797370751 100.0
256.161872153402 1.35347
256.217469669012 0.823011
256.278075633646 0.624345
256.393336839699 0.510892
256.521358020764 2.91609
256.6657434166 0.586327

>collision 10.0
65.039542022069 0.864949
92.0497058476612 10.3402
93.0577027253237 2.11982
94.0651153435675 0.85889
101.016610741631 3.55187
108.044243405535 10.2272
133.958082635276 1.28611
156.010717275808 95.9284
156.127193790127 1.36262
156.166124960349 0.734172
156.231549178491 0.508608
156.330824786218 0.603444
162.962738500718 0.696524
177.948048879651 4.43016
178.504572660319 0.960631
190.039487109232 1.1028
199.991282891401 0.719897
217.513529641892 1.03085
256.019627399067 100.0
256.165079795456 1.48007
256.212219279876 0.678458
256.281671460965 0.595146
256.376045495896 0.572624
256.548835358737 0.571357
256.693522166867 0.516775
256.860785928727 0.532566

>collision 20.0
65.0402006739366 4.41526
80.0500116756196 1.50734
92.0501231271255 73.2275
92.1368348708254 1.15957
92.1739289814636 0.500696
93.0584675009184 2.40649
99.002621072854 1.11944
101.017008846277 12.8636
108.044639142695 74.2324
108.115407278191 1.19601
108.139708570412 1.01579
108.166086936187 0.641004
108.197345962537 0.541406
133.961696312532 4.4089
140.013583689662 0.556929
155.009389930715 0.66034
156.011771752638 100.0
156.119883879775 1.61128
156.154862262391 0.759478
156.182165791587 0.56189
156.21792776734 0.530466
156.35271807092 0.600617
162.965392577167 0.984854
177.949406075258 1.12865
190.045445994678 1.58741
194.050874222819 1.06976
199.993014265456 1.60369
214.026524762319 0.567232
256.018880865195 3.00673

>collision 40.0
39.0240235896279 2.44741
44.9794864328621 0.539662
53.0382280108883 1.57867
55.9454017719243 0.537195
58.9939398610495 1.24063
65.039397142953 72.783
65.0938024675591 1.282
65.1143260284503 1.11352
66.0354720966372 1.38026
72.9974563592904 0.622035
80.0499511914984 15.9434
92.0497270261476 100.0
92.1616849566297 0.819084
92.190662595159 0.536648
92.2110048961061 0.503865
93.0575790769936 2.90234
94.06557758734 0.513949
100.008080628607 0.868997
101.016303097607 12.5482
101.995956445934 0.513229
108.044378863844 55.8002
108.140661775948 0.797978
122.985379580089 0.602523
127.999773709021 1.51504
133.957374404859 0.613273
156.01096645333 0.546715

