>compound Suprofen
>formula C14H12O3S
>parentmass 261.056473169676
>charge 1

>ms1peaks
79.0232292813343 0.590983
105.071986325065 0.519179
110.98918950363 2.72097
163.155232428144 0.626901
177.051804693535 0.634266
180.175153619914 20.9574
181.177319304058 5.16775
182.181625187236 3.9116
260.037695417274 0.816181
260.189135190416 7.00327
261.058902076927 100.0
261.157004921933 25.7539
261.311807399658 0.961589
261.445808493907 0.722633
261.544265371805 0.67397
261.632868416897 0.777416
261.702862620574 0.563247
261.750186980636 0.531441
261.789242431471 0.643513
261.841080280483 0.646241
262.037411001793 0.515207

>collision 10.0
103.055182243915 0.900921
105.068548587297 2.18006
107.084749514782 0.791773
110.989411835828 27.2992
163.146834577586 6.07309
164.151798657192 1.66324
165.152825702449 0.845483
177.052479116456 12.7872
180.173739881827 32.2275
181.178075153707 7.71307
182.179330473337 4.60858
215.049302912756 1.6051
261.056473169676 100.0
261.153507217257 37.5601
261.348287555439 0.715524
261.380048065969 0.809715
261.561323707585 0.743763
261.766720981757 0.596444
261.835409518672 0.656838
262.046598137157 0.610458

>collision 20.0
39.0227049609431 0.547568
79.0543230877931 1.0698
82.9973509645882 0.692972
93.065480529139 0.716056
96.0810544742855 2.23496
103.053164746283 1.9676
105.069507142465 14.0982
107.084772926052 2.70752
110.98979991417 100.0
111.084964380233 1.58025
111.114808117643 0.82094
111.174156193435 0.647292
111.416187540156 0.539504
111.754938398304 0.509857
121.055312979563 1.08611
131.043970345362 0.735164
139.082425844492 0.879959
149.059713561704 1.07586
163.146950388322 24.4996
164.150933705379 6.90268
165.154905819812 5.7332
177.054720644893 41.5854
177.179139274838 0.530867
180.175335506159 13.5734
181.179941715135 1.39109
182.177995102596 2.27369
187.057862778339 0.731827
200.02497611902 0.647206
215.051609218099 2.80703
232.124940138589 0.714551
261.057633559694 10.5971
261.15666095546 14.9453

>collision 40.0
39.0229850339292 4.037
41.0381138649121 0.642332
43.0181360815886 0.925978
55.0154229059367 0.65007
55.0559955691529 1.4663
65.0389324763017 1.82773
77.039427413358 13.1074
78.0454716994314 1.25532
79.0541703508133 7.03722
81.06916587752 3.53525
82.0720487929772 0.706638
82.994868769464 9.8946
83.4951960473508 0.544441
91.0544328925271 5.45899
92.0557162621135 0.567252
93.0711779610243 5.59365
94.0781973098228 1.15675
95.083918944901 0.562691
96.0828327319445 2.00511
103.05486024937 22.398
103.145493293671 0.634506
104.062138737328 3.59187
105.070008481084 20.4297
107.084997095786 19.2724
108.088711244844 5.13729
109.094169937163 0.969172
110.989937297257 100.0
111.084310382105 1.79547
111.118740944374 0.737043
111.176418215935 0.759476
111.371537332652 0.620662
121.027890504869 1.73762
121.06338528476 0.899828
121.098380468986 1.47931
122.099272737134 0.864602
128.9433998456 0.558182
131.051084125397 1.49601
132.059105662462 0.726723
133.069464568167 0.647888
135.121835667688 0.793305
137.121865742884 0.784284
149.061180768166 0.790705
153.067399447847 0.520318
163.148507631844 13.3812
164.150642688954 3.42499
165.152257343063 1.2959
169.094417342817 0.541071
177.056364421597 3.74273

