>compound Thiotepa
>formula C6H12N3PS
>parentmass 190.056217768911
>charge 1

>ms1peaks
147.013977367766 9.61435
190.05650912236 100.0
190.181383228323 1.53402
190.217965638012 0.849675
190.268029606352 0.506169

>collision 10.0
42.0346339438271 1.21698
44.0499383331796 0.80163
56.05033721217 1.79075
60.0000407315871 1.41871
62.945593820031 3.12658
101.026072995194 0.77163
103.971173339852 2.97397
105.986892956546 1.66661
147.01299531173 100.0
147.123812437374 1.68869
147.158450305569 0.773562
190.056217768911 10.6834

>collision 20.0
41.0397767191638 0.569741
42.0346536956074 26.7856
44.0503321683775 13.8431
45.9846539621987 1.5116
47.0052755206056 0.539795
54.033700082771 0.533272
56.0502927967986 20.0262
58.9957221061945 3.81129
60.0005160000828 30.6258
61.010509049478 2.01842
62.9457651687317 66.0226
63.0186602860788 0.948878
63.0394619751173 0.539247
68.0501728200276 2.26712
69.0454707102434 5.6433
70.0656363599026 1.30339
72.0007223215009 3.31087
73.007930165955 1.38428
74.015306251908 8.50502
76.9611127735014 3.59015
77.9587969978403 0.996731
78.9763854373817 0.528669
83.0605989326526 0.730092
85.0106889521802 1.10454
86.0151454105122 1.72412
87.0115258720465 3.59544
93.9879133755407 0.562519
101.025794411679 17.1436
102.038677829691 0.873425
102.976273185969 0.580754
103.971463579338 64.4602
104.093292366268 0.586679
104.978969473693 2.37859
105.987258363666 26.6586
110.976289984753 0.668293
111.972411587144 0.760847
113.02409225186 1.10686
115.038365937514 0.974094
118.982780047697 0.82487
120.003261561174 1.13336
129.9847868747 1.00579
147.012862807594 100.0
147.123692699539 1.20537
147.165424301132 0.612191
147.218058958152 0.50387
147.285853915339 0.576954
190.084746884203 4.62418

>collision 40.0
41.0380430138661 0.671317
42.0349117412068 30.7144
44.0503120280588 2.86247
44.9868805922043 0.713154
45.9849264763926 4.69683
47.0038968220876 0.96797
56.0504295950009 21.4305
58.9950355308055 10.686
60.0007030873826 29.9199
61.011686054804 1.10505
62.9459427882535 100.0
63.0188335103197 1.76195
63.0458935427265 0.65408
64.9613904133553 1.04525
68.0489691206594 0.533832
69.0447948647797 2.60709
70.0643301449525 0.619583
72.0006201721877 10.4778
73.0083565812022 6.02852
74.0161500004082 10.4157
74.9478241012619 1.54396
76.9613323129035 6.41767
77.9579907243813 1.16326
86.014486387236 1.4181
87.010042813409 1.80962
101.026097253792 1.55184
103.971752776557 16.611
104.977247517207 0.503579
105.986304394445 2.80859

