>compound Trimethobenzamide
>formula C21H28N2O5
>parentmass 389.206837384981
>charge 1

>ms1peaks
72.0816849355853 2.00643
166.122886547871 0.565936
389.206837384981 100.0
389.379026113173 5.62737
389.462219662871 2.48833
389.624567220243 1.36389
389.682539635374 1.02478
389.764449460985 0.932587
389.812290460271 0.924247
389.858954382536 0.867861
389.95681261711 0.797923
390.046479754062 0.703604
390.091633584521 0.668089

>collision 10.0
72.0801637408796 25.0218
72.158504115224 0.995104
166.121467670085 6.65956
178.121135838724 0.545698
195.063730369796 1.62569
389.202697263282 100.0
389.380214406901 5.48734
389.459661929669 2.48488
389.574454332622 1.12545
389.623630966445 1.30357
389.704929719315 0.829979
389.813319162985 0.797997
389.864380217191 0.730531
389.959942096607 0.656597
390.005857888878 0.622673
390.093985030838 0.548855

>collision 20.0
72.0805773480195 100.0
72.159069984422 4.9695
72.1845396850811 2.466
72.2233103104998 0.857848
72.2423239108351 0.802733
72.2621525240978 0.950764
72.2896710611548 0.527772
166.123215315609 13.539
195.065822874725 7.59675
389.209659655048 17.1645
389.381416565408 0.51677

>collision 40.0
42.0350581389272 1.20001
44.0506126526632 2.9744
45.0584659530594 1.13424
56.0504979908661 0.518621
57.0582792049044 0.876961
70.0659821580087 2.58259
72.080552465818 100.0
72.1590307403678 4.90327
72.1844697081388 2.41991
72.2231057957462 0.801955
72.242560342474 0.761131
72.2620996062656 0.898969
133.06514814006 0.625344
166.122623069501 0.863272

