>compound Trioxsalen
>formula C14H12O3
>parentmass 229.087047597955
>charge 1

>ms1peaks
228.200705977273 0.936886
229.089378081725 100.0
229.286548791213 0.696306
229.411818800757 0.547612
229.61514440809 0.621752

>collision 10.0
142.076594287138 0.661753
201.095666199909 0.713747
228.073164320309 0.579382
229.087047597955 100.0
229.225053364701 1.33802
229.272259284179 0.717402
229.419955322158 0.571236
229.632028977877 0.581376

>collision 20.0
43.0198508422933 4.69444
55.0542945495115 0.748324
62.4898304971763 0.515154
79.0548628004841 0.521277
81.0761427628937 0.52324
115.056601691822 1.46173
129.072634261101 5.00111
130.081993365666 1.01312
131.088096992009 2.07804
141.071901532623 1.84845
142.078650260229 14.7009
145.095597339002 2.43849
152.065049628276 0.588838
155.086778287671 1.14142
157.104220754516 4.39072
158.074238864161 0.96327
170.072640762784 4.85676
173.098307868185 17.9525
183.082119567603 1.74528
185.100050953971 2.72076
186.068851836447 1.06582
201.09430127408 5.77821
229.088465088159 100.0
229.22684992405 1.39829
229.274764403708 0.948675
229.331557588913 0.614117
229.434374149086 0.580163

>collision 40.0
41.0399801672477 2.59108
43.0192376039917 88.8556
43.0552155408627 3.5404
43.1281110624209 1.80588
44.0077067826682 1.29003
51.024867073038 1.46543
53.0374035471474 2.7149
55.0552492644136 2.93744
57.0348553743541 1.17517
65.0398338454059 2.80436
67.0536811164089 3.9566
77.0401909686681 7.62674
79.0556428892577 6.71599
79.0851557715588 1.17376
81.0722730704616 1.28444
81.70171839691 1.23187
83.012603344092 1.61652
91.0553050023619 29.0769
95.0484539724834 2.3871
95.0844201672363 5.10688
103.054928072145 8.54568
104.064756366225 3.57074
105.07164704276 57.4565
105.13259261797 1.0668
105.898752742012 1.61868
106.428460656816 1.07544
108.059067304129 5.5909
115.056144505965 94.3936
115.151965974296 1.57917
115.178598060505 1.25562
116.064749259504 9.68264
117.070697616706 19.5338
118.048700583208 1.30729
126.047288522787 1.9629
127.055772919277 23.2551
127.108234729776 1.12368
128.063974681221 46.9142
129.07160213694 72.2066
129.154911093616 1.23446
129.183072488329 1.69727
129.305166348751 1.35897
129.947741635823 1.15366
130.080104908591 58.8547
130.187688247021 1.46869
130.216978914074 1.07153
130.797582004506 1.06922
131.086510835938 9.27185
135.043690730743 1.85747
139.05787416423 2.90303
140.06832053608 1.06313
141.072841353746 100.0
141.177065965542 1.14714
141.732323479492 1.16344
142.080523517573 56.0353
143.052009860515 5.29914
143.08511430788 8.58282
144.059923542332 3.88176
145.066721174875 11.179
145.104855321263 13.2721
152.064185721702 4.5754
153.070169214085 18.4327
153.117662120719 1.10478
154.082205295258 6.43062
155.083322030674 10.8082
156.08951027065 1.14457
157.069133600487 11.8806
158.073668568702 33.2444
159.080029100799 6.07868
165.073945381548 1.32432
167.091729594609 2.12406
169.069606885532 10.0633
170.071107824276 6.81486
171.058217611353 3.58665
172.094009979608 2.50824
173.098831906524 8.9863
183.080301259082 2.32042
185.064501919479 18.8635
186.072866413845 9.57316
198.834599062922 1.12234
229.091205759606 3.67737

