>compound Zileuton
>formula C11H12N2O2S
>parentmass 237.06972284324
>charge 1

>ms1peaks
60.0432682227557 4.99117
64.98833882525 1.97314
74.9395517662478 3.0939
77.029423180773 2.95223
88.0729123028514 1.65984
90.9805756159893 1.71634
100.996317738449 1.85227
103.055157655802 2.35926
104.064975184844 2.04529
117.064651150966 1.66494
131.419074060236 1.59167
156.133318575795 2.10063
158.963194673436 17.6539
159.016124126685 2.05381
159.058377009818 1.97753
161.042250927256 100.0
161.127255136969 2.54668
161.165322514422 2.0752
161.887838647626 1.96378
163.465983907477 1.65093
201.542137971929 2.09874
202.523988710182 1.6596
226.98586601266 1.67367
236.094179099097 1.93068
236.977703820657 8.06518
237.06972284324 45.0708
237.192269633598 1.78432

>collision 10.0
60.0470035662922 2.18916
80.9437904668018 2.47839
90.9746733951578 7.06564
127.051893556522 0.897718
128.06336236059 1.42895
157.090210729401 1.35801
158.009484432837 1.00871
158.96360204891 9.60381
161.040946945368 100.0
161.159808806345 1.90024
161.377393355482 1.24556
161.629737284001 1.09115
237.11246906234 1.15026

>collision 20.0
90.9747756809342 2.61651
117.075184535186 2.07767
127.053854406326 0.830584
128.061266534874 19.5498
128.585280245833 0.967612
135.023388868087 1.0967
158.154830020151 1.46467
161.042573321928 100.0
161.142443315204 1.98603
161.246733173549 1.12227
161.333553455534 0.881855
161.452140290352 0.922222
161.582121954967 1.00804
161.921530393557 0.87007

>collision 40.0
29.0378905494746 3.2593
41.0308299114476 1.6112
44.9799122963608 4.08027
58.9937809571929 2.21286
77.0375208886412 4.41781
91.0539959404277 9.99312
102.046602503692 1.39196
115.055491834475 20.0707
116.061639844082 3.94682
117.069618447207 42.7312
117.166300556689 1.25092
127.05587494634 13.4945
128.06206995242 100.0
128.163975621034 2.30256
128.208916793029 1.49521
129.074079009231 1.36137
134.0225936985 2.46215
160.025734439553 2.11853
161.04358937526 17.9751
215.542370471785 1.52109

