>compound Ectoine
>formula C6H10N2O2
>parentmass 143.081419531106
>charge 1

>ms1peaks
97.0760529240297 2.24263
143.08167163638 100.0
143.162262215055 2.82969
143.190851018462 4.16763
143.225083930906 1.69347
143.257815301322 0.71379
143.280397217476 0.521399
143.307087982205 0.511658
143.335859294805 0.570483

>collision 10.0
56.0501691700969 1.92833
68.0499300889094 4.99001
73.076709168928 1.38657
97.0762655059545 47.9305
97.1431781721395 0.905536
97.1665368168972 1.3019
97.194071318078 0.540359
101.070991396717 5.59526
143.081419531106 100.0
143.162149857514 2.4022
143.190961788055 3.4909
143.224341713865 1.42865
143.259045463706 0.582911
143.281668556859 0.504072
143.335369289935 0.520583

>collision 20.0
56.0502848375336 19.1262
68.0500712073658 62.3538
68.1067498530187 1.18425
68.1260247273192 1.69659
68.1478738081098 0.68382
73.0766552927491 2.00755
83.060673282831 0.542333
84.0444152380433 0.652909
97.0762218602396 100.0
97.1433618362032 1.98673
97.1666563234666 3.06659
97.1939159521877 1.25723
97.221638485128 0.502714
98.0841719853148 1.17199
101.07098445094 3.74504
143.080858022747 15.5712

>collision 40.0
54.0356724715925 0.563815
56.0501716674298 24.363
57.0570698925648 0.935136
68.0500676501422 100.0
68.1067837742343 1.75103
68.1258936806552 2.53481
68.1496056040524 0.959023
70.0656813703038 0.641113
80.0493027549746 0.952059
83.0607253293931 6.85552
97.0760262842366 10.0134

