>compound 5(S),6(R)-Lipoxin A4
>formula C20H32O5
>parentmass 375.21568160703
>charge 1

>ms1peaks
70.3299299767488 1.31589
73.0753446809459 0.538718
74.2624228563741 0.701282
78.3092169638396 0.515826
133.558082886152 0.709643
135.964288694897 0.610445
139.038344412602 1.34176
187.079389952672 0.80167
240.002331923314 0.518224
295.309801338698 1.05005
296.971592052209 0.950101
297.226088703005 1.2113
336.146713709064 0.750848
340.238900389646 0.893212
356.291207188711 0.637107
357.192063074016 0.832836
359.31375117183 0.544168
365.095882688182 0.566008
374.093881208401 0.623163
374.224783125888 0.502527
374.268060499147 0.643834
374.326307480209 1.08736
375.051040091354 0.845544
375.211686342613 100.0
375.367229028099 1.67269
375.398107668924 1.8817
375.431565386699 0.879041
375.458367458356 1.24733
375.506303290525 1.13547
375.53726398364 1.1638
375.56898084376 0.889014
375.593148624446 0.689125
375.642341168725 0.619602
375.678305639206 0.586536
375.709325042906 1.07638
375.743744437733 1.26217
375.774647883158 0.842923
375.929465971779 1.18913
376.017603045267 0.635098
376.118791785872 0.696671
376.161452465955 1.21015
405.16145246595 1.0e-13

>collision 10.0
53.8928463200059 1.03174
139.038684824118 3.77548
257.13222412752 0.77955
265.254636937488 1.23415
270.956845778868 0.812304
338.86250953022 1.07144
339.193435747599 2.81406
357.207494974817 13.9235
357.236389684979 3.87096
357.459543257539 1.1232
367.122056312365 0.769335
373.589572495337 1.07144
374.404127802922 0.877879
375.21568160703 100.0
375.301905039916 5.84432
375.331979709882 4.4723
375.391663261889 3.22683
375.446609778503 2.61109
375.479279868434 1.07066
375.53436389436 1.38842
375.621583258646 1.59728
375.784291780802 1.64847
375.903396215784 2.52142
375.930535072988 1.05159
375.983011360528 0.867469
376.095317167603 1.14178
405.0953171676 1.0e-13

>collision 20.0
102.090273782808 9.8077
139.036638818922 38.5421
218.952358273994 3.41176
255.211424227743 5.59381
268.704431234615 3.71734
295.177858517452 7.19579
339.195256543389 19.345
357.199327413967 25.9592
357.777342030654 3.30718
374.240301911544 3.26401
374.266550462926 7.14813
375.211515863035 100.0
375.249235615266 26.8824
375.302512272547 5.50046
375.326902088755 7.32757
375.34648862975 5.24534
404.34648862975 1.0e-13

>collision 40.0
55.0499254567943 100.0
58.0678700078622 55.4464
58.0806596252741 33.9308
62.0178250900492 47.0089
69.9662291784612 33.8002
71.0486606108482 35.4576
81.0425348645764 76.6406
83.0504429498216 42.5893
173.014042313355 54.0653
196.086171408216 57.6632
223.057718144445 38.0795
242.092217015406 55.102
271.09221701541 1.0e-13

