>compound Oleoyl dopamine
>formula C26H43NO3
>parentmass 418.332075600669
>charge 1

>ms1peaks
137.0569410652 3.63372
154.084568105804 4.65534
185.936890032408 0.531231
339.8588344357 0.714267
417.878924656761 0.753394
418.32779641106 100.0
418.511500486078 2.00427
418.566568218062 1.03159
418.588581062933 0.982295
418.614071642986 0.987158
418.672835631138 1.16499
418.728401928376 0.742037
418.759560637068 0.54551
418.822677227386 1.33121
418.91209852057 1.07206
419.037982461093 0.644481
419.298134344584 1.03496

>collision 10.0
67.0529990309067 0.713615
69.0682684648823 0.780567
79.0204729916886 1.0543
91.0563939337302 0.979538
97.1041794523681 0.531844
117.045841754227 0.534828
121.098236947397 1.06818
137.059782938025 26.4548
137.125083757076 1.01605
152.068267537902 0.806855
153.079157915013 0.829175
154.086320925215 37.194
154.162495208741 0.698254
154.200637719596 0.562779
154.651762365017 0.556273
154.755028710014 0.614437
185.942865335169 0.869562
186.946842163041 0.667444
218.961523501428 0.531622
247.243606637746 0.998127
265.257656924693 0.529841
339.86142308806 0.660854
417.301255651035 0.631653
418.180277455089 0.567241
418.332075600669 100.0
418.481583294197 2.38995
418.517113536305 2.0301
418.567532898084 1.19225
418.658380973421 0.934653
418.706600996615 0.720094
418.787772012801 1.09111
418.881543540884 1.06903
418.99752886275 1.04198
419.135112032538 1.09212
419.320531571891 1.00613

>collision 20.0
41.0380285509963 0.898987
43.0544382040149 0.726447
55.0526540974011 0.851056
57.0679619237441 1.45219
69.0685890521688 1.21009
79.0197104881108 0.865594
81.0692270750967 1.92051
83.0847909990407 1.62095
91.0527426559006 3.34968
93.0658725712335 0.71135
95.0847579407458 2.39979
97.099560086301 1.10734
107.076660937267 0.560604
109.097814649651 1.52549
111.117392824129 0.674937
119.045173182912 1.45662
119.081287911442 0.545002
121.099044212355 3.84711
123.112134192876 0.620158
135.116994076243 0.594604
137.057132708059 100.0
137.16429922166 1.65846
137.200700376438 1.24892
137.230437386132 0.655861
137.264853660966 0.528234
137.318445447947 0.626529
137.399096853161 0.554962
137.54313247549 1.09719
141.95003257928 0.822513
142.950126991385 0.706327
152.068625054389 0.502831
154.084005565805 70.7029
154.199554817284 0.947643
154.231436112177 0.699662
154.261405335949 0.69663
154.470029608066 0.550582
167.142490747148 0.623659
184.16172357643 0.512521
185.941477957194 0.883773
186.939404198035 1.89194
244.941591862098 0.638068
265.251807111623 0.840146
418.326764407424 26.4486
418.482860326773 0.706219
418.696731795159 0.69696
419.038868124601 0.781483
419.310843773322 0.727168

>collision 40.0
41.038276484847 1.68801
43.0555298655515 1.77548
55.0537117853075 5.6275
57.0705766474884 1.83012
65.0415127688197 1.00473
67.0549836257735 2.29394
69.0701238677213 3.83336
71.0489141372721 0.529377
71.0854638765116 0.604578
81.0698491464058 1.70749
83.0448372630407 0.634351
83.0841717502303 3.87836
91.0551374877021 15.671
91.1222411220029 0.696749
93.0722656225916 2.41339
95.0873976679615 1.39552
107.085345268909 1.20381
109.066027141753 0.682101
109.098713787835 1.68847
111.082985841714 0.836301
119.048947753883 10.87
121.099675232947 1.76302
123.117073497042 0.858756
135.118397803015 0.550941
137.059398274368 100.0
137.166602004894 1.82656
137.198181399999 1.1885
137.233126040125 0.640875
137.277913336255 0.797173
137.353980051934 0.523832
137.572268530497 0.675524
137.908302317169 0.537653
140.940595176845 1.20766
142.946462313774 0.584336
154.083716282517 1.38128
165.044652329886 0.550257

