>compound (&#38;plusmn;)9(10)-EpOME
>formula C18H32O3
>parentmass 319.22394632678
>charge 1

>ms1peaks
84.956053071204 0.569641
162.970834453141 4.95701
240.986418999432 31.6103
241.107411857646 0.657891
242.918201293887 0.707115
319.001022804298 29.8351
319.222962635327 100.0
319.433422121517 1.32744
319.485826521148 1.12643
319.585613529922 1.27023
319.639935561251 0.825298
319.719134645019 0.783425
319.83918489105 0.938468
320.030787837387 0.52487
320.20619790452 0.742071
349.20619790452 1.0e-13

>collision 10.0
84.959279891918 2.57429
162.971948246223 39.4383
163.085063333682 0.721137
240.98692964911 46.5527
241.125595637361 0.876943
241.481260146466 0.532654
319.22394632678 100.0
319.385372081099 1.61683
319.490618919287 0.785574
319.736738783533 0.952259
319.905839670112 0.714207
319.96109179384 0.594434
320.025457893614 0.661775
349.02545789361 1.0e-13

>collision 20.0
79.015575832708 0.635115
84.9589728989057 20.5097
162.971023929455 100.0
163.06682719464 1.89833
163.119346100985 0.743941
163.170537970853 0.79149
163.244716233649 0.678689
163.329999792663 0.734311
163.388896614102 0.70424
163.438950569178 0.570044
163.504813103269 0.655615
236.987881733061 0.503535
240.986120678955 4.63186
319.220599938868 19.6511
348.22059993887 1.0e-13

>collision 40.0
40.9695326096168 1.69876
56.9615806282573 1.05734
80.001643322656 0.620834
81.0699320133333 0.58194
84.8788979427209 0.518527
84.95950093535 100.0
85.0431811317147 2.15145
85.0718393051552 1.19818
85.246546224592 0.556769
85.309541408522 0.836904
88.936576207441 0.660495
116.967975488716 2.88016
118.985472269116 2.31788
147.944044963017 0.64438
150.949616509476 0.621023
162.972364079765 7.13714
204.169687608656 0.680541
233.16968760866 1.0e-13

