>compound Wy 14643
>formula C14H14ClN3O2S
>parentmass 324.054819250994
>charge 1

>ms1peaks
278.051197657997 1.44822
306.047578420938 2.65385
324.058237089518 100.0
324.218317958559 1.99186
324.276696279489 0.96138
324.357333187734 0.738005
324.396334331354 0.699583
324.447261625139 0.712017
324.509482086608 0.587602
324.63409961257 0.529054

>collision 10.0
219.066399503494 1.59164
242.07341910837 1.10815
278.048967865019 13.195
306.043913449207 22.2416
324.054819250994 100.0
324.214801475408 2.00524
324.271887015872 1.0227
324.365907415853 0.601611
324.475554194007 0.595714
324.525490991058 0.519806
324.593796548325 0.510913

>collision 20.0
105.069732476279 0.945921
134.096508837215 0.868342
183.092046602677 1.61963
196.088310914832 0.987014
215.063959591823 3.06236
219.068736209623 17.9739
242.074531778932 12.5378
263.027397637915 1.23352
278.052230058811 100.0
278.201727090618 1.87179
278.250042251885 0.890791
278.299526675072 0.668121
278.372555856749 0.724827
278.438984637405 0.627073
278.52888478776 0.535192
278.647987657681 0.505966
278.68629353423 0.510135
306.046996135258 53.1596
306.194542195006 0.959613
324.05766234607 26.045

>collision 40.0
61.0118950625034 0.570994
71.9905661953021 11.9263
75.9954990794223 7.06017
77.038722633872 7.26069
79.0541774164205 12.965
87.995499168912 0.518112
91.054062431595 2.80214
93.0693813965479 0.868734
103.054187750005 7.62317
105.069985454707 60.5849
105.160919524948 1.04569
105.950235997782 0.528336
106.074140390327 0.813092
107.085640816398 2.04924
110.998388463545 0.588289
115.004560665092 0.756264
115.05445272368 1.79904
116.057239996726 0.635595
117.068921068219 3.18535
119.074490273535 0.828218
128.059672222802 1.27516
129.069121003649 6.02528
130.065955566277 6.19285
131.079087217242 1.94475
132.080608066099 2.24966
134.096475285236 8.93456
141.058246909559 0.759699
142.065046146398 3.72511
143.071848212054 4.22922
144.080031254769 15.1922
145.087468690537 1.83846
154.064529442378 2.70153
155.065706536085 2.36879
156.080040627367 17.1719
157.08604133476 4.1596
158.096664980492 11.9196
159.092939517975 0.549076
165.047307828801 0.588908
166.058914167195 0.847473
167.064563004721 0.932311
167.919681742735 0.797287
168.067131372452 5.87486
169.075853647202 8.56756
170.084871564217 2.83139
171.091750889978 2.26804
173.031283479067 0.705462
174.03435946221 0.57014
176.050789124236 1.63689
177.033064228363 0.581155
178.043718705316 1.28048
179.055052666849 1.00364
180.064534830518 0.82592
181.075788966567 2.16524
182.083815612153 2.76615
183.091684036661 43.863
183.210802931019 0.669418
184.097788317388 4.05785
185.10730974581 0.610403
186.039640964584 0.672429
188.049620483453 3.44854
189.044569845959 4.60312
190.041380058011 3.67175
191.04719295808 0.859073
192.057579654724 7.84234
193.068578248339 0.703635
194.069448034597 1.21187
196.087723451824 5.23293
200.042048940634 1.59931
203.037002722426 3.76722
204.0455954294 9.3978
205.049493926227 0.517224
207.071903027292 0.84355
208.086561300563 3.33262
212.028356382071 3.07276
213.046919535907 3.30551
214.053799093151 0.962726
215.063404700332 18.1151
216.041270795426 0.706221
217.056966966199 1.85202
219.068312521024 100.0
219.200818515533 1.68923
219.244634837949 0.844877
219.287748890688 0.651444
219.343878400276 0.554182
219.385742921336 0.673692
219.519074470235 0.603785
219.660698901112 0.550408
220.065346278822 0.60245
226.042562591931 2.39865
227.051036667899 3.95452
228.057534266795 0.732196
229.066431892225 3.35955
230.048047666737 1.91874
232.064156364562 1.51582
240.058125934458 0.511083
242.074856184144 32.7762
242.209761324533 0.508764
249.024425713011 4.63185
262.019175217906 2.65744
263.028384030181 1.68048
278.051991291464 12.1456

