>compound MEMANTINE
>formula C12H21N
>parentmass 180.174389125767
>charge 1

>ms1peaks
163.14828563923 4.62188
180.173494660665 100.0
180.294659881075 4.51253
180.339432463007 2.05036
180.397729295001 0.747178
180.428048081516 0.672415
180.459002238503 0.79459
180.497053426423 0.500299

>collision 10.0
107.085984610435 2.9283
163.147283805432 100.0
163.263163810684 4.1484
163.302549955175 1.80422
163.359735250486 0.643353
163.418828822643 0.674167
180.174389125767 64.5574
180.295260866608 2.22436
180.338066707659 0.948744

>collision 20.0
69.0700359071311 0.829327
81.069703671295 1.73674
91.0537730081263 1.33938
93.0692770996874 3.0133
95.0849897921385 1.55728
107.08486800411 37.6913
107.17918672308 1.12989
121.099974297877 3.30369
135.115325773524 1.78912
163.145372437643 100.0
163.262683730885 4.5437
163.300617444091 1.88458
163.388601142274 0.587006
163.417213137346 0.747633
180.172739230978 2.00261

>collision 40.0
39.0240667462061 0.607019
41.0395980271004 6.69692
43.0549021313482 0.992037
51.0243451355009 0.701263
53.0393465699141 0.696106
55.055160130465 8.53989
65.0393442333907 9.18795
67.055007979112 5.39327
69.0705717894969 5.64752
77.0392068174617 11.4775
79.0549098608475 20.0713
81.07034713012 7.45199
83.0857399144128 0.697188
91.0549143632941 100.0
91.1419327770896 3.06241
91.1680851606922 1.18228
91.1953513688237 0.548504
92.062435187269 2.36241
93.0704100023605 15.5773
95.0858779508044 6.94908
103.054752480366 0.842986
105.070268655736 25.9342
107.086025577323 82.72
107.180457549233 2.08344
107.209472330421 0.96377
119.085796116155 1.27009
121.101427439215 4.28298
135.116164670043 1.04974

