>compound CAPSAICIN
>formula C18H27NO3
>parentmass 306.20581340529
>charge 1

>ms1peaks
137.062147701591 20.2091
170.155750526524 1.29744
182.156456294069 3.73765
305.158875908261 2.91196
306.20581340529 100.0
306.362571169385 1.50149
306.412676565963 0.931102
306.48691739326 0.694267
306.547037585121 0.712573
306.588257814112 0.689995
306.68408888789 0.713882
306.822927932813 0.645649
307.193880150402 0.544785

>collision 10.0
114.094744107212 0.707276
133.10430960793 0.869899
135.119933091874 0.549887
137.063263284284 100.0
137.169493764125 1.37207
137.201413503459 0.741516
151.114556279194 1.23697
153.130104952433 1.36091
170.156950008034 5.01296
182.157910605269 8.56142
305.161431151172 1.11307
306.209295085996 10.4263

>collision 20.0
94.0447019554435 1.34169
109.103563703665 0.801757
122.041406668476 1.68287
133.103968148382 0.887414
135.120949326866 1.57174
137.063324218145 100.0
137.168747788542 1.66401
137.20141559618 0.728903
137.274305920221 0.54467
151.114131133045 0.519335
153.131411483358 1.30683
170.156218763747 0.564611
182.155784470747 0.907327
305.159830651959 0.558232

>collision 40.0
41.0410270406118 0.661505
43.0568603409541 0.643418
55.0218738827805 0.500763
55.0578140158338 0.877984
58.0308502471918 0.939131
65.0415003141506 0.617048
66.0495040067011 4.15369
67.056990763041 1.02733
69.072868233412 2.45541
77.0422306796693 1.54443
79.057377280354 2.68753
81.0728807747833 1.6718
91.0575881260689 2.41076
93.0739277185669 0.785026
94.0441532027721 18.0703
107.051960072583 1.10669
107.087637805662 1.03252
109.103648883117 0.506608
122.038997571322 34.3091
122.140943214878 0.53169
135.118874871013 0.560512
137.062190346095 100.0
137.168866376466 1.71231
137.202422694991 0.703977

