>compound SULFAMONOMETHOXINE
>formula C11H12N4O3S
>parentmass 281.070900118086
>charge 1

>ms1peaks
108.043789713056 0.512819
126.065042868477 0.561575
156.009023654801 1.13723
281.068199780029 100.0
281.182462340964 7.95598
281.26929155196 1.24945
281.387126792229 0.556133
281.429664369248 0.52842

>collision 10.0
92.0494663686984 3.06755
108.044543329616 3.29988
126.065780291188 5.08743
156.011179789551 15.2147
188.011999558083 2.05574
208.096670387388 1.27227
215.09298346707 4.45283
263.058866413832 1.46989
281.070900118086 100.0
281.183611184016 7.73673
281.270660641651 1.23771

>collision 20.0
44.0488297519268 0.520455
65.038970738759 3.95671
74.0969515851767 1.59358
80.0500401136414 0.798351
85.0462995427275 2.33235
86.0972617354704 1.32626
92.0492768694706 58.6061
92.1371902190406 1.11931
93.0581291662567 2.81774
100.11376586457 0.599734
108.043933650923 62.3337
108.137455017325 1.00798
124.049360207106 1.00522
125.057133328726 0.6517
126.065375199315 54.8976
126.168376470367 0.795439
137.058051668831 1.8776
156.010369489432 100.0
156.124577957513 1.69895
156.159634489701 0.847231
156.363793396417 0.506808
174.065170297384 3.88485
188.01127091019 11.1803
208.095662742724 9.8946
215.09147015262 30.8657
217.109002776379 0.656501
263.058320403796 1.57406
281.068804760326 30.8089
281.182873285173 2.28123

>collision 40.0
39.0240491232366 1.30132
42.0345832544871 1.5551
44.0500828911577 0.787819
53.0397058757827 0.725895
59.0608492886793 2.45923
65.0387947055786 43.495
65.1129823980553 0.794011
66.0351497080667 0.914921
67.0290231270921 0.806089
68.0147609727428 2.39738
70.0279640745163 0.741323
80.0494903076262 11.9418
82.0185815306225 0.58522
85.0425845319452 11.3745
86.0954991534448 1.28934
92.0492598806559 100.0
92.1374235410579 1.74573
92.162450297358 0.781209
93.0567850413865 3.57557
95.047771773945 1.23303
97.039314808001 1.60033
99.0554816836568 1.61819
108.043842788585 68.4352
108.13894154058 1.11839
108.167577149431 0.559808
109.053010556808 0.632003
119.059093488879 0.694776
123.044218752432 0.938085
124.050215613009 2.65592
126.065399940003 17.2785
137.058569921737 2.55288
145.061479261671 0.761115
146.069322357124 3.76836
156.010553546827 1.56777
173.057240745683 3.45459
174.065387524711 5.02807

