>compound AZOBENZENE
>formula C12H10N2
>parentmass 183.091536449186
>charge 1

>ms1peaks
77.0389080462501 2.91552
102.004641681051 5.07953
102.998316155359 14.3198
104.002935510495 2.30594
104.999275480589 1.9645
143.989090814452 2.38728
144.488465990654 1.73442
144.983833278181 0.507007
182.016932735207 5.17951
182.182307149139 1.57214
183.006944710316 5.0987
183.090280948359 100.0
183.214060320396 1.55164
183.257240436964 0.787337
183.355030599121 0.600785
183.497178839427 2.66502
183.620914883453 0.683054

>collision 10.0
51.0235405341297 0.86757
77.0392607308935 78.0726
77.1189742211348 1.13191
77.1446357622289 0.569783
98.4687241987191 0.572366
102.005233417809 4.67671
102.998883814941 18.0323
104.001537150706 4.32882
104.996618679286 3.76284
105.042717850225 1.0814
105.483010155461 3.01333
136.476277585945 0.90588
143.989395489694 1.13099
144.488885992557 2.05132
165.154110351089 1.51025
166.064006686498 1.4113
182.183459984829 1.92154
183.091536449186 100.0
183.21250874712 1.57443
183.259356422978 0.62732
183.282213454379 0.619637
183.344966616387 0.940705
183.412125559848 0.605273
183.518048453994 0.511162
183.626681250591 0.588263
183.711009966124 0.592661
183.870798786242 0.720128
183.949201248409 0.509975

>collision 20.0
51.0223526694226 2.37944
62.0193163831578 0.738229
77.0391213227595 100.0
77.1183250504032 1.40887
77.1426125058054 0.680238
77.1715365505267 0.557885
97.4683193832145 1.17576
97.9731693275716 2.24471
101.005638387094 0.51738
102.951799079613 0.58053
102.999134142234 0.709936
104.984178989115 1.66907
105.487757473335 1.18073
165.158239479877 0.850474
166.068909191605 0.928768
183.09133889446 2.198

>collision 40.0
45.9861805334624 0.542568
46.9938638199361 1.01882
50.0157946457334 0.758549
51.0228949550832 46.8202
51.0721982678385 1.0391
51.0895363260669 0.701696
51.4717251137627 0.622552
58.066083135415 0.55279
62.9280571599697 0.949096
72.9390748686073 0.553137
77.0381255217312 100.0
77.1206732155354 1.53902
77.1507436921795 0.767264
77.18619375366 0.593766
77.2416574136625 0.507337
77.3025732840966 0.504434
78.0498498180879 0.569799
108.094575193927 0.60416
115.054259415236 0.767891
128.059478955454 1.04652
130.063102909749 0.817124
152.05722874658 0.867818

