>compound Estradiol Benzoate
>formula C25H28O3
>parentmass 377.210413077572
>charge 1

>ms1peaks
43.0171178578579 2.6908
73.0307230577904 1.38183
74.0956947714725 2.69513
85.0636768658314 1.40942
90.0915252105384 4.7374
97.0675172254425 1.14434
105.033069422348 6.99277
115.069891097322 1.32824
122.061506274083 1.18011
135.111664113681 1.46594
155.10438604602 1.58438
159.09060064959 0.996813
161.129949789533 1.24475
163.147680394889 1.41823
169.089038083293 3.02209
183.097245789615 1.58921
221.155367689428 1.56428
245.13251047448 1.0609
250.143661866941 1.06291
253.15507991601 1.20079
289.119349762796 1.26992
293.132242502696 1.44855
299.08554428384 1.31403
299.155133097963 2.42792
341.199333133348 5.01026
342.203152830749 1.60486
343.200834692506 1.0651
359.194572467793 9.18045
359.312803971194 2.04083
360.220777174678 1.13703
376.232620358552 23.1168
376.335727037364 2.67677
376.427425633366 1.06388
376.747216947527 1.31266
377.213225251448 100.0
377.454195201722 1.19807
377.548046971976 1.38336
377.677182756757 1.38324
377.796780532765 1.08679
377.988667125714 1.37475
378.113198088382 1.38547
378.178988314038 1.44843

>collision 10.0
55.0548666732939 2.92661
57.0362738935858 4.41905
57.0737145085958 1.25161
72.0820877308021 2.58204
74.0949845904514 1.27647
77.0384221864166 12.0284
90.0908483713246 17.4769
96.0857570043623 1.67066
97.0606942803535 1.41095
99.0794153694566 3.71391
101.004838229075 1.25037
101.061665337922 3.51718
102.061232165984 1.53017
105.033334986117 100.0
105.125468660966 2.25831
105.750175718701 1.21719
107.086753564397 1.88329
113.055752620539 2.09292
115.074026970785 3.42797
116.078605487027 1.54941
133.058442408725 2.05587
135.117322430898 11.1808
137.133784920594 1.51923
141.12255054383 1.45825
150.143182375847 1.29038
159.110939636909 1.4998
161.135392311301 1.7742
173.213593927344 1.27854
178.94329650774 1.34893
184.111781671152 2.13009
189.161323703015 1.26154
191.182088402037 1.82633
205.171588097523 1.25173
213.150060636875 2.27334
218.148052835408 1.27957
243.146054983795 2.00682
245.153735596682 1.69344
255.180213342812 1.71797
263.193656559225 1.48856
267.157060990678 2.1268
277.125742094867 1.276
279.188382340696 1.66824
281.200879984994 2.09626
287.204749020795 1.85291
288.196609529684 1.98083
299.110283671864 1.9167
305.169565554318 3.02075
317.119327481784 1.32613
323.179606026393 1.77113
341.207069057783 5.26728
342.203502294989 4.34691
359.197381406126 14.7928
359.890118578323 1.30995
371.87558218033 1.23325
376.219299706633 4.53272
376.26596774225 1.73481
377.210413077572 74.2108
377.31416776786 4.89982
377.372988647283 3.61499
377.507521229012 2.24888
377.656591769687 1.24992

>collision 20.0
43.0180748497062 6.35947
46.0622108249269 0.835136
57.0338930593879 0.911667
57.070236577655 2.45336
58.0683496388004 1.6574
71.0848896667296 1.87485
77.0391100128771 7.71259
79.023226419469 1.43806
79.054031877826 2.22905
82.0223853427347 0.893537
83.0896361413884 0.893659
88.070290657925 0.826832
90.0911516524329 9.64331
95.084872192415 0.875219
97.063996104708 2.9169
99.0443783022293 3.54775
99.0770609655616 3.07231
101.060317963018 1.87843
105.033686217576 100.0
105.128927284507 1.34369
105.169709318933 0.972648
105.203260275805 1.06295
105.313249469285 1.07673
106.22612311066 0.896347
109.063747717117 1.39877
110.105686927776 0.900523
111.072675209666 2.38925
113.059016311087 1.68949
114.060167225707 0.936237
114.106726694844 1.09101
123.077147014726 1.85583
123.115073912008 0.782845
125.057836622521 0.855698
127.074748197147 1.66236
131.061359625401 0.873951
133.099697453159 2.29148
135.115157409129 6.29774
139.105764924196 1.08425
147.115975340833 1.18023
152.147576422085 1.07216
155.107551643473 1.33919
159.584486059696 0.822782
165.092967306218 2.35526
167.104837433372 0.903381
169.083256770789 1.80371
181.126333023514 1.02587
183.098183278058 1.02741
211.072639329469 1.02959
220.934864449158 1.43876
223.134191897366 1.69536
235.163973428058 2.6057
239.165623891827 0.784821
243.171679431607 0.763169
248.24996398725 1.335
251.10983334351 1.53867
263.102955035702 2.519
265.178594943355 0.892813
323.187089964679 0.836401
359.203693713547 3.25884
377.215756729228 5.39064

>collision 40.0
43.0199108248703 7.96631
57.841546326665 0.841699
63.9964948988085 1.40829
67.0522916439714 1.00631
67.251677409244 1.79274
70.0713738196051 0.939044
71.0508158531917 0.855798
72.0500927845322 1.48239
72.0774787325378 1.21892
77.0391215518596 37.936
77.0860412962432 1.30597
81.06806879861 1.85414
90.0916643768492 5.64195
91.0497594164552 1.52199
97.0665582403377 1.23464
99.0433154499328 1.40531
101.063349434074 1.45689
105.033042430917 100.0
105.192745303137 0.834506
105.426471021719 1.29334
109.066084348441 2.23277
112.08569159171 0.987392
121.101201161641 1.53478
123.08556953775 1.45129
125.058631041173 2.2559
125.095960635093 1.09227
134.954810308939 0.837023
135.081752032111 1.10853
135.119517630526 0.987722
144.092723083866 1.00137
149.026007964673 1.0223
149.089397986299 0.876261
155.086009894596 1.81358
163.109831820327 0.968861
205.187430299534 1.29521
215.098178928087 0.855414

