>compound Biochanin A
>formula C16H12O5
>parentmass 285.074737757224
>charge 1

>ms1peaks
285.076437498135 100.0
285.226321221205 1.5476
285.277207858968 0.878036
285.372114770744 0.598136
285.433609332428 0.530217
285.544827673472 0.530218
285.683193028398 0.506797

>collision 10.0
285.074737757224 100.0
285.225853909604 1.88489
285.27428445859 0.931876
285.316008691611 0.704313
285.367774030056 0.56369
285.458321082287 0.525254
285.629279709718 0.523539

>collision 20.0
123.043279141129 1.19209
149.02110537257 1.28048
152.009621243926 3.47758
153.018024845828 0.865476
213.053723419079 0.622975
229.085447566443 3.06628
242.055237582715 1.41364
253.048752979971 1.95501
257.080310132174 0.518476
269.045104236466 1.16381
270.050945475691 5.04786
284.100033633457 0.508653
285.07518955479 100.0
285.224851417963 1.84388
285.284479095949 0.899336
285.50477898796 0.557556

>collision 40.0
41.0382445234035 0.711033
43.0196143345917 1.82196
45.0340197754257 1.79378
55.0199760970124 0.740067
65.0397445904283 1.06199
67.0190863608184 4.61772
68.0282118706096 0.84413
68.997510034877 9.98686
69.0323902636987 2.67824
77.0387219336613 7.04043
78.0086515794753 0.907581
79.0543043155851 7.04715
81.0360103225981 0.707676
84.017776520798 1.01175
89.0384785697998 3.93274
90.046467646993 14.1767
91.0551909941567 2.62704
92.0242152475972 0.706043
93.0313495599124 0.723362
95.0126782391686 2.48371
95.046443148381 1.49295
96.020307520352 7.28772
97.0317201238413 0.565434
102.048810054877 2.06083
103.054896865995 6.0629
104.025993224739 0.955856
105.068592831619 4.73546
106.041518122362 0.542969
107.048507806076 2.42678
108.023641658614 1.09157
109.062344786648 0.544578
110.032199860311 0.539067
111.007664626916 5.1158
115.05449481745 4.54071
116.060859515812 1.08145
117.06723623168 0.844126
118.041217811439 29.6756
119.049363091136 2.00195
121.028221982556 9.26522
121.061824409971 4.04397
123.044373562736 14.5359
124.015634389324 43.3189
124.11662745067 0.919947
125.031002861276 0.50207
127.053934722631 1.24213
128.059168887338 1.08894
129.069557152284 3.14074
130.040610908845 6.39901
131.048706052316 4.52967
132.050418140787 2.92036
133.063539144734 13.3108
134.034878519633 0.53451
135.041400862922 1.34512
136.013945304016 1.15765
137.025083990782 1.79452
138.029862972799 0.528288
139.045573180234 2.13177
140.06073939833 1.44308
141.06970408557 5.06732
143.048627315263 0.686695
144.055894405082 4.22358
145.064001680663 4.8037
146.074142709133 0.600201
147.046351177153 0.857473
149.023245930107 12.7277
150.032682191716 0.501301
151.048100271807 0.96726
152.009883569869 49.4764
152.118523034972 0.994142
153.017589702358 33.4826
153.132559843161 0.56635
155.047637375081 2.12245
155.081929425465 0.734752
157.060581827573 3.0592
158.035529684787 35.5574
159.049638613698 2.77213
160.04733625056 0.963386
161.071610951095 0.86032
163.040071568351 1.3041
167.045243562047 0.706988
168.056408016601 9.28866
169.064547583328 5.75927
171.044585524832 3.95134
172.0521307392 3.06196
173.059383808406 2.76287
179.034620682577 2.94839
180.053909892972 0.543131
181.060681070585 1.26152
183.065046459919 3.79475
184.052684159693 3.2288
185.05940717875 10.722
186.066747979205 10.4762
187.067528971418 1.03526
196.052611361845 4.51283
197.059215542968 19.1413
198.069652779978 1.39948
199.062706213579 1.55529
200.04604940215 3.83541
201.064563594081 1.87578
203.032060919278 0.61751
211.075669852811 2.30206
212.045298678796 1.31657
213.054396607139 100.0
213.218877938793 0.92519
213.259955955339 0.790763
213.357208451513 0.639751
213.504040429877 0.707309
214.063985436463 11.5936
215.066347863245 0.734997
216.042932095792 5.22555
224.048672535822 2.97666
225.054386863011 10.2662
226.064762147898 1.34456
227.034622815382 1.2832
229.084080100978 16.9548
239.062136026388 1.01842
240.071274712638 0.948896
241.049268188444 34.8899
241.191544276434 0.509179
242.056416381416 54.8149
242.193626401198 0.911738
242.232151151103 0.82804
242.469104761438 0.506515
252.042495786456 3.63594
253.049839985229 23.9857
267.068492269782 0.588594
268.063568514095 1.04582
269.045027275811 46.2088
270.052342048681 17.3537
285.076289020611 10.8658

