>compound Carbamazepine
>formula C15H12N2O
>parentmass 237.102295509758
>charge 1

>ms1peaks
194.096043255672 2.53635
236.975073874081 0.53384
237.102333373436 100.0
237.296050206198 3.21107

>collision 10.0
192.080481711069 4.20317
193.087673628326 0.759842
194.096400004541 32.7285
194.273188346941 0.683532
220.076024676685 1.4189
237.102295509758 100.0
237.295981241425 2.91181

>collision 20.0
165.070327175843 0.639085
179.072700132763 0.750373
192.080420778147 20.981
193.08853799062 3.43851
194.096358770919 100.0
194.273016510166 2.59329
220.076147279352 0.916043
237.102307589662 11.631

>collision 40.0
44.0141204895539 0.750676
65.0406796972776 0.711266
89.0394422597324 2.42676
90.0455410471868 1.40623
91.0538704463431 2.9271
115.052075350301 1.28171
116.049164226514 4.63926
117.057901862931 3.26012
128.050926122774 1.58438
139.055054814981 0.541514
151.053779432396 4.34962
152.061279632667 13.8401
153.060574763698 1.72431
163.051598232053 0.747733
164.060835463471 1.66215
165.069649572469 37.6061
165.231693001515 0.723267
166.070910514082 4.6259
167.075740746858 17.1012
168.080077585708 1.72884
176.060531276571 2.99289
177.062923358 5.59553
178.06804389671 11.2603
179.073009474946 55.7274
179.242515685458 0.858954
180.078789348669 0.51998
190.065200569631 8.26129
191.07205711103 25.7781
192.080601419132 61.7915
192.253376523016 1.37762
193.087944172316 100.0
193.257982655652 1.71808
194.096587071527 88.9243

