>compound ARECOLINE
>formula C8H13NO2
>parentmass 156.101203131247
>charge 1

>ms1peaks
44.0508006874953 19.6759
44.1111682910097 0.595746
156.101811399222 100.0
156.214652231664 5.06163
156.256194262272 2.09739
156.308119784253 0.907047
156.337383707363 0.834323
156.367451902704 0.997765
156.408132657957 0.592921
156.4576091277 0.547606
156.48749477373 0.548133

>collision 10.0
44.0503799565206 89.7261
44.1110000249495 3.90768
44.1304446410145 1.78856
44.161621422574 0.518392
53.0395818746361 0.650342
81.0339288831147 0.949716
113.059599575118 1.13499
124.075652906734 0.762049
156.101203131247 100.0
156.215134401309 4.6989
156.252072638174 2.02353
156.308493869781 0.748942
156.337434402848 0.652812
156.367071477176 0.78344

>collision 20.0
44.050149215069 100.0
44.1108008102748 4.65064
44.1304414078237 2.17226
44.175966996298 0.562494
44.1911013414259 0.758751
53.0393343728854 1.32205
59.049670249138 0.539625
81.033711649792 1.10424
113.059181031295 0.669344
156.100991736899 4.80695

>collision 40.0
42.0349210828397 1.41544
44.0504967255892 100.0
44.1110864063461 3.8767
44.1302615025139 1.7503
44.1614738808326 0.527291
44.1915119560757 0.559218
53.0397372814773 1.73194
59.0501174740741 0.751474
63.9986552820726 0.767279

