>compound Daidzein
>formula C15H10O4
>parentmass 255.065454698672
>charge 1

>ms1peaks
255.065454698672 100.0
255.209351650681 1.62072
255.2547639662 0.867263
255.302352262773 0.681039
255.572148547762 0.579291

>collision 10.0
199.075900226227 0.588539
255.062992096372 100.0
255.206133949273 1.60618
255.253471246173 0.837964
255.327502709912 0.539121
255.404314202725 0.546029
256.064998554867 0.502156

>collision 20.0
91.0542328566357 0.869952
133.026404843817 0.502497
137.022593603967 4.63494
145.0277265423 1.15563
153.070896049328 0.798162
157.065918078158 0.512369
171.080940989026 0.681735
181.064030182481 2.29529
199.074693767574 9.46669
227.070017751415 4.75706
237.054010564562 1.69853
255.065143030844 100.0
255.20547706395 1.72744
255.259047563983 0.84604
255.361136260586 0.540429
255.42744295972 0.56542
255.59319535643 0.534433
255.697441721395 0.501964

>collision 40.0
39.0253251765678 0.965537
41.0401883837567 0.775468
43.0175846617237 1.42127
51.0227047324653 0.865291
53.0395561083844 3.57781
55.0184069344863 14.9448
63.0251924652903 0.728419
65.0394224077476 29.5033
65.1138932109132 0.730223
68.998383957866 6.95315
69.0306661812987 0.792033
77.037988427054 8.10513
78.0453272649565 3.69177
81.0333943952863 18.6994
81.0763191124667 0.844918
89.0392432927889 3.95646
91.0543154908218 100.0
91.141068111242 1.59064
91.1692692217849 0.879525
91.3974489555371 0.535387
93.0326544802826 4.27237
94.9982758891034 0.509598
95.0821586737883 0.626212
97.0107747909151 0.547819
103.05158642118 1.73745
105.034263746256 6.01191
106.042910279782 5.25136
107.043438712769 0.9255
109.030316766334 3.72657
115.054301554287 5.73874
116.062289189356 0.634031
117.066172085806 0.551228
118.040989877102 2.99482
119.04867598198 12.654
121.02700126101 7.99165
127.054748998275 9.57674
128.061980425904 35.5883
128.1330413733 0.811647
129.068694732707 7.85189
131.049953397095 9.07401
132.05414235965 0.651737
133.025834803257 5.12866
134.036531102285 6.50983
135.044594346119 0.706652
137.022909028145 67.8874
137.127497997052 1.28217
137.160738693632 0.6009
141.06980450454 5.01822
142.075734564395 0.627071
143.086188711028 7.39909
144.055851659084 3.06136
145.025882400381 4.64731
147.044521305378 2.30488
149.023710855701 5.13922
151.054612702388 10.0463
152.061731764708 49.2375
152.162484007858 0.87037
152.20193978828 0.508193
152.696693368054 0.612344
153.069085934097 48.0268
153.195385791195 0.689955
154.076987356778 1.38493
155.052241587271 2.76817
156.059770555361 1.49086
157.065393204981 9.65839
159.087585554941 0.644598
165.069901755595 1.60231
168.055927279082 1.61118
169.061509987994 4.83836
170.072674917696 0.889317
171.078239463348 10.11
175.03807556858 1.40734
181.064158434562 69.8283
181.184802255168 1.07685
181.485484425587 0.63917
181.887957652865 0.505354
182.07071111498 6.24236
184.052448815867 10.6032
184.123160642772 0.549763
185.057349515872 1.07972
187.040581854244 1.65125
197.059875269376 10.0519
198.06765201522 8.08807
199.074231150675 30.5941
200.0568846433 0.539559
201.048417212104 0.513606
209.056425109339 5.07495
210.068354837202 3.22351
211.070255766764 0.91473
212.049096107013 1.49899
213.04952280364 0.952717
225.050356002511 2.21297
226.063957846224 2.17293
227.070082448502 9.95765
237.055177481492 8.20234
255.063727408587 8.76476

