>compound Ginkgetin
>formula C32H22O10
>parentmass 567.128320395809
>charge 1

>ms1peaks
234.864541243056 0.597679
567.128320395809 100.0
567.323642126652 2.89765
567.515765460144 1.13926
567.671806136996 1.03297
567.780510664902 0.83087
567.893285460043 0.662076
568.126410978468 1.77206

>collision 10.0
567.124562407253 100.0
567.330272766626 1.98893
567.45865832563 0.883154
567.522803557698 0.738708
567.628077672574 0.829099
567.691346073659 0.773229
567.888743853411 1.00673
568.005343937944 0.659098

>collision 20.0
121.027539903443 0.658409
535.111007929346 0.68445
567.128979123778 100.0
567.301692571451 2.74768
567.516051668826 0.919568
567.580679119344 0.952367
567.629078254897 0.709684
567.781506071302 1.19614
567.905727003988 1.13146
567.957910485749 0.676359
568.128510174811 1.42158

>collision 40.0
38.9652285383077 0.755423
93.0328948712671 1.71379
121.02851609846 23.1168
145.023472751013 0.829953
167.034193385896 3.27139
311.098963280024 2.01527
318.048802351676 0.72359
335.083283960433 1.11098
339.086772095519 0.807644
347.088838622666 0.602979
351.092315760572 0.567677
359.088363592646 0.701224
369.063282495665 0.653582
372.048024120622 0.534833
390.068978572735 0.678159
401.102192530517 4.56101
416.056927488924 1.15251
417.061661242499 2.82626
431.072209846293 2.4627
432.083436859801 7.18869
441.111986491509 0.857933
449.101283691084 3.07379
496.131546647819 0.749758
497.123414091507 0.802444
510.100747768025 0.546622
521.09655128423 0.75253
525.120952647338 1.90953
535.104437513891 13.0077
535.485612494833 0.560323
552.09734584292 2.38022
567.128586111097 100.0
567.3442015427 2.3153
567.454558728474 1.16305
567.536703748501 1.12226
567.747906640164 1.06085
568.102316286434 1.19636

