>compound AKLAVINE
>formula C30H35NO10
>parentmass 570.235444055313
>charge 1

>ms1peaks
132.102038186932 1.06298
158.117612177113 0.921293
333.112555727934 0.891679
377.103168503764 1.25844
570.235444055313 100.0
570.439182381314 5.33479
570.535452102896 2.38843
570.673187598627 1.32612
570.736787726799 1.37571
570.805298750023 1.10754
570.854376117273 1.08687
570.906897476127 1.04396
570.970395799655 1.01526
571.091021942702 0.897895

>collision 10.0
88.0765180245786 0.745545
132.102493294459 10.8616
158.11808026585 8.47796
176.128637259946 3.2031
333.114167818573 7.36972
345.076877508089 0.559729
377.104510299635 13.791
570.236360928885 100.0
570.44114616124 5.0626
570.535844046576 2.31331
570.673016911565 1.19757
570.738794023494 1.24898
570.822048656785 1.02072
570.912255221725 0.951563
570.968204188748 0.929788
571.017339223402 0.893212
571.085516422052 0.812159

>collision 20.0
46.0655234735647 0.694654
58.065407806726 1.13122
84.0803009047042 4.40343
88.075259337604 7.59441
100.07494166671 2.28928
114.090140470232 1.71705
132.100394022955 69.7217
132.205176218066 2.59026
132.239991264454 0.996794
158.115944778595 36.3243
158.231088839437 0.954514
174.110524921676 0.529473
176.126355453569 18.7921
305.099025206262 1.34627
318.085975683898 4.97651
333.109332638045 100.0
333.272783863015 3.9762
333.336622311629 1.70234
333.454092767379 0.688077
333.496787403253 0.762804
333.543931834164 0.598018
333.629407669749 0.551062
333.71220713888 0.51829
334.11288240699 1.15348
339.083342850797 1.81234
345.07306344065 7.7121
377.098925684475 78.8373
377.271332958678 2.74528
377.338981954686 1.22059
377.460674160853 0.515698
377.530362621538 0.551874
378.103023393532 0.596116
570.229464418361 62.4216
570.435702929571 1.92438
570.523304279447 0.887882
570.73676307994 0.50253

>collision 40.0
46.0657610040279 0.520035
58.0659941136023 4.22848
59.0136317254841 2.02405
71.0532667070704 0.749889
72.0813296540982 0.746477
73.0530157531691 2.00887
84.0812865526108 3.40965
88.0764222715744 28.4442
88.1616393655438 0.74918
100.07611227282 3.23122
114.091697471671 3.03066
132.102295634365 31.6618
132.20542098835 0.802618
154.077984863815 0.580067
158.117377078452 2.56192
169.101002170566 1.11299
176.128249786547 5.52942
259.10855375632 0.668248
273.091118923671 0.755112
276.078772894555 2.09929
277.094633721987 1.11919
279.065735082154 2.04054
287.106108904813 2.001
291.094365940287 1.14719
301.086645357828 1.00974
303.066604653425 3.99101
304.074194389287 5.24234
305.094946140099 12.6753
307.064936789593 1.63758
315.102369807369 2.52584
317.079927661441 1.58972
318.089759881207 59.9014
318.24702298231 1.90744
318.304178652693 0.821133
319.092452691382 0.790806
323.055455379005 1.23578
333.113008615519 100.0
333.272377225482 3.92598
333.336550867368 1.69125
333.453005003684 0.744543
333.498835823045 0.7707
333.564529313801 0.605422
333.654428017494 0.584376
333.712697112612 0.550363
334.113910249176 0.728922
339.087554566603 0.943896
345.076924660502 10.3843
349.071308534224 0.589006

