>compound AMANTADINE
>formula C10H17N
>parentmass 152.142189715947
>charge 1

>ms1peaks
135.117308066745 40.2628
135.222489979072 1.08851
152.14378186305 100.0
152.254195210423 3.42522
152.292925351629 1.48628
152.348099613555 0.535582
152.404503189538 0.574096

>collision 10.0
67.054565112338 0.987981
79.0543460603847 2.66488
81.0700874007483 0.804221
93.0697053377969 3.34042
107.085114485188 2.72825
135.115904601687 100.0
135.222308007989 3.64226
135.254713817929 1.48368
135.310331963304 0.563764
135.334201970797 0.528614
135.363288291108 0.550003
136.119725199906 0.703949
152.142189715947 65.7738
152.253956522881 1.9562
152.291524208226 0.81885

>collision 20.0
55.055412634642 1.64059
67.0553398675453 3.317
69.0704206888599 0.835491
77.0392912727189 3.1664
79.055123706756 10.5835
81.0706358090949 3.66564
91.055026760584 2.39129
93.0705436769864 12.0248
107.085928804692 7.47709
135.117109043257 100.0
135.222450798045 3.63422
135.256579064351 1.37054
135.336117076594 0.531263
135.36352029438 0.573847
152.143124755555 7.22319

>collision 40.0
29.0388032761819 0.590641
39.0242514149509 2.92559
41.0398413188039 17.5371
43.0556394879249 1.41845
51.0239481369423 12.7179
53.039741573832 5.38276
55.0553396310068 18.7283
65.0397473179426 8.91269
66.0485427647799 0.631208
67.0554078518764 27.6017
67.1298995039223 0.528798
69.0707663501379 4.06263
77.0397085807449 100.0
77.1196632844064 2.30526
77.1435683884146 0.947975
77.1695096735717 0.566849
78.0463403738735 2.3123
79.055253397698 79.8197
79.1365933849631 1.88914
79.1614263845908 0.756563
81.0708440019117 26.879
91.055126744257 42.8074
91.1426590829142 0.74648
93.070831525633 44.1517
93.1588391008496 0.878281
94.07866384311 1.09618
105.070887081058 6.08315
107.086329117318 18.4534
133.102152270674 0.531966
135.117207628441 26.5894

