>compound Osajin
>formula C25H24O5
>parentmass 405.16835194447
>charge 1

>ms1peaks
349.105499311353 10.171
405.16835194447 100.0
405.344416832757 1.77926
405.412000789923 0.937007
405.530188051535 0.618405
405.589336561716 0.514097
405.657555634452 0.557155
405.773526675535 0.501524

>collision 10.0
213.057073881252 0.695732
331.096535301464 0.563728
349.109163235677 100.0
349.269433289113 1.75177
349.325363208561 0.836537
349.41770899442 0.620099
349.501872405087 0.601957
349.6935413458 0.671471
349.802177604445 0.522198
350.108037432378 0.681354
405.172126112944 88.2153
405.34888451084 1.45575
405.408799898075 0.801925
405.519717367703 0.617548
405.603411072987 0.563165
405.698318037874 0.561588
405.809412749952 0.560186

>collision 20.0
187.07450015967 0.576531
213.055080134148 2.75701
331.095677775886 1.69956
349.107769507494 100.0
349.272676610839 1.9534
349.328603525746 0.894139
349.415293717552 0.640283
349.490940509212 0.574917
349.655975163529 0.527551
350.109844278576 0.549314
405.170376817983 4.05362

>collision 40.0
43.0180715089108 0.537542
91.0541281559514 0.709614
93.0346282136454 0.859427
103.054335803584 1.80056
107.049463201285 1.96857
109.028779331632 0.551479
117.068968217013 2.24499
119.047769899552 1.66218
121.027288031179 5.60835
129.068813454419 2.90534
131.047906095933 3.36678
131.082859522081 1.89374
133.028236298369 0.575704
135.043428969275 7.34255
143.081442692041 0.588417
145.061203273071 0.555481
154.944802599484 0.535056
157.063241317945 3.00878
158.071080020476 0.650126
159.044002313655 19.3238
161.02203778854 0.733791
163.038552149721 0.665376
171.043635156189 7.41857
173.060208005882 0.664678
177.019269225217 1.35872
185.05841988868 9.66845
187.075153833142 10.1731
189.018411253471 1.30377
199.076115649835 0.572943
203.054794612059 0.520427
213.053868712428 80.4412
213.186174653029 1.08056
213.265456599946 0.600248
214.061803988872 1.04094
215.06874516611 0.917388
227.069891483345 0.924818
229.102575665121 1.00077
231.068821466024 1.82388
232.086491135478 1.73907
247.111872978092 0.868
249.090423528541 0.889949
260.079728555713 1.24914
261.08733374415 0.550662
267.086760439202 0.506281
275.105215474348 1.46665
277.086517682978 0.842189
278.092366267809 0.702068
283.05990572124 1.54893
285.090279422048 0.674255
289.081479778536 2.60524
291.070752721087 1.10975
292.075855573532 1.26264
293.09290687465 0.906419
295.059798580932 21.1299
303.100968306125 10.1946
305.081370839398 2.32434
306.089540255911 3.21947
307.076928070209 4.9408
309.076863624443 0.826522
317.08056859943 1.90495
319.092686687547 0.657997
320.073553349988 1.27227
321.0865738785 3.2127
331.096049930913 88.8352
331.251629307385 1.36536
331.332241219544 0.67576
331.730545848655 0.544068
332.099785897132 0.615914
333.076350373086 9.22764
334.083159570926 12.202
349.10675839685 100.0
349.270386706386 1.54037
349.32125758948 0.747883
349.388100733322 0.630602
349.479969353247 0.692601
349.548760815657 0.524627
349.620807671907 0.584821
349.68093225572 0.613016
349.78685627677 0.626992
350.014109011736 0.501713
350.112559001316 0.784827

