>compound AMBELLINE
>formula C18H21NO5
>parentmass 332.150875877883
>charge 1

>ms1peaks
332.147115938397 100.0
332.310653410668 4.99931
332.374983453094 2.1841
332.490427746468 0.840532
332.534800883323 0.992352
332.597597404211 0.655557
332.669145506849 0.596647
332.709715878728 0.612459
332.754150256484 0.580045
332.837569542669 0.505049

>collision 10.0
271.098267875171 2.81485
282.114145366786 0.801462
332.150875877883 100.0
332.310164220349 5.03992
332.381111296459 2.20564
332.489554364778 0.99361
332.53639166698 1.08726
332.587926389615 0.766776
332.667193758601 0.703068
332.711107336183 0.696574
332.749289328445 0.631775
332.83904098979 0.581431
332.894396486424 0.541761

>collision 20.0
105.034361528073 1.20927
106.066051052431 0.80788
165.057948904672 2.11978
167.085455315463 0.572022
181.066259410731 0.641178
183.080586509467 1.67079
185.096969708132 0.796753
191.0711269719 0.554161
193.051423098391 1.02131
195.08129867987 0.949244
198.088589034071 0.539344
203.070997584129 0.606195
211.07657626866 5.817
213.092075062163 2.68314
223.076784694828 1.12301
224.108011084404 1.77877
226.086856794529 1.70238
241.087234442585 4.929
243.101679082226 6.22854
252.103143674179 1.91026
253.087277335566 2.03709
256.09798598918 4.05449
257.103574184247 0.554358
267.092124890071 0.586705
271.098693761712 27.4356
271.245468340775 0.743255
273.113685834345 0.521061
274.110805639132 0.617615
282.114394048059 8.75773
300.12491849558 3.32052
314.140298400802 0.599241
332.150719991066 100.0
332.311548431431 4.67553
332.377073075195 1.93748
332.536704298066 0.877348
332.587034794617 0.641156
332.670662409266 0.623524
332.750087815794 0.577383
332.799945571334 0.510698

>collision 40.0
153.069063983182 61.8601
165.064131509967 84.3781
181.06747780383 51.2767
183.077390842641 100.0
185.094772843704 55.4261
198.085656346189 54.0516
211.073201875817 78.5469
213.08915817589 60.7381
226.084195190422 54.7532
243.086502060087 37.7535

