>compound 4'-HYDROXYCHALCONE
>formula C15H12O2
>parentmass 225.091751307289
>charge 1

>ms1peaks
103.054336902122 0.655215
121.025360648464 0.727392
131.047031626175 1.08524
145.988449118458 2.47909
146.486121283417 0.539003
146.984923365259 1.14526
183.988301285397 0.689463
184.493235248458 0.691425
184.992988278298 13.3032
185.491902127535 2.98269
185.560417073732 0.568808
185.99107286496 12.556
225.006884309218 1.70382
225.089919488435 100.0
225.228480309348 1.59093
225.418345271681 0.615819
225.49680582024 0.571116
225.61942857447 0.72084
225.774077104936 0.515772
225.890166937408 0.548704
225.972022607835 0.611738

>collision 10.0
77.0416019416886 0.882521
78.0131742339464 1.53422
79.0205477312226 0.633347
103.053053753258 3.00472
106.982522012349 0.613264
107.977337087467 0.721311
121.027788135121 8.21729
131.049536810581 17.0946
145.492191695028 0.992472
145.989183626449 12.6081
146.491779949111 1.43155
146.984416601077 7.54544
147.042531770138 3.29417
207.083213576178 1.96575
215.962580230787 0.883127
225.091751307289 100.0
225.228703117953 1.42477
225.268993669267 0.852296
225.313969391081 0.862301
225.383825891424 0.705248
225.467972942478 0.56829
225.706266624646 0.554309
225.851741939801 0.535712

>collision 20.0
49.9794958267117 0.69117
61.0121239028356 1.74302
62.0190607667777 1.11307
62.9876726464233 1.62598
78.0128597426897 6.52618
79.0219001853253 0.877497
79.0554576875234 1.61576
84.0857521049204 0.501956
93.0336999353617 2.76326
103.054226072592 26.389
105.03088789651 0.690708
105.477227870469 1.33438
105.985796621946 2.05794
106.980154444411 5.63084
107.048788790433 2.4937
107.979099508833 1.88684
119.048684788007 5.02619
119.917648913461 0.543466
121.02796944681 39.8363
121.125792716934 0.715359
121.378710282849 0.505197
131.048955417134 100.0
131.153969102458 1.63082
131.200236070966 0.784047
131.310094747603 0.705676
131.431434133621 0.69382
131.518155410612 0.542241
131.979430013909 0.952349
134.944443380266 0.50033
135.948227530413 1.54251
137.944165709335 1.20594
138.921467108321 1.09994
147.044364875141 7.13493
150.975784928048 0.685375
154.943971163095 0.784771
165.060699176794 0.954826
168.048715642815 0.515336
178.068432691116 0.548989
179.086384757114 4.28572
182.974605129472 0.561423
198.931099556681 0.701656
206.453748476283 0.515698
207.084725165226 3.56032
210.076284813619 0.901701
213.963579605122 1.2918
215.959039402607 1.9805
225.089494954916 14.9489
225.214210971435 0.57361

>collision 40.0
39.0213031592329 1.01934
41.1279716784189 0.67814
41.9829696687377 0.572896
46.9938163319539 0.740405
51.0240910900831 1.40687
57.9338128816955 1.47664
59.9298930415074 1.52307
61.0100162547566 2.29463
62.0161123648304 0.797121
62.9892276221559 2.67017
63.0142736673217 0.697761
63.9955297431038 0.960086
65.0394333305897 26.7031
68.9542523768115 1.198
76.244058524016 0.978643
77.0380735734389 45.479
77.1177737935704 0.639341
77.8408093555472 0.705455
78.0131322820562 1.09275
79.0557625826808 5.12804
79.323400125088 0.790704
80.0055563599348 0.557339
91.0579753249652 1.56744
92.9122855857604 0.550483
93.0329338492625 18.9434
100.08584194239 0.54408
100.992079812606 1.00445
102.045381855081 3.70723
103.0536838258 100.0
103.143935747416 1.05947
103.175827014076 1.21878
103.212939084888 0.740925
103.273377606299 0.670521
103.374333960396 0.719804
103.564507919516 0.805056
107.044009236434 1.42515
107.891494389917 0.957625
107.960316290463 1.76924
118.909202975774 1.16522
120.923199806491 2.26047
121.027642332829 11.6447
121.910026951209 0.647471
122.029041381213 0.857756
122.923177308101 0.966108
131.048019707596 6.5766
135.944817326206 1.22047
137.938734087591 0.781157
147.045361161598 0.599717
153.065118914996 1.77447
154.063237619085 1.12504
177.067384403376 0.992666
178.076268756423 4.60315
179.087803343996 0.678173
181.06140964443 1.02114

