>compound CRINAMINE
>formula C17H19NO4
>parentmass 302.138629379852
>charge 1

>ms1peaks
302.139831415437 100.0
302.289777808146 5.80465
302.36838856579 2.53159
302.505835091484 1.49423
302.558892386089 1.04817
302.630871631464 0.949989
302.673142645548 0.954295
302.71660482853 0.88634
302.831509593217 0.711416
302.875240481002 0.686478
302.913262312294 0.636678
302.981501890123 0.589199

>collision 10.0
181.064023107228 0.638051
211.074350874815 1.28778
226.085492159815 1.21829
258.111856965642 0.545128
270.11197895513 1.60896
302.138629379852 100.0
302.290588260642 5.98386
302.370246037446 2.6587
302.50479460966 1.56434
302.566795472792 1.03404
302.631749863265 0.967147
302.672239136858 0.956601
302.716118792271 0.895848
302.799453816884 0.769382
302.833102571524 0.709702
302.879039771098 0.690402
303.009066245231 0.562267

>collision 20.0
94.0643966023163 1.14364
106.064239598597 1.50656
134.058564159275 1.14186
135.04256018725 0.670486
153.068243159918 1.22996
155.083797673585 0.532184
168.078818089722 0.610767
173.058268736809 0.797071
181.06347484032 7.79721
183.078903033124 1.77275
185.059569063029 0.793018
194.094649103436 0.830938
196.074293534724 2.79323
199.073631427515 0.627924
201.088488397538 1.08516
211.074257180647 12.7498
213.089690095696 4.82018
222.089705143667 2.04056
224.069803994603 2.57827
226.085301768019 14.8169
227.092473752644 2.59692
241.085790379159 1.63529
242.115599264708 1.58813
243.100217972007 0.725338
252.100316650886 2.64635
258.111280754185 3.99414
259.118370200834 1.44044
270.111511736987 13.5733
302.137048532041 100.0
302.290994371179 5.2073
302.359857242447 2.44125
302.462350623341 1.01895
302.505461318324 1.18379
302.565283506701 0.762565
302.631864627777 0.712617
302.672733606829 0.695057
302.713369498914 0.653051
302.794345541714 0.563008
302.835850476857 0.512265

>collision 40.0
41.0390060118652 2.33769
42.0342086329083 1.15936
43.0180690925372 0.640965
44.0499525240289 1.6528
45.0339310677343 1.95736
55.0182915693611 1.17046
55.054557043616 3.42557
56.049735985856 2.45568
58.0653673608575 3.54005
60.0447492797535 2.23887
65.0388891111833 2.22759
67.0543402451147 2.57489
68.0496258761145 2.67608
70.0288185589665 0.831313
70.064732112359 1.02117
71.049204575694 3.957
77.038706726737 4.37111
78.0434640688952 0.592989
79.0543724403482 6.74286
80.0495426147464 4.04706
82.0650422567935 1.11883
85.0647126367735 0.689395
86.0603342662492 1.25315
91.0542736133735 1.82848
92.0492344849982 1.27864
94.0650903190506 4.54037
96.0443045903972 1.83198
97.0644494646383 0.714524
103.053619012847 2.29937
105.064606216745 0.958209
106.065034876624 15.4217
107.049139238304 1.13272
110.060046399698 1.01703
115.053764857913 6.68815
116.053546804867 0.955824
117.067681145876 1.74046
118.065060177078 0.732963
119.060167600342 0.724013
120.080083621047 0.683564
121.064795389038 0.538007
127.054140028385 3.20858
128.061769463524 3.69761
129.069274106621 5.6653
130.056672622979 0.988204
131.048987319477 2.39524
133.061961743062 1.0132
134.059376189047 3.57071
135.043639956357 10.2203
136.052053440066 1.03854
139.053662093787 1.66265
140.05956762953 1.05768
141.069367777846 13.3729
142.073634007719 1.30022
143.068226371595 2.37472
144.072187330946 0.911677
145.063968996143 1.03654
146.059770232153 0.659255
147.04372052552 4.18824
149.059422488904 4.93561
151.053569591837 5.63692
152.061691354986 23.4197
153.069909642661 99.3597
153.180559913231 3.03385
153.219969244695 1.26795
153.300790797694 0.515425
153.331844415026 0.550649
154.072114948603 6.684
155.085010991315 37.3525
155.196899877434 0.890601
156.072784548168 1.19021
157.068664214227 2.25732
159.045750879759 4.19743
160.050154626395 3.63776
161.048870503252 7.75605
162.056491060561 2.63845
163.049239864773 0.812619
165.069435373903 16.5107
166.066072767384 10.7486
167.076824560428 13.9715
168.080295210631 60.1002
168.198084013254 1.38841
168.235591968912 0.664469
169.066662431058 10.6194
170.071297210394 2.13181
171.078890569459 3.05773
172.052960422011 3.38508
173.059510040384 10.4459
174.057226004544 2.5345
175.0525844694 1.27997
176.068274261719 2.02106
177.070784971289 2.10051
178.067476759403 1.90135
179.073953158405 1.09008
180.063086357091 2.50126
181.064968835292 85.1333
181.18507331891 2.36469
181.226576860107 0.965287
182.069573345009 3.81879
183.08050794967 34.4255
183.201740771425 0.743744
184.091279515328 1.36694
185.060801388232 16.9718
186.0643350177 3.456
187.067286940477 6.28884
188.069817205065 2.2803
192.080309594063 1.25153
193.084381185516 4.36848
194.09527807609 14.0674
195.077380449519 4.94534
196.075790465642 74.9733
196.202272328916 1.84972
196.243969689093 0.822517
197.080956530291 4.18378
198.074860546242 3.33367
199.074951483586 8.79017
200.071200741096 4.4317
201.082723085144 4.48116
202.084749834551 2.3952
204.076460311842 1.2421
207.067759942969 7.00888
208.075430947285 0.505664
209.061470026955 7.04708
210.071692370305 3.86985
211.07106811504 40.0891
211.197351424083 0.817837
212.077193635626 10.5202
213.090077770372 11.4611
214.08660839696 1.93423
221.083391930628 0.754648
222.091237035452 6.80518
223.077412238198 1.21459
224.071190999454 100.0
224.203423543922 3.04754
224.251289448738 1.32965
224.348784004389 0.558762
224.388496115698 0.564884
225.080074067024 3.69851
226.086480084894 65.578
226.220293986737 1.62808
226.266020506273 0.755648
227.093919327748 14.3615
228.087748952688 0.931529
229.075627644953 1.1125
230.081235961422 0.979549
237.078550071456 2.3316
238.085606552156 1.77945
240.101907834016 3.51388
241.096487445319 1.14747
242.099382698578 2.9171
243.100269959485 0.55988
250.085607139027 0.759425
252.101841944786 3.53559
254.082217450002 0.557056
256.096754920236 0.729594
258.112019513213 1.61343
259.119502658084 0.832969
268.097172744878 1.90575
270.112818299538 4.88533

