>compound Neostigmine
>formula C12H18N2O2
>parentmass 223.144130054157
>charge 1

>ms1peaks
208.120692164291 0.586146
223.144195701474 100.0
223.280482524669 2.10236
223.324533021025 0.624744

>collision 10.0
72.0450071503366 1.33857
208.120487073148 5.39691
223.144130054157 100.0
223.280392340297 2.52916
223.324052388728 0.745598

>collision 20.0
72.0451398904505 36.3156
134.095947178713 0.72337
135.10405614412 1.63601
151.099023070682 2.44236
164.131021503515 0.695213
166.121359456748 0.73407
207.113017059687 0.963226
208.120969362739 92.4155
208.252950079601 0.848467
223.144565005043 100.0
223.281105310339 0.981144

>collision 40.0
44.0496500152409 1.27263
56.0137341841358 1.03169
58.0660002377282 0.651545
72.0453499342165 100.0
72.123683518016 1.76115
108.080232041252 0.716312
122.095878267842 0.779217
136.075855968423 1.05726
137.083515857784 1.35062
150.091124356091 5.05481
151.098829907093 2.3368
208.120159628482 0.714659

