>compound DICTAMNINE
>formula C12H9NO2
>parentmass 200.070889347718
>charge 1

>ms1peaks
185.046781985215 0.723479
200.070408813375 100.0
200.197927739539 3.47697
200.240820807389 1.41135
200.3334991228 0.564133
200.370665068044 0.577714

>collision 10.0
129.057760966102 0.545118
185.047414130756 2.75174
200.070889347718 100.0
200.198697602366 3.89462
200.241300201908 1.46263
200.336954988397 0.559833
200.371700959567 0.606916

>collision 20.0
102.045089349804 0.536106
129.055494942359 4.19329
144.078530880588 1.02447
172.073862053963 0.615939
185.044965926667 65.7365
185.168977251999 1.74784
185.210554466321 0.732421
200.068375557056 100.0
200.197584697265 3.10743
200.23993974757 1.34421

>collision 40.0
52.0196764730952 1.15528
77.0389219895096 1.29491
78.0468095610986 8.53207
101.038669226107 0.687422
102.046471921861 24.6603
103.041839616036 2.542
115.054597064566 1.14369
120.044357067306 0.954244
127.053112704456 0.832706
128.049378326373 12.3879
129.057445911844 100.0
129.160474827705 2.79035
129.196715793311 1.15494
144.080958052984 0.53846
156.04434013305 3.46629
157.05276136365 0.871237
185.047109809744 23.6798

