>compound XANTHYLETIN
>formula C14H12O3
>parentmass 229.084138926887
>charge 1

>ms1peaks
73.0757240275093 1.25476
83.08465041079 0.59236
151.088511271471 0.568256
151.485340752559 0.816829
175.040643276445 0.610217
180.923540682263 0.662021
185.05794373747 0.523971
187.03201880172 0.666372
188.993316072427 1.38275
189.4965021249 1.3246
189.997418638791 1.73231
190.496689845752 2.17148
213.053311882986 1.39729
214.052231918055 0.904468
220.022943748111 4.69752
228.075905615223 4.80952
228.198310535941 1.00829
228.532127919893 1.39072
228.96797818533 2.50666
229.086231520361 100.0
229.226871966853 1.63576
229.304181209962 0.972776
229.400537397669 1.05735
229.512965177126 0.865153
229.566065363119 0.998624
229.641003223016 0.610912
229.687339580247 0.836806
229.746839754094 0.901871
229.948532734324 0.553116

>collision 10.0
43.0541283294539 0.794089
68.9985894925851 1.01895
119.046146541734 0.68651
131.045124560561 0.799558
150.950579290913 1.35018
151.014437903239 1.59021
159.044213583335 1.26504
161.092007780099 3.87873
173.05468616957 0.543437
173.093875253218 0.535826
175.038158517912 4.86383
181.010657578819 1.07548
187.03858563168 10.0215
189.028489479604 1.12096
190.025778412998 1.40802
201.084123181469 2.87518
211.07060552485 0.527988
213.05295953427 4.67119
214.059782219142 1.69268
223.956900445127 0.532224
229.084138926887 100.0
229.21910318874 1.43534
229.26650373752 0.84546
229.326557896838 0.697309
229.444477951613 0.73039
229.526434730459 0.538445
230.050341481211 0.657313

>collision 20.0
41.037881525561 3.67155
43.0191894116778 9.312
43.0549719510051 26.3613
55.0211912182934 1.33396
55.0528216015576 1.05416
61.0102659239408 2.58408
62.9880041807484 1.689
65.0375756689836 2.21479
67.0566359931918 5.94585
68.997697760549 10.1097
69.031354539359 1.74657
70.95547984254 1.55782
73.0801181531395 0.984175
79.0494089447327 3.2213
81.0324107570449 4.34162
83.0121128862251 1.61393
87.9041573681986 1.55875
88.0730958622396 2.23419
91.0527915087794 4.44187
94.3583790928043 0.944652
95.0136884936022 2.59388
95.0806017547359 1.6442
102.947474180692 1.09981
105.067079144511 2.29722
107.046326549403 4.6337
109.102433879124 1.62834
110.977470845969 1.02126
112.011033330297 1.0842
113.915294812839 0.901713
115.052314854693 3.05133
115.936338502537 1.76228
116.057121130286 1.26923
117.068802573835 2.51852
119.047431093656 3.50429
119.08232749423 1.2996
120.054857346003 2.22008
121.061686319819 1.79608
122.924242801851 0.859222
127.051468847277 2.21134
128.060969264729 3.13872
129.030500370732 1.04395
129.071778223797 6.57034
131.04916467084 14.4472
131.083279859606 7.02417
131.136497475426 1.03263
132.088056370924 1.11641
132.940505435633 2.70106
133.062954292609 9.54064
133.094500764679 3.39469
134.50227598976 1.13131
135.047594345034 1.15264
135.083525340708 1.95377
137.48214933295 1.74004
137.978306629575 0.932941
141.072971748471 3.82359
143.045597855684 4.0675
143.086507696818 9.0584
145.09961125679 12.4408
146.083532088896 0.924603
147.045497908876 18.1377
149.026962487546 0.91048
150.512968574673 1.07874
150.95130680936 5.51879
150.994247321371 1.52614
152.057317096151 3.08175
152.113253296321 1.33146
153.066920167626 3.91857
154.067707511461 1.98657
155.087341783689 7.09381
157.00605677625 0.880343
158.07772151943 2.1685
159.045405932436 57.8296
159.163615807455 1.0481
161.095282868388 53.7821
161.27967677823 1.24535
161.385341297454 1.09762
161.600289271134 0.90887
161.938507382126 1.07282
163.036788471227 1.55734
165.067667193243 2.09833
166.076034272293 0.972383
167.087852490146 1.51059
168.060119505775 2.73679
170.075757775355 1.60855
172.051969204561 3.1851
173.076542036073 20.8973
175.037494887139 100.0
175.152075931755 1.46781
175.232123212696 0.882391
175.477260306179 1.18089
180.038187534204 1.01033
180.287446504486 0.882645
183.079060366198 8.48518
185.059518816167 3.68484
185.094397427092 2.08409
186.067983460481 8.39647
187.040599086644 58.6629
187.156881205212 1.0428
187.728436018751 0.865696
187.912229964998 0.858932
189.052324173458 9.49994
199.060535410763 1.39563
200.048915560285 11.086
201.081185126328 24.7861
211.081444088054 9.42593
212.088985869235 0.907847
213.055230930047 39.2774
213.149526076778 1.26086
214.060740573733 26.9099
214.177347577927 0.870851
214.391224401902 0.889829
227.061194632038 1.2981
228.07562272531 1.07347
228.261796386569 1.21302
229.086068682898 92.3741
229.181691707083 2.5022
229.232714660969 1.19093
229.717446781746 1.20799
229.889907231169 0.936926

>collision 40.0
39.0233518915009 3.19139
41.0399856508296 24.0821
43.0201582248373 9.79409
43.0556461617257 18.0547
45.0301778669037 1.33773
46.9938289774234 1.40835
51.0232069121926 3.38122
51.4725953573693 1.28489
53.0407604777572 1.37586
55.0186464751928 3.26131
55.0517910662558 5.00575
55.9334978546299 4.79092
58.9598176441299 1.63793
61.0069536496499 1.49029
62.0158252515268 2.55379
62.9907259188687 1.27679
65.0378258861513 13.2671
67.0548068856502 2.79218
68.9970796281866 45.108
72.9371996929293 2.9832
75.0179294696497 1.66922
77.0396806891026 22.2675
79.0243085602427 6.10968
79.0529940093622 6.78053
80.0453312609874 1.35122
81.0692077500979 4.33983
87.9096587634554 1.77558
89.0372825458513 4.76366
90.9442611966967 2.08623
90.9824619360529 1.59569
91.0537511593372 100.0
91.1226430043845 1.58199
93.072457341375 2.29245
95.0142307549599 3.82057
100.911360520047 9.47715
102.928991921511 2.7457
103.055476098757 21.6433
104.064976756322 1.46556
104.459727104141 1.97229
105.068886918312 20.8738
107.048078672993 8.67801
111.475529679523 1.90181
115.053906720007 62.9721
115.140337740618 1.85022
115.513481652772 2.04468
116.060797627202 14.4277
117.06941696122 20.1406
117.912108636332 1.9758
118.075112746681 1.45896
118.916031589732 1.89115
119.050598018525 35.6276
121.06468524859 1.54671
127.056226329041 13.767
127.510317993798 2.65631
128.060802665915 27.1493
129.069337705588 19.8902
130.036509792037 1.74899
130.076154092734 4.25518
131.049288833372 91.4259
131.129185171285 1.97505
131.155923600079 1.51643
132.05327389365 4.02681
132.935148183649 1.59365
133.062190321903 2.7058
134.917381150916 1.84972
139.053247455682 3.95203
140.057719444835 3.0117
141.068679657773 7.41814
143.052176888645 3.39613
143.933187646107 1.77566
144.06158911065 7.26211
145.071088624109 11.9144
146.073517164577 5.30152
147.042593667795 68.4331
147.149096105525 1.6417
151.055625307156 1.79116
152.060735249696 8.98662
153.06638011426 6.11914
155.081140143279 3.06602
157.067169173339 22.9577
158.069903547105 7.12924
159.045283456782 6.12181
160.053213411047 1.42513
165.075786615999 1.28868
168.061546938197 3.51913
169.063234484437 9.57133
170.071706305753 2.64893
171.043099997788 25.4407
172.050349344744 5.3214
173.056769468422 1.24927
175.038138656036 12.806
183.078725685248 1.28466
185.056920524469 28.2528
185.113114302789 1.56689
186.065234199241 4.69991
187.038179155595 2.24509
197.054695787616 2.44092
199.037262405442 6.09999
201.070161662822 3.09363
213.053901514385 16.0335
214.056803661294 3.00809
217.00238136546 1.33868
226.022551451574 2.22578

