>compound MACLUROXANTHONE
>formula C23H22O6
>parentmass 395.150172160011
>charge 1

>ms1peaks
395.146737489398 100.0
395.271337787909 4.69139
395.387496673503 0.976923
395.517095952071 0.560723
395.612029703181 0.569876
395.749694658812 0.578397
395.834296319931 0.527322
396.141237615223 0.835714

>collision 10.0
327.091992487502 0.557995
339.086002821985 0.760201
395.150172160011 100.0
395.276350458083 4.73981
395.392391353791 0.935264
395.502362645736 0.613567
395.599944962769 0.646661
395.701760589531 0.557918
395.777327298218 0.647178
395.905542578502 0.519407
396.012631444434 0.563328

>collision 20.0
285.039787553942 1.26939
299.058653066653 0.549574
311.060978619723 0.505392
321.077564368488 1.92043
327.088946867076 1.0611
339.087464904365 5.22777
341.102808461821 3.4112
353.103582591888 4.24952
377.140659075279 1.57167
395.15109317391 100.0
395.390623662991 0.908153
395.473702708655 0.693326
395.54379762341 0.658609
395.639946665028 0.597249

>collision 40.0
285.037364863648 100.0
299.052361008666 52.0169
311.055894143192 29.4479
321.073257463058 60.3468
339.083930698094 53.9051
353.100043952191 39.5073

