>compound CYMARIN
>formula C30H44O9
>parentmass 571.288681242495
>charge 1

>ms1peaks
98.494461076193 0.674096
131.061796085154 0.501243
212.087690888795 0.726956
329.156585198721 0.792078
417.19163400094 0.574905
492.264608874402 0.562023
493.262533642975 1.21804
531.741695531141 1.1027
570.438505567992 1.06498
570.813660786198 0.594161
571.286459835937 100.0
571.494579729028 1.56714
571.568554873492 0.923896
571.721924808494 0.931182
572.12170918766 1.48833
601.12170918766 1.0e-13

>collision 10.0
313.107603039814 0.600556
329.159430061547 0.665162
493.253577133659 1.33385
570.242462327699 0.550872
571.288681242495 100.0
571.575040818286 1.35381
571.654083142137 0.871928
571.841310639403 1.30801
572.066255877795 1.23139
572.173551395951 0.556617
601.17355139595 1.0e-13

>collision 20.0
95.04848633941 0.509781
123.938904617109 0.751037
131.069463783643 0.598
258.138910406274 0.666786
329.155948952395 0.712948
392.28631979034 1.24471
415.206425087778 0.524508
415.277588599793 0.697585
570.283092590616 0.721126
571.283322092831 100.0
571.488971351152 1.62797
571.804704873523 1.32066
571.911107168238 0.712555
572.091432665089 1.05805
601.09143266509 1.0e-13

>collision 40.0
25.9070556651297 1.38446
44.486762043238 1.49803
95.0459667366352 2.66046
108.869298544019 2.49407
127.079389350838 4.02165
167.061921553522 1.42003
185.071723836691 1.52151
295.192049786307 2.5958
315.163541822875 1.66902
317.038899996198 1.54308
317.142372522374 1.35862
323.231726382179 1.37744
329.144351789737 3.05219
337.097866230922 1.61303
427.207201752402 5.84085
499.205861063991 3.4674
500.874965649945 3.10415
571.286574286668 100.0
571.65122842581 2.2264
600.65122842581 1.0e-13

