>compound ROFECOXIB
>formula C17H14O4S
>parentmass 315.066822875866
>charge 1

>ms1peaks
37.603374808578 0.742318
82.1435021802787 0.559549
89.2982411043199 0.545419
89.8519223338418 0.565267
93.8255425816644 0.77775
102.754649248807 0.775858
106.974342331262 0.545419
111.83908319937 1.02293
118.381669472088 0.601903
128.388846302102 0.681822
129.562767578936 0.583301
146.531665488418 0.638753
149.062483296934 1.34151
162.053510078506 0.568538
165.071709844001 0.903577
165.890653322349 0.593024
181.876196045087 0.557602
186.282936285324 0.657382
192.114976780238 0.657852
192.385076588101 0.550873
208.795460513325 0.576634
210.053913899595 0.580075
220.690321835982 0.654633
234.402227944145 0.547223
236.091903367265 0.951228
236.134981071153 0.884795
236.981397576967 2.98169
237.089882398503 0.955877
237.133704347965 0.545646
250.547624990318 0.948538
259.052206647195 1.06629
269.050003714707 0.78759
277.146804965211 0.758716
287.071380588857 0.59693
297.055586172762 2.84015
297.164124691313 0.906076
306.770390463946 0.696987
314.059753427264 1.43234
314.158508004517 1.10452
314.208480397308 0.777273
314.266731827916 1.02277
314.994130756818 0.883403
315.068768508794 100.0
315.180838562599 4.24284
315.228171781076 1.77884
315.308893548124 1.42434
315.437213509036 0.976474
315.4939791351 1.06527
315.568446555809 1.17983
315.691880221654 0.999934
315.771430717467 0.64098
315.851204055589 0.627718
316.002727492471 0.642571
316.067227290826 0.566298

>collision 10.0
131.002407019947 1.13253
157.509227232154 0.955115
158.967906091164 1.63582
189.068991791971 2.17422
190.06521539505 1.40237
192.092449545221 5.23296
198.107585742596 1.20209
206.071237944656 2.24802
218.068331963177 5.25032
218.11132144236 1.13923
235.06856959004 1.53522
236.085869820381 5.20759
237.014766360137 0.970595
269.061586881842 11.2841
270.328012172825 1.00849
285.961159714169 1.10581
297.058272047388 24.0924
298.071219572115 1.5736
298.666575438582 0.970407
314.238605291155 2.21614
314.313998144947 1.15283
315.066822875866 100.0
315.22573598141 2.30451
315.486920624254 1.28748
315.624310259474 1.45077
315.72653595056 1.6224
315.931155325668 1.04353
316.02936262167 1.17766

>collision 20.0
57.0347874549975 2.90954
57.073150682423 8.92507
82.9816710519336 3.0384
100.999760670395 3.86905
101.412199105986 3.25111
106.077530304763 2.24759
131.052803441869 2.76001
158.963768488092 7.33559
178.077243247809 6.49648
190.076810809033 6.53332
191.088153861673 9.92483
192.095286751163 37.6793
206.072942620759 14.7654
207.079810986723 11.1674
218.071453364469 13.9568
236.081903284572 7.7157
252.065861984456 2.69753
269.062651973103 100.0
297.055422666625 28.09
314.359907035932 3.48004
315.072191063489 28.6875
315.146212753557 4.45018

>collision 40.0
43.0554629416569 14.6581
44.0558050675252 9.3319
45.9906203169676 4.35151
57.0711236072517 7.26623
62.0217318803931 6.05646
103.058022856966 8.42848
130.995327190344 8.3852
131.052498746036 7.92945
147.044614929394 10.9041
152.064177386775 15.1528
165.074699028813 8.06327
177.069374171451 4.76909
178.078753699966 61.146
179.087605697515 4.93098
180.08859321448 13.5421
189.071539854823 71.8924
189.463751801358 4.71797
190.077819704137 56.0048
191.085350304956 100.0
191.209034989597 5.00621
192.092039390367 34.1139
205.055398968841 6.09302
206.070159542292 38.6948
206.141133092654 4.57871
207.081567282402 37.2475
208.086624933375 4.75248
209.042233894351 5.23463
218.066636224233 10.443
269.061509216757 20.7826

