>compound Rotenone
>formula C23H22O6
>parentmass 395.148660648079
>charge 1

>ms1peaks
192.076259233921 1.14585
213.088505098864 0.709952
394.136666345933 4.17934
395.144829666899 100.0
395.266954051865 4.22872
395.389340807794 0.842083
395.711802513691 0.642329
396.029948911871 0.501006

>collision 10.0
167.069788684257 1.36955
179.071477608091 1.44811
189.089965541657 0.886983
191.069481273557 0.864179
192.078439818993 6.9081
193.081116905176 1.15308
203.07061321602 2.18556
213.091775788775 6.16232
241.086979821643 1.83833
367.154565759222 1.72983
394.136552632024 3.51012
395.148660648079 100.0
395.26988535779 5.93514
395.38315269557 1.02746
395.471854845711 0.660544
395.568582934095 0.736358
395.712855971095 0.653765
395.917954965144 0.74709

>collision 20.0
79.0570627510757 0.553223
103.054182491186 0.525335
107.051555734578 0.781656
121.063151002814 0.856907
123.047200454187 0.651479
124.050076154924 1.29012
133.06182825319 0.626855
135.046310766364 1.62147
137.063124073258 1.05919
139.07733742018 7.16342
147.078990253597 2.30647
151.075973619286 1.85533
153.052345838313 1.69168
155.067689028934 0.522517
161.058315026584 1.4297
162.062828927649 0.511801
165.083789712995 0.911688
167.070782884549 14.4896
170.069947822388 0.526808
171.075482635069 1.1111
175.03418697578 0.912633
175.07696577023 1.16465
177.053656854163 1.57572
179.070044335688 14.0921
185.058313749201 0.776008
189.091015092204 10.2105
191.070808360706 7.48657
192.078008755379 59.34
192.202564593023 1.09215
192.578688903048 0.511336
193.081743383675 9.31307
195.080778627579 4.67702
198.0668918918 2.26179
203.070162925219 24.0922
203.16646133026 0.556984
207.096716429366 0.718251
213.091540260522 51.3755
213.223467389478 0.786641
213.282488922785 0.607156
215.101495283656 0.563702
219.069250234201 0.776081
220.070706785237 1.58639
221.115307893907 0.814113
233.103289260827 0.555067
238.890631712733 0.667236
238.99828211691 0.735625
241.087573137918 13.3861
293.144796235245 0.565887
311.082755619466 0.540453
327.085144464108 0.629082
339.155364525172 0.58839
349.137889312886 0.659447
363.123429581467 0.543595
364.130947778765 0.53354
366.139077100427 1.17388
367.154912775955 9.13909
377.141513744143 1.57466
380.123551971116 0.657916
394.148033628675 1.97856
395.148406930332 100.0
395.272495523285 9.85869
395.376479011861 1.5815
395.426477830317 0.868226
395.49549111852 0.601006
395.648372194117 0.776125
395.778733454 1.06538
395.902597913936 0.769272
396.020784416168 0.587265
396.145543145756 0.948434

>collision 40.0
41.042204547333 1.37205
43.019474973932 4.76988
43.058104255081 2.54845
45.0365077424081 2.76775
47.0485227845456 0.83866
51.0251067976231 1.73642
53.0378351501632 3.33468
55.0182819475326 3.12549
55.6782521910569 0.839823
57.0382188592535 0.875591
63.9969132730926 1.03888
65.0382501682363 5.0815
66.0458637070919 1.31687
69.0339634993645 1.56795
77.0398442970263 15.0365
78.046479496923 1.75336
79.054911630767 6.73132
80.0653764428666 2.11442
81.0372548571548 1.72809
81.068762897061 2.27604
84.959526599231 7.01504
90.0451922109161 1.69239
91.0549896114344 5.70888
91.348796006793 0.937815
93.0363937128517 2.54609
93.0698160856131 4.73229
94.042157455765 5.26858
95.0194151387462 1.10451
96.0577281745193 1.8107
96.9727403782271 0.746799
102.041674527825 1.06034
103.05364512203 2.97991
105.034042240799 6.55496
105.06722916708 3.2499
106.038960305707 1.44122
107.011236145098 0.998809
107.047705057704 11.3733
107.078515137704 2.46239
108.057228088565 5.73619
109.029191285318 1.54856
109.064757833791 10.3491
112.052576252769 1.07879
115.054371860963 2.28842
116.065933781664 0.721494
116.961703177479 0.897279
117.002087085296 2.20434
117.065531535494 1.37327
118.041446571121 4.48537
119.050071384362 4.45116
119.080514448348 2.38332
119.603929085615 0.712905
120.052292676724 2.58313
121.063800453066 14.3912
122.035372786629 1.86291
122.073926408667 1.18789
123.044723362987 3.27976
123.077590560916 2.16723
124.051315315568 9.97444
125.062598577465 1.09178
127.046940679237 1.74938
128.062490611561 4.06183
129.066981052148 4.37671
130.712624257058 1.05113
131.045482342911 5.88409
131.087139974858 3.33634
131.379047291392 0.796822
133.064340135422 17.2966
133.907268421871 1.14765
134.069402149969 1.1616
135.044323202312 19.424
136.05094341267 10.0461
137.057924545132 19.334
138.054742951696 0.950611
139.074117694428 44.333
139.249243220085 0.872241
140.040494069475 1.129
140.075545320815 0.730773
141.07225764894 2.5168
141.494304213376 0.802402
142.07773358542 5.30594
143.08327990488 1.63105
144.050476997724 1.31606
144.276409942623 1.29824
145.063352942426 2.0917
146.042937979244 1.21795
147.06745455789 25.8451
148.051177925738 10.4468
149.054366942811 9.48987
150.065995270416 4.16878
151.074110022679 49.7329
151.185029897182 0.898831
151.567872380014 1.56638
152.062894531572 4.69557
152.098672545214 1.22218
153.051689590097 2.02446
155.06507795195 3.81236
157.06664438721 5.64473
158.071178764956 2.1403
159.041918681808 6.63344
160.051691460225 5.79277
160.890123492262 0.716698
161.044305307278 26.485
161.161677322328 0.865226
161.416569490576 0.861148
162.063960158816 21.0208
162.213677124795 0.841666
162.492289408411 0.844357
163.042292054089 4.28751
164.046635321434 1.84663
164.084582463213 3.19833
165.089769192173 15.0838
165.148016018986 0.938487
166.077829263313 1.01878
166.542056198991 0.751868
167.068511446372 13.3299
169.063127996404 8.39538
170.072315358745 10.1561
170.447537965107 1.07293
171.077207581972 8.3807
173.055973894381 3.39183
174.064386253471 1.58593
175.041709943617 4.51039
176.045033407801 2.0858
177.053504732667 60.781
177.133862087942 1.37481
177.179498890871 1.03875
178.055751062258 9.26407
179.068404591841 34.7907
179.158888036736 0.96206
181.048430495451 1.96583
183.069578656953 0.769594
185.05619201202 14.6029
185.090875067336 7.27093
187.03939407996 11.4727
188.044976091113 0.94492
189.089688642768 14.0613
190.41774163702 0.802267
191.067430360589 100.0
191.190151597568 1.2699
191.266650575798 1.23048
191.376444529664 0.834023
191.476821482163 0.743249
191.534674642969 1.43302
192.075660713111 94.2202
192.20024777124 1.0377
192.231225353226 0.916501
192.297206669136 1.10745
192.616210320923 1.04714
192.763486753187 1.18401
193.053709952522 17.2656
194.069537983266 0.855475
194.88357318182 1.15996
195.078232913648 48.8779
195.168645228468 0.819623
195.240923806953 0.717337
195.312121327611 0.783845
197.055858887656 4.70085
197.097114603934 1.23778
198.064136533821 47.4001
198.202528930442 0.821256
199.075045684379 3.6266
201.050306477236 2.56977
203.069493779811 44.2721
203.171412763231 0.869356
203.440150941593 0.843032
203.588350064456 0.789784
203.944819818314 0.732511
204.854489094347 0.855677
205.043454457342 1.02457
209.078262139881 0.720587
211.071043660911 1.92992
212.06603017048 2.84068
213.08814625392 84.1905
213.215953663846 1.60729
213.280289582312 1.33667
213.327345030615 0.974823
213.368539200194 1.01989
213.516249856822 0.999126
213.622140363307 0.756134
215.568040009394 0.981716
217.068190966918 0.77967
219.064742645146 3.28844
220.069572700629 1.85539
223.074446272766 1.65954
225.046704841452 0.862527
225.252896063571 0.824628
226.055169724046 3.70756
227.065353362751 1.30842
229.07808543784 0.966
231.055659263362 1.23717
233.052578383851 0.731943
234.057348468134 0.97591
237.047148676474 1.17093
241.078024288397 5.76091
251.067096791331 0.734164
257.069692477887 1.06909
259.066999821563 0.839516
263.076828600254 0.823757
265.07116372505 0.74933
267.101484725349 1.43224
269.107331458116 0.788128
273.081608888118 1.65467
275.091958132265 1.67107
277.077569222644 2.16338
279.092060092552 1.05255
288.06860479954 1.32485
289.101610583046 1.34094
292.117339176429 0.804332
294.086746529487 1.32125
295.088961200439 0.899323
302.08462029294 1.16119
303.100528974233 0.980009
304.071169673876 1.0478
306.084822261711 1.18969
308.085983885782 1.28043
309.090935258077 1.22921
312.10331802094 1.00975
315.092451785807 0.806392
317.096161344582 1.14125
319.092449410644 3.94221
320.090627790178 1.90218
321.109719136625 2.26755
323.077412233628 2.11161
331.093096812665 1.51441
334.075607567675 1.16491
335.1211395701 2.22832
336.098371291974 0.971912
337.101418211033 1.6312
343.093220960105 0.959765
347.08151521979 3.01332
348.084285033342 1.40736
349.099053210295 2.62766
351.124669614817 1.53486
362.104973625469 1.59169
365.108748519609 1.49755
366.13231657265 2.66661
379.092426247834 0.851541
395.148124286536 0.772075

