>compound MECLOFENOXATE
>formula C12H16ClNO3
>parentmass 258.088910586191
>charge 1

>ms1peaks
72.0819313800189 1.58283
213.031100563585 0.69973
258.088495740186 100.0
258.230113453362 5.06964
258.293361585522 2.38452
258.391000497908 0.952496
258.428961580654 1.12133
258.495598276454 0.713735
258.58302740957 0.664386
258.619852128885 0.62481
258.669329060711 0.555249

>collision 10.0
72.0820776474865 32.7858
72.15947501176 1.22771
72.183912970882 0.508985
86.0373367535156 1.2355
131.094869340253 1.96126
141.010867131218 0.952517
178.063072385978 0.578157
213.031972228977 16.2347
258.088910586191 100.0
258.230631629823 4.72412
258.289562101803 2.13708
258.391553413188 0.829625
258.429266739843 0.920813
258.474839438142 0.644875
258.515043072356 0.619565
258.584086815348 0.571624
258.618501941092 0.534638

>collision 20.0
42.0347208495549 0.733732
44.0506555967136 3.00276
45.0584767845576 5.37913
57.058249617625 0.658432
58.066127898502 4.10586
70.0659369761365 2.15999
71.0735169857101 1.28468
72.0812314229126 100.0
72.1591951496036 4.70915
72.1832681927111 1.94796
72.2069668603563 0.806634
72.2420040689798 0.561969
72.2616939990345 0.721248
73.0290624716313 3.84959
86.0366763519839 24.9206
86.1214141204467 0.66566
90.091518768026 1.18033
102.091389943 0.656468
113.01503635222 0.861657
131.093443881757 6.25425
133.028261824723 1.00477
141.009411093569 16.8133
155.024774333385 1.71551
169.003960787445 1.94051
177.053419766598 1.08534
178.06115645708 9.70391
213.029904195639 36.6973
213.162106207868 1.19722
258.086981205013 8.25537

>collision 40.0
42.0116234661835 19.8625
42.0343928664095 13.5207
42.0693155232338 0.747327
43.019512856849 3.97343
43.0421153218138 0.871738
44.0510753170736 35.5901
44.1116505485199 0.798663
45.0587716834158 12.814
51.0244407249095 0.556724
56.0510846724378 5.49375
57.0587959229762 8.29112
58.0666414964069 15.584
70.066470892025 18.1175
71.0742654992738 1.84429
72.0822666157842 90.5994
72.159430565476 2.65288
72.1834369729746 1.13805
73.0294922822449 2.75861
75.024059310492 2.41119
77.0397642304206 16.3
78.047853663062 1.42124
86.0376389773243 100.0
86.121849891303 3.09771
86.148555066048 1.2885
88.0769583044529 1.16892
90.0924768621527 0.620987
91.0553381954218 1.91808
99.000736869517 1.05538
105.034477704998 1.96443
105.067949239617 0.605861
106.041676629071 1.1342
107.049919471966 0.74674
111.000426534662 23.4797
113.015934635437 7.9335
119.049984542197 1.19743
131.049499217588 1.18005
133.061730527393 3.49323
134.037950437196 1.71268
141.010714941701 22.5364
145.028944304487 0.568149

