>compound Baicalein
>formula C15H10O5
>parentmass 271.060933113877
>charge 1

>ms1peaks
271.060207326566 100.0
271.208671269134 1.59814
271.256547405486 0.845308
271.304105244594 0.595584
271.359483248152 0.51001

>collision 10.0
271.060933113877 100.0
271.207937119396 1.5961
271.262943080262 0.772081
271.352682784721 0.509976

>collision 20.0
103.054483203539 0.562888
123.008073167423 2.07346
169.012850550851 0.541592
225.053901011893 0.504771
253.047800891143 1.5884
271.058301087019 100.0
271.207627584257 1.57602
271.257542537473 0.829401

>collision 40.0
39.0250442772171 4.96192
43.0197459851879 0.537678
53.0045705244216 0.57635
55.0199045874752 2.30377
67.0187493255678 0.535439
68.9990628003 6.05937
71.016339325618 0.586272
77.0404138099941 5.99475
83.0148239176249 0.658666
85.0308979479068 0.766496
95.014723952377 29.4839
103.055598632408 21.0136
105.034702077645 7.82318
115.056638868385 3.77843
123.009191508594 100.0
123.110162574749 1.56775
123.146900192756 0.750109
127.057191372143 1.56035
129.036100228666 2.83146
139.055849138397 1.07776
141.07145782026 4.68114
150.046776652156 0.95895
151.002141506815 3.31902
151.054442345663 4.58434
152.066269563567 0.582144
153.035050424947 2.0635
155.048523356728 1.13303
168.008383773172 0.548654
169.013845065607 11.4235
179.050783240564 4.96461
197.061919709604 1.52388
207.04515817014 1.58786
211.040363991449 3.01158
225.054315603111 3.10961
253.04955540551 6.66664
270.05302320924 0.846348
271.060838648123 23.3707

