>compound CYTISINE
>formula C11H14N2O
>parentmass 191.118503163894
>charge 1

>ms1peaks
148.076235107564 0.823275
191.117590400283 100.0
191.243124021592 4.87356
191.28836137883 2.11014
191.346324764004 0.826062
191.37899076181 0.749199
191.412009079897 0.878349
191.460459973799 0.525915

>collision 10.0
44.0516047167235 1.96225
148.077197200896 6.65081
191.118503163894 100.0
191.243193263425 4.87476
191.287846027827 1.99779
191.37974645549 0.775027
191.412296070327 0.907118
191.459196567722 0.557196
191.512655169645 0.503053
191.545650770322 0.50954

>collision 20.0
44.0512606761937 26.9757
44.1124171232066 0.776736
70.0666254932155 0.682622
82.0661774170933 0.90699
120.08149251601 0.537448
133.052610953765 0.849565
134.059963008878 0.791802
146.059779810899 0.704651
148.07548717633 62.642
148.186699629534 2.40286
148.224248393741 0.866738
162.090825395397 1.58448
174.090696603517 0.500778
191.116722370295 100.0
191.243656438983 4.21959
191.283711648757 1.79516
191.348558483534 0.627824
191.379459241858 0.598514
191.411453082539 0.673157

>collision 40.0
39.0249228682482 0.500253
41.0406896913914 1.66402
42.0357980041117 5.17197
44.0516863785241 100.0
44.1125618702018 2.95607
44.1304839768074 1.16084
44.1505406187154 0.520668
51.0254609493757 0.728249
53.0407569560203 4.56936
54.0354499120533 0.695878
55.0198692889738 0.820153
55.0560911900231 2.50753
56.0515695539556 0.985274
65.0403612811117 2.3197
66.0385850298996 0.577944
67.0482788451886 2.28621
68.051518547656 2.24659
70.0670535474552 2.6137
77.0403925591068 8.78824
78.0375874974134 3.3197
79.0559990832877 7.33471
80.0512607676156 13.5734
81.0370987945306 1.31578
82.067071242156 8.26731
89.0407386863918 0.651383
91.0550599780678 8.43443
92.0519384655387 2.48721
93.068037369233 3.87658
94.0671497899437 1.73336
96.04612833763 1.3655
103.055992670167 9.08371
104.051428782855 8.743
105.060551538001 8.53231
106.066764379616 8.11317
108.046720370831 2.83585
109.053685793036 2.4922
110.061396812307 0.693006
115.055488024689 5.18472
116.052975870535 1.97667
117.065201958551 6.30977
118.066725740634 6.34228
119.07500197714 2.00757
120.082314261788 10.0249
122.061791374125 2.11059
127.055730759581 2.6676
128.054580638882 1.36126
130.06662889739 6.33443
131.070624680337 0.929711
132.066181563992 1.58212
133.053640162305 22.5271
134.0618778857 14.0493
142.065863530758 0.853006
143.074216007841 2.2212
144.081273340628 2.00983
146.06124227152 13.2781
147.069061208017 5.83982
148.077007587732 52.9274
148.18636883714 1.09181
160.076614004848 1.36308
162.092437901943 3.82202

