>compound MEPHENTERMINE
>formula C11H17N
>parentmass 164.143550861006
>charge 1

>ms1peaks
32.0500423609552 1.20483
91.0547198101487 1.33712
133.10097886879 1.16164
164.142424152046 100.0
164.258011909529 4.81791
164.29859480695 2.30395
164.356482453416 0.827343
164.3855405241 0.778141
164.414683596316 0.952079
164.449105615488 0.560461
164.508788689301 0.519533

>collision 10.0
32.0502022070987 39.3487
32.1020503992868 0.944513
55.0555368827906 0.864055
65.0399004546269 0.781058
91.055228512318 100.0
91.1424989667187 2.66878
91.1706928512928 1.17097
105.070466257804 5.77522
133.101592655265 81.8986
133.206368324253 2.04008
133.240426041803 0.86448
164.143550861006 67.7224
164.259695590888 1.49272
164.296016579256 0.671452

>collision 20.0
32.0499376144638 4.90022
55.0549542179301 2.19597
65.0389528536823 1.05168
91.053897299664 100.0
91.1415703142526 4.23538
91.1688953202898 1.91837
91.2347813794772 0.539358
105.069400457681 5.52539
133.100114980496 3.01507

>collision 40.0
32.0501260149282 1.39978
39.0241973992553 1.53043
41.040129541282 1.40056
51.0241467375054 0.629863
55.0553452623755 1.79506
63.0240484490033 0.959273
65.039791633918 27.8897
65.1132324901847 0.720068
77.0395679399006 2.92013
79.0549985502456 1.66711
91.054761483505 100.0
91.142577153296 4.05481
91.1694292437023 1.79096
91.2142250904086 0.541608
91.2360661414652 0.537053
91.2576285723657 0.602395
103.054736873292 1.17095
105.070125545147 2.01362

