>compound Niacinamide
>formula C6H6N2O
>parentmass 123.055235841808
>charge 1

>ms1peaks
25.0111558997364 0.548057
42.9872906580179 0.517761
53.0405266701331 0.766388
78.0358759347028 3.49181
80.0499547572163 16.353
80.1638889518592 0.521415
82.4919907117208 1.20779
82.9918541560643 0.622134
83.4922905099914 4.84634
84.4904065926331 1.06646
90.0064410411526 0.631324
90.5073970486462 1.57865
91.0043319991498 2.23201
91.5080204956745 0.664011
96.043479791423 0.544556
104.965876220619 1.06374
106.030483941374 1.5399
122.087229445473 1.97761
122.500159680279 1.69003
123.055791582959 100.0
123.234243018444 0.517571
123.491833774963 0.502661

>collision 10.0
51.025586827697 0.649336
52.0210768592825 2.04796
53.0399126062788 9.65262
68.0485739439075 0.618596
74.9805808896304 0.765891
75.9829592665238 1.73229
78.0340011343276 19.3387
79.0419883965624 2.51588
79.0775767975735 0.611033
80.0499358938803 64.232
81.9918040220449 0.637429
82.4966785367124 1.57953
82.9902299864078 3.87711
83.4938624571004 5.56467
90.0053980829075 1.31974
91.0081874971463 2.25673
91.0561511079552 0.74851
100.991191327197 0.566643
105.044825861298 1.42173
106.031967793249 1.93591
122.058382735976 0.821658
122.23242448028 0.711397
123.055235841808 100.0
123.192221860945 1.85226
123.235331592985 0.92661
123.613663830585 0.50562

>collision 20.0
46.0643022752072 2.23666
51.0236607409992 3.49623
52.023716567416 3.65466
53.0389301512995 29.0267
54.0306571961058 0.922829
57.0343058290904 1.42581
61.0134621504627 1.03935
62.989133407949 3.25606
75.4767398350608 2.23929
75.983841902837 3.49003
78.0345098647576 24.6415
79.0359683218773 4.12951
80.0505095085484 100.0
80.1646393729377 2.23124
81.0490343395145 1.31168
82.9893585311075 7.18178
83.4887672395939 1.04509
83.9908532934756 2.25502
86.9583709007564 1.817
87.9565624510065 1.18863
95.987307939152 1.13512
96.045452050081 3.40914
105.044302505277 0.88463
106.031411547372 1.73795
107.070746188134 0.874789
123.056034953517 37.6202

>collision 40.0
45.0433645196257 6.02321
50.012328934723 12.0825
51.0235248673643 26.8703
52.0302786948972 38.1035
53.0387981952395 100.0
78.0347532000389 66.121
80.0501495628833 98.6961
80.4526849601942 4.56353
107.059814451772 4.02277

