>compound CANDESARTAN CILEXTIL
>formula C33H34N6O6
>parentmass 611.26123903663
>charge 1

>ms1peaks
423.155792148093 48.7801
424.164688669187 0.617621
467.178568613767 0.686685
567.234179488247 8.8923
611.26123903663 100.0
611.479939380306 1.72252
611.590415419117 0.974939
611.704260427432 0.766495
611.77626172415 0.797451
611.975780260917 0.736151
612.182743002251 0.684263

>collision 10.0
175.086314102995 0.585166
189.066445899709 0.557047
263.128493022372 1.52603
338.103516638745 1.40499
349.108123724094 0.659399
367.123526010124 0.766334
395.148966693141 2.52881
423.156503727696 100.0
423.334081631472 1.7876
423.406874657025 0.906767
423.546230792077 0.578219
423.627982281672 0.633321
423.727690715798 0.556567
423.787275984033 0.517016
423.842300337679 0.564514
423.934972527808 0.602067
424.057932745608 0.572385
424.157962505427 0.973353
441.166476912277 0.698606
567.233790230412 1.78183
611.261559669765 7.40005

>collision 20.0
83.0846466901684 1.87567
147.054581946417 2.30168
161.032781311923 0.524771
175.084651350537 3.71675
189.063322871165 2.93291
192.07872906879 1.86239
207.088765020853 3.12545
233.072356361319 2.89532
235.119317344246 3.87252
263.125088216328 5.17587
337.092283064157 0.921588
338.100513006204 11.5216
339.111603901442 0.858211
349.104592775121 7.55689
350.087641294495 2.43265
352.104074944068 2.05914
367.115820344787 7.09742
377.136350325706 1.55306
380.134452354124 2.46076
395.144675102863 15.4538
423.151552370262 100.0
423.331906030709 1.54464
423.396315499768 0.787454
423.467016417815 0.724519
423.620112990512 0.557265
423.750464806032 0.545821
423.82632019157 0.545046
424.15393006045 0.683357

>collision 40.0
44.0509993453028 1.48508
55.0553934519495 14.0474
83.086066012651 20.6928
105.043304203782 0.868233
119.064270293054 0.71367
131.063268761712 1.15155
133.036389236998 0.531226
140.051768378356 0.672914
145.040693589289 1.35844
147.056161465951 31.0176
153.070951794327 0.934015
159.056831806687 1.0257
161.033980065736 17.2529
165.073067504255 2.40829
167.085003143124 1.49031
173.035028720382 5.18342
175.086850559016 5.98015
178.078317209733 9.48225
179.08247457492 1.93259
180.080412810243 6.55344
187.050127249422 9.1408
188.052420366342 0.692831
189.065705496055 29.2044
189.19291520664 0.537224
190.065924482304 6.37477
191.075353526561 2.50535
192.080176978022 28.4304
193.088787830759 3.39948
194.095451280531 7.43343
195.096966871376 0.591698
204.061368019821 0.552083
205.075437667989 3.84265
206.088947136029 5.22303
207.091808477258 92.3539
207.220857330246 1.53772
207.275542959941 0.890197
207.390872789759 0.693209
207.446922075106 0.711475
207.595309598871 0.897933
207.702662779889 0.526307
207.882289687162 0.532869
208.107811711238 3.70909
209.1054887185 1.63389
218.094223778418 3.21036
219.094315617425 1.18024
220.10055249656 4.87672
221.071874424807 2.07834
223.121102270497 1.37384
233.076992238649 19.5416
233.216912068726 0.505521
234.110381107527 4.50013
235.121626957336 51.8075
235.267225139543 1.01717
236.12899553284 0.633472
247.083986799215 1.07849
261.102682009466 1.89993
262.108187911766 1.55364
263.128525599503 7.70722
282.115007249786 0.752242
292.098060837889 0.537821
293.099518866609 0.669292
294.112048968238 0.715512
296.104729054174 0.897022
307.089970112338 0.619065
308.113053804359 3.92635
309.101757399362 12.2822
310.111374981379 8.63401
311.108864430185 1.88407
321.095684962139 1.84376
322.097001784257 7.66319
323.11461178268 2.14752
324.114471104819 4.42891
334.099352246019 0.624414
336.146544077149 0.602861
337.098885031282 14.7228
338.104734986045 59.1843
338.361801602461 0.589969
338.651872119545 0.779185
338.763485714151 0.508216
339.122203369406 6.33839
340.114630608547 1.30261
348.101818370207 3.67747
349.107385049686 100.0
349.324992930422 0.903766
349.399651424658 0.768327
349.514635676882 0.692941
349.635283841171 0.524821
349.760912488136 0.936472
349.920515402612 0.530911
350.09223148943 50.5418
350.311687819999 0.789869
350.411740439808 0.838788
350.510972141364 0.611626
350.733448549383 0.745182
351.117669657948 3.19635
352.106984090191 65.2363
352.271512734832 0.849287
352.337214858467 0.602885
352.449188271162 0.841527
352.590248212883 0.708935
352.729871334689 0.514086
353.116337337904 1.33764
365.111163824596 1.44352
366.115082215124 4.76433
367.120303591752 33.2837
367.304453327551 0.628115
367.671523849553 0.504288
377.140141546984 5.5515
378.122900226285 1.34827
380.139142037193 10.5067
393.136702613427 0.732024
395.149117802729 29.0673
396.142983408147 0.625673
413.159820563657 0.516778
423.156450854157 5.73701

