>compound GATIFLOXACIN
>formula C19H22FN3O4
>parentmass 376.16729201278
>charge 1

>ms1peaks
332.174586401114 0.503223
358.154055508859 2.28929
376.164078750609 100.0
376.337687690804 5.16849
376.408095844641 2.28648
376.528419611308 0.956218
376.576439563274 1.11652
376.650220601467 0.720484
376.763439138022 0.649819
376.805037857375 0.6151
376.849876592596 0.565001
376.903111205081 0.538543

>collision 10.0
261.080706476978 0.810891
274.111648511093 0.55699
289.135312209106 1.05277
332.177828379192 5.38378
358.15787108832 21.3986
358.323550592836 0.646306
376.16729201278 100.0
376.336925276897 4.93885
376.409743986548 2.17855
376.527031036595 0.958423
376.577745715663 1.03811
376.636522676091 0.762148
376.717396105053 0.721396
376.765043867124 0.671055
376.811952178923 0.654045
376.906257597724 0.566561
376.979838173098 0.537859

>collision 20.0
219.06117922706 1.77164
231.089130894714 0.582223
233.085961280417 1.661
234.081720924103 1.0355
235.088721390151 0.842364
245.08261803084 2.09451
247.090515516867 0.890272
248.095248920638 0.864494
259.087746904503 1.47882
260.096094871934 1.85676
261.084101013258 9.59339
274.112442316347 4.87723
275.119562358731 1.53739
276.114866472039 0.842213
286.094996623317 2.38948
289.135514689027 10.7853
297.146489839585 0.554118
312.171615303172 0.67046
315.128558337406 1.83163
317.153370141164 0.643196
330.161968800236 0.569157
332.178422595401 23.2632
332.336335094445 0.539423
338.151325737603 3.3712
358.156823423753 100.0
358.323287735058 4.33063
358.38826212887 1.80554
358.50731883593 0.763095
358.557631958528 0.819848
358.615124160734 0.629871
358.692198374376 0.604227
358.749688751137 0.622856
358.886233818594 0.501179
359.157671045938 0.661788
376.168493477371 49.4478
376.337911412845 1.69484
376.403620342137 0.701811

>collision 40.0
41.0401219119152 1.0307
42.0353651953897 0.730737
44.0509672493205 2.6016
56.050685438298 0.634907
58.0666261936591 0.835676
70.0662067088355 1.63696
82.0662709877125 1.05378
84.0815515862406 1.00976
163.044098471322 1.12509
164.05161316959 0.57536
176.056192679524 0.544387
177.057003769976 0.587143
178.053481260799 1.5421
179.037269532272 2.38839
188.05223109372 1.35102
189.055288765991 0.757265
190.062864834772 1.09722
191.058403583381 1.35798
192.047581592003 3.51975
193.047684372509 2.65765
202.064570201352 2.00452
203.062869425452 1.9222
204.057661019531 2.27267
205.053955326181 2.31679
206.057092780264 1.01979
207.059192437427 1.50519
213.06728950214 0.90282
214.065766240628 0.56105
215.062055460773 1.71782
216.070050954071 1.3409
217.073372808561 2.91672
218.065216323117 2.25533
219.056967231842 14.1365
220.066300146096 5.20712
221.071121903673 1.30401
227.07739172623 0.509402
228.08103130618 0.52341
229.075506466074 1.36233
230.06263866733 2.52141
231.074413405876 3.25931
232.069670311354 3.63337
233.07348397715 5.39011
234.079359111678 0.803767
235.086664624798 1.75474
243.090660980258 1.66092
244.087273409938 1.89358
245.06127516956 15.4347
246.044373379046 9.83761
247.085255085607 2.69373
255.081640792169 0.550592
257.099862599943 0.979028
258.074803811709 0.758044
259.084222658287 5.96436
260.068167066237 2.41051
261.068040209617 100.0
261.212475597207 4.26497
261.260741849762 2.26943
261.334794763704 0.806366
261.370478682106 0.724017
261.409137497507 0.789627
261.492463557187 0.591454
262.112600816654 0.599633
269.108539709392 0.878739
270.117674001637 0.793553
271.051218290434 2.07762
272.102863878489 1.22865
273.072629498606 3.0708
274.104442603285 1.77411
275.112923409516 0.569167
285.075951415596 0.587636
286.094515203731 5.96308
287.112607768429 0.765124
289.132397056603 2.34418
298.113521562774 0.526563
300.107638205346 1.98801
301.091233382379 0.65289
302.092908485889 0.698993
315.133266516578 3.58792
338.14759445083 3.35028
358.154065992474 7.41716

