>compound Lupinine
>formula C10H19NO
>parentmass 170.15398553808
>charge 1

>ms1peaks
170.154444909568 100.0
170.270285240434 5.26802
170.318525429847 2.45986
170.399231871142 0.995111
170.430814031618 1.16761
170.475250983185 0.695812
170.526400146183 0.647002
170.556786710824 0.634468
170.58540442814 0.602164
170.623938653376 0.515369

>collision 10.0
152.143849402641 2.20213
170.15398553808 100.0
170.270358201771 5.49746
170.318737822662 2.53136
170.399213910099 1.05866
170.430098184652 1.2906
170.476241089456 0.721339
170.525625730237 0.673726
170.556834313825 0.674822
170.5861271078 0.631031
170.624215773093 0.542731

>collision 20.0
44.0509045182167 0.582806
55.0554539103347 0.659388
67.0552487844186 0.610207
70.0659883989263 0.540547
81.0703559099187 0.55605
84.0814313923013 1.0828
96.081463366243 1.03548
98.09701192516 1.85217
110.096893595228 0.765409
122.096755612061 0.540836
124.112312806292 3.60146
136.112386800845 0.85066
137.11976139412 1.4824
152.143599443653 14.3447
170.153213842079 100.0
170.270332230618 5.23279
170.316657809151 2.48531
170.399221832779 0.914296
170.430017401509 1.15073
170.476916730635 0.640991
170.525772709246 0.586346
170.555675414922 0.575396
170.589283543299 0.556845

>collision 40.0
28.0189308911903 0.561915
29.039098611071 1.09747
30.0345982852053 1.86925
39.0245086441186 4.28326
41.0401574569389 56.7907
41.0989091134005 1.26364
41.1158031374925 0.537658
42.0353783837657 9.43117
43.0196382449338 2.76621
43.0557943275432 8.20658
44.0510855448332 25.2053
45.0352892834863 0.886395
51.0246730752771 1.28397
53.040206006357 8.71671
54.0359694001506 5.3336
55.019541079206 1.73963
55.0557969080871 78.3487
55.1242356522106 1.75655
55.1440919742692 0.762123
56.0510861841676 34.1341
56.1191767712138 0.663785
57.0352613038452 2.10724
57.0702927609181 2.31497
58.0667101395751 7.42359
65.0400829625841 7.12868
66.0482524090916 0.843917
67.0555978307035 45.5278
67.1291608637807 0.900953
68.0511315154689 11.7671
69.0708876154211 20.6207
70.0666959885166 37.5523
70.1432216383535 0.760244
71.0513754335791 1.3334
77.0400958049291 19.8966
79.0556681421572 33.56
79.1369528514605 0.576001
80.0512326142168 12.8066
81.0702399618633 30.4619
81.1531668124745 0.532865
82.0665881059894 44.7713
82.1491636133993 0.815342
83.0749677676256 9.96446
84.0821424384854 43.9003
84.1652384265239 0.786896
91.0554048395678 13.0638
93.0705784768964 8.70303
94.0668286779428 14.4823
95.0805203299024 6.98353
96.0822377442016 85.7475
96.1707292775536 1.86081
96.2000490791102 0.777051
97.0896725842217 10.941
98.0977654797254 38.0919
98.18810602168 0.759675
105.071134179116 2.15488
107.084264429665 2.43813
108.082234618863 14.3472
109.091747109384 4.66519
110.097644832691 29.4895
110.193607486364 0.508178
111.105196279458 1.51872
119.085786662408 0.547658
120.082374598493 1.53837
121.091564253167 1.03408
122.09774695184 48.2415
122.197959716662 0.937706
123.105396633017 1.591
124.113301710184 74.1426
124.21471071013 1.41014
124.248755931438 0.708417
134.097386066429 2.91705
135.105833778966 0.753049
136.113275625497 100.0
136.218906995598 2.15576
136.251605949053 1.0087
136.284399787753 0.505635
137.121028935805 24.6032
138.128969206053 1.34603
148.112967900481 1.01942
150.128326867408 5.77946
152.144325418131 52.3533
152.256344416848 0.91741
168.140059678602 0.778508
170.15485093204 36.0628
170.273021213272 0.608175

