>compound MIGLITOL
>formula C8H17NO5
>parentmass 208.118499272677
>charge 1

>ms1peaks
146.080641325108 0.513594
190.106903414888 1.01456
208.116636623943 100.0
208.246764295193 4.9803
208.293002811555 2.4235
208.358418569286 0.91139
208.423103573613 1.04099
208.473193779682 0.594016
208.563296505831 0.549003
208.594477335651 0.531067

>collision 10.0
74.0619692417581 1.47765
86.061832037679 0.94292
104.072327555868 0.950161
112.07793807489 0.760618
130.08789010043 0.564595
142.087543160034 1.01344
146.082789015783 7.52212
154.087829238747 0.692452
172.097834586774 2.58615
190.108712326916 14.6763
208.118499272677 100.0
208.246723296943 4.51067
208.296890226257 2.08869
208.356596078973 0.804538
208.390855471228 0.756719
208.424972536953 0.877574
208.473617934259 0.564043
208.530532738633 0.524806
208.56402348354 0.502754

>collision 20.0
41.0402859509235 1.29252
42.036163639986 0.791281
43.0199375140186 1.30179
43.0558054312121 0.732328
44.0515488891757 4.46909
45.0355751219022 3.17661
55.0200531217526 0.732259
55.0563375888569 0.793689
56.0515689764189 6.42959
57.0356837985902 1.96325
58.0670647409943 5.39232
60.0465245804898 0.92644
62.0618050389668 1.44094
67.0556027760671 1.60343
68.0513866804799 1.54543
69.0355795081088 10.9722
70.067260357165 1.86302
71.051088905794 1.15428
72.0463014524768 1.83241
72.0818253057927 0.635236
73.030556750671 1.13681
74.0621501410424 41.4938
74.1408988475364 0.875546
80.0517095435678 2.40721
81.036397628703 0.987329
82.0668039816657 3.9387
83.0510641629117 1.17338
84.0462874500801 0.663909
84.082336208926 2.5129
85.0370795629801 0.693425
86.0619922134628 19.4207
87.047987878334 0.82789
88.0776130845273 11.5178
92.0514900488198 0.600399
93.0593704100108 0.530197
94.0670932894075 5.06242
96.0465257291292 0.77125
96.0820678138485 1.89204
97.053768010006 0.668751
98.061674022656 2.06986
98.0943127543 0.640105
99.0461692131768 2.53799
100.077456118984 5.46459
102.092734000357 1.25652
104.072436649833 10.3296
108.082411574092 3.03429
110.061913160018 3.01089
112.077555293191 16.8985
114.092851222193 1.3649
116.07257204626 4.99106
118.087011440355 1.01373
124.077358446598 6.84305
126.092896029383 8.87319
128.072256664738 5.34368
130.087859874055 11.1035
134.082782935148 2.09117
136.077145705858 2.76829
140.071695757558 1.55991
141.079918692892 1.50796
142.087818935727 19.0481
144.103496871467 2.13003
146.082881280468 100.0
146.192358592478 2.83281
146.227765649883 1.1263
146.310156386331 0.524609
154.087748756589 11.2715
160.098400038608 0.5911
172.098123889534 29.1468
172.216054434525 0.546598
190.108758405846 58.8302
190.232219220388 1.3375
190.27159925155 0.566426
208.119279775646 70.7403
208.249041908446 1.60324
208.292639050831 0.699272

>collision 40.0
28.0190998629696 1.21815
29.0395261278435 1.62158
30.0348360784081 3.1269
31.0185004456297 0.782871
39.02460399721 2.83994
41.0402867757433 34.1275
41.0986710760807 0.604906
42.0355076262814 16.4714
43.019575653656 12.9796
43.0555893637998 8.03713
44.0510357823427 28.6
44.1119902425971 0.523216
45.0352153277543 85.9433
45.0973301169567 1.76303
45.115100668316 0.738408
46.0670429007873 0.501269
53.0402560685875 10.6307
54.0358792608027 2.61086
55.0193626888835 10.3465
55.0556705871998 14.4299
56.0510433031576 100.0
56.1196016114166 2.21053
56.1397058240795 0.877432
57.0352756817309 19.0949
58.0309147295115 0.895716
58.0666577038186 44.2814
58.1370134410642 0.860067
59.045945515102 1.10401
60.0457670897767 6.95081
61.0299252983165 1.49959
62.0616411936327 0.811665
65.0398108382354 8.20808
67.0529158044111 15.9567
68.050797559388 27.0575
69.0350354755152 34.5854
69.1105713863029 0.677198
70.0305626238247 2.40763
70.0664396256869 16.3588
71.01486343071 1.49112
71.050546488637 2.90916
72.0457483817768 9.82614
72.0814825177314 4.82059
73.0298742681367 10.9111
74.0613770546393 67.0285
74.1405194725761 1.15453
74.1626825327699 0.605573
77.0391408722544 2.07931
78.0348888795022 5.01568
79.055739876214 2.71842
80.0505679740068 34.8953
80.1313610239764 0.572746
81.0521984013566 3.80741
82.0661579455569 28.2185
83.049358684419 3.34909
84.04578763315 5.73052
84.0815688481583 5.67367
85.0523365426236 2.76015
86.0609995034469 17.8306
87.0611556692029 1.18356
88.0767187033029 14.1911
91.0559749695636 1.52302
92.0507616749226 4.65326
93.0579752986814 8.02133
94.0659605509772 25.2673
95.0721990229013 0.987506
96.045309842455 14.5774
96.0794355271517 6.07753
97.0538279906443 1.84103
98.0612220941518 8.70903
99.0475974665378 2.07104
100.076412063891 12.8426
102.055359154676 1.02495
102.091567032983 3.76968
103.063120530835 0.953618
104.070705506179 0.691913
106.06644403457 2.2684
107.073802986014 1.48971
108.081441105733 6.56899
109.05332063739 0.894344
110.060627181997 11.5933
112.076197775765 10.6295
114.091786983361 1.46678
116.071057072146 1.14666
118.087049966738 2.61607
122.060506085188 0.85029
124.076100010192 9.85014
126.054620782105 0.773123
126.091557876501 3.48098
128.070998240498 6.87945
130.086631185597 2.14777
136.0750593927 1.14744
140.070926296308 13.171
141.079196364328 0.783786
142.086715722318 2.76732
144.065570952611 0.562491
146.080992131462 11.3617
154.085407910514 1.85315
172.096356115271 1.92164

