>compound TOLTERODINE
>formula C22H31NO
>parentmass 326.248526113014
>charge 1

>ms1peaks
326.248526113014 100.0
326.406567809304 5.20627
326.480719957104 2.32764
326.629937587816 1.15388
326.695359065416 0.802076
326.803511537038 0.737268
326.845928075979 0.685908
326.900668106873 0.627285
326.989671617488 0.5622

>collision 10.0
147.079698204428 0.758198
284.198012470633 1.90776
326.244181341391 100.0
326.405384454536 5.38486
326.476109958098 2.46799
326.583519902284 1.08265
326.627787969849 1.28261
326.69886214617 0.804078
326.80053177585 0.7523
326.851398584952 0.689878
326.973744253869 0.571829
327.01832941353 0.526656
327.246552399637 0.585519

>collision 20.0
60.0826217442548 2.21584
72.0825404162994 7.47227
91.0558245114994 0.948263
102.129401424267 2.34681
117.071163125474 1.53166
119.086765788621 0.987
121.066206475977 6.61868
147.081775946878 10.1756
197.096938018185 5.91087
284.201954422028 21.2978
284.350855815074 0.602934
326.247650316176 100.0
326.405950970726 4.82642
326.474063762909 2.12874
326.583227062187 0.918503
326.629124248786 0.974305
326.704234693288 0.719914
326.80346712913 0.677802
326.846897384083 0.605449
326.929511985883 0.55438
326.97041184859 0.517764

>collision 40.0
30.0348325043335 3.53628
41.0404387845214 2.99083
43.0191062628025 0.564557
43.0559902127245 11.8166
44.0512792532844 0.724254
55.0194492227174 5.95141
58.0668715551411 1.45575
60.0823927010229 8.2952
65.0401432819539 1.25339
69.0351290409167 1.49556
70.0666329851618 0.543649
72.0824687664591 34.144
72.160229639792 0.801409
77.0401569249686 7.05584
79.055490719726 0.988429
86.0978005627608 1.89302
91.0557111991904 55.0111
91.1427275525771 1.38664
91.1698488161023 0.539479
93.071337648487 12.7058
102.128638696813 1.87254
103.055500446709 1.52064
105.070999416806 3.92419
107.050601075457 3.00845
115.055487275803 11.5994
117.071047640372 34.7774
117.168671867382 0.687204
119.086832150419 51.7033
119.186442413151 1.15349
119.218875392061 0.507788
121.066170187339 100.0
121.165846229121 2.88693
121.200333516845 1.15644
128.062628322031 1.03059
129.070893210492 4.98213
131.084822464926 1.40572
132.058213817815 5.00452
133.093220507668 0.882804
135.081823212284 0.739881
141.070985593962 4.48152
145.065421304526 0.689935
147.081459943329 66.5836
147.191314173956 1.78641
147.22517819859 0.67516
152.062255032967 0.701511
153.070707028733 2.19742
154.078462837315 6.13045
155.085788862274 1.36589
162.128918345313 0.532003
163.112572448457 0.597035
165.070603701875 0.8902
167.085757400316 2.05718
169.101743557743 8.0729
178.077945340759 4.93605
179.085980371664 22.232
181.065417456092 4.5804
182.073179562123 32.4171
182.19374247343 0.604845
192.093676235507 0.775508
195.080581946899 2.7369
196.08904728788 0.615825
197.096732511552 69.845
197.223429115641 1.73658
197.263498747281 0.711126
223.111930477189 0.5313
239.143326420242 1.24035
284.200762844184 4.08947

