>compound 6&#38;alpha;-METHYLPREDNISOLONE ACETATE
>formula C24H32O6
>parentmass 417.226561627403
>charge 1

>ms1peaks
101.022346087426 0.841604
135.080667972238 2.18567
161.0949486561 2.11736
165.095074510231 0.557678
237.124313623232 0.592686
251.142254564902 1.61524
253.157450810621 1.14231
279.171479554397 1.65952
293.171325881797 2.31659
297.169603355595 0.727269
299.215071805161 0.629284
303.172524818221 1.97377
311.199063322717 0.801345
321.184330574392 8.65468
338.349901096938 0.715168
339.193193332566 15.0496
339.320418566802 0.53242
340.182909392998 0.704608
353.208870769417 0.57476
357.172153010016 0.807624
363.19158012967 0.900075
381.206269842325 3.97889
399.216240363317 42.5168
399.500907810412 0.719815
399.732432261774 0.698414
399.844082531203 0.665389
400.206947822691 0.708598
400.296393980153 0.511991
416.224968352197 0.685778
416.354597903933 1.05837
417.227367836238 100.0
417.38691656572 1.72353
417.481266307945 0.827956
417.53636284797 0.971237
417.603588079931 1.24114
417.767806330679 0.628637
417.879757930048 0.950243
418.09332554614 0.838206

>collision 10.0
43.0192363864465 3.36182
55.0544126579233 1.03582
79.0254143390352 0.639382
85.0648319480148 0.937319
97.0631054213243 0.691246
101.024944146346 4.00681
105.072723807409 0.514814
107.085381561507 0.894769
109.065680530871 1.5722
111.048797879972 0.893379
119.086267561433 0.705314
121.068701357722 0.834261
133.105908795174 0.53212
135.081400508864 12.5569
147.084283558456 2.12261
149.0992942518 2.12383
159.077860357448 2.09854
161.095941020352 12.334
165.094217490639 2.0785
171.111168141659 0.566956
173.096731898834 1.92392
175.111462577259 3.35045
177.092726031247 1.51304
179.110153898646 0.72439
185.097102579104 5.03461
187.113605470709 5.61191
189.089892467218 2.23083
197.095819190793 1.11379
199.099147543741 0.617221
201.131455459744 0.882676
205.130034428508 0.670781
207.103695496444 1.37765
209.096950308835 0.516764
211.111338370059 3.0402
213.127723216662 3.68563
215.101633674202 0.969932
217.118579032154 0.78543
223.110650851001 0.750845
224.10963729878 0.651827
225.128013592983 2.03003
227.139517646117 1.29062
231.130349519426 2.37654
235.111946480651 0.580266
237.125772528684 3.37969
239.144478671575 2.54087
241.152061795139 1.03138
243.137299960347 0.506247
249.127683664082 3.17804
251.141532312088 9.52458
251.671401276719 0.509662
253.158920987313 15.927
255.170818087329 0.851802
261.130659111229 1.14752
263.145426679031 1.28065
264.147941918982 0.576533
265.160765709044 1.23079
267.134027743034 0.927284
269.148538852869 1.04843
275.181113537868 0.891627
277.15603771535 2.08557
279.165018354139 8.57905
281.181684247569 1.58957
291.167576946147 0.709892
293.173455871674 8.91019
297.176036990259 3.2267
299.191922711397 0.668781
303.174387820829 16.3475
311.19892692572 2.45585
320.177453043548 0.621437
321.183744606692 36.2251
321.307133364529 1.50086
322.187832713391 0.517475
338.343916546214 2.63114
339.195104215618 40.7186
339.343267983567 1.21058
339.632411448391 0.534354
339.939798370992 0.59425
353.210315230178 0.566022
357.192126035211 1.5527
363.19714144221 3.72152
381.206530850303 12.6577
399.217661709452 100.0
399.388460118296 1.7125
399.448858469041 0.769269
399.510351681255 0.730563
399.669201022713 1.07953
399.807309843145 0.9013
399.890078635018 0.592215
400.10642103125 1.28419
400.246557636777 0.764688
400.449005550062 0.558767
400.593694139325 0.550835
400.882628433247 0.731467
416.210816950993 0.540581
416.335069558847 1.31346
417.226561627403 19.6146
417.512105011663 0.500133

>collision 20.0
41.0372640701255 1.39865
43.0191301426634 21.9735
43.0540238564049 1.04123
55.0205786021986 1.3557
57.0332470976517 0.695643
57.0704314403009 1.99217
65.0401528602025 1.15143
69.0705969757422 1.12803
73.027103631583 1.1314
79.0528410256368 1.77246
81.0333053842134 0.739839
85.0654540991306 1.3534
85.1019001201249 0.783368
86.0602621377467 0.646667
87.0459703926437 1.28334
91.0538459027289 1.92368
93.068419145039 0.831184
95.0515999759835 1.54884
95.0855774900817 1.38571
97.0669441956545 4.79819
99.0424234550938 1.43324
101.02309764542 8.97556
101.056562245161 2.44851
103.040060137246 1.0107
103.071263685657 0.802425
105.069338264013 3.98543
107.086776249768 4.21676
109.065523398901 1.41595
109.10274412945 1.41847
111.078076074132 0.683232
113.057575903773 1.22181
115.050147624061 0.88066
117.070354150352 2.15213
119.085871579131 2.24232
120.122582887328 0.797446
121.064295211826 8.48974
121.09833457549 3.78096
123.080952378491 2.39117
123.115880357447 1.22459
125.060647751466 1.51586
125.0917171895 1.03873
126.126694474549 0.978487
129.063660162765 1.6391
131.04881621004 1.04958
131.084288200081 2.57241
133.101135119929 3.72513
135.079831900562 60.4394
135.255563856231 0.79817
135.322990289074 0.617894
135.365928780456 0.81795
137.05374945026 1.12472
137.095411839863 2.12674
139.075039604923 1.15848
141.065973085638 1.95628
143.080996223696 2.63787
145.094301872702 6.00305
146.07062755033 0.663198
147.07906181095 15.9069
149.094037033132 13.445
151.076207765089 1.71669
153.064895674648 0.75726
157.060700132361 0.874227
157.09708767551 1.64448
157.932763524146 0.658236
158.068761862261 0.78224
159.078626737816 8.23337
159.109819061155 3.25732
159.401848392066 0.902151
160.082247370176 0.829836
161.095590015051 83.2891
161.209492390872 2.02103
161.246334587654 0.739242
161.319715865141 0.694107
161.393331209511 1.40448
161.635310655472 0.698147
161.884132511786 0.849755
163.104865918287 2.88536
165.087849700538 9.79621
165.160025715924 0.98816
165.816794210852 0.82868
168.687084718435 0.786214
169.104280418335 1.09887
171.101764876395 3.92584
172.089263921821 1.08706
173.096296760241 9.20661
175.110331804961 9.94345
177.091252342112 4.32154
179.106293395257 1.47797
180.086898996586 1.69439
181.091353894307 4.10542
183.124936192523 0.942247
184.083519484256 0.844254
185.094970769767 48.2446
185.212705796779 0.82458
186.439257241472 0.63834
186.881004029067 0.80091
187.110364928837 34.9063
187.227909276149 1.04585
187.395350051953 0.652807
187.52270510608 0.604845
187.926323391278 0.830731
189.089076055989 9.16358
191.103912608912 1.68415
192.173136630248 0.963046
193.100172340402 5.13898
195.108658477693 3.10047
196.084039039942 1.1817
197.095247753208 1.02006
199.10935602253 13.0044
199.178849745475 0.873761
200.116688295751 1.07219
200.956503977079 0.9218
201.123017795721 1.58959
205.118163791876 2.60156
207.104895064869 3.47903
209.094470995122 5.15108
209.149744988972 0.772968
210.100255615419 1.87951
211.109471623847 29.1698
211.224040588175 0.666827
212.117474245557 2.63557
213.125041508929 18.0569
215.141728159095 1.12275
220.123989883676 1.31676
222.103423540334 1.11303
223.113024410271 6.9306
224.114415378879 2.02195
225.12821108814 8.49588
227.13789206018 5.26743
229.117514229743 1.88031
231.13625495462 13.0487
233.11799054284 1.50301
235.114246258469 9.02586
236.115005623043 5.03519
236.179565789004 0.646542
237.125616573087 26.0352
237.231543199787 0.837218
238.135254676179 3.75135
239.140791405203 13.5769
240.150744577625 0.612711
240.235065386937 0.617096
241.14992190779 3.82722
243.127065763693 1.13671
245.121166401406 1.38847
246.099091480991 2.10908
247.122653189655 4.25441
248.115452505737 0.834803
249.124774128141 6.82613
250.136617616535 0.81563
251.140264201639 41.5752
251.247053162459 0.710689
251.611628976434 0.617096
252.055120436274 0.624301
253.157143885118 100.0
253.284834266095 2.01205
253.347226246304 1.21399
253.542314193866 0.90054
253.642585688691 0.986963
253.693228955281 0.707687
253.817057221214 0.877497
254.024833832329 0.768537
254.152646503306 1.0489
254.553573194575 0.650754
255.174207860379 5.5401
257.110117438107 1.9107
258.149993868046 0.793947
259.107377309606 3.04107
260.11449319592 1.71501
261.128453714122 8.78534
262.135316406957 1.92857
263.140577555006 4.75812
264.148210807196 1.65829
265.155691616657 7.16824
267.137461551049 1.35027
269.149215122776 2.52602
269.197242438558 0.709191
271.111180736519 0.781864
273.126509616558 0.633385
274.138382456364 3.62519
275.13437065341 3.12751
275.176991273825 1.87336
277.155951704805 11.0433
278.161430093378 4.27197
279.162609909702 34.2474
279.327853513654 0.699662
279.44954846604 1.01611
279.607862767848 0.947259
280.176463853505 5.02258
280.82333954714 0.631923
281.187005722172 4.88666
281.295544686602 0.637144
285.14617843546 0.803666
288.150424925092 3.36481
291.164103117347 5.14274
292.132580300609 0.678354
293.183112390632 24.0482
293.306666673692 0.629285
293.34691031943 0.670975
295.175419746872 1.68954
297.163859108575 5.07506
297.235224225994 0.656691
298.349037864801 0.654999
299.193942969573 3.24678
303.081924249057 0.616559
303.172906556126 42.1537
303.308829433513 1.0696
306.15184909249 1.1392
308.176077921723 0.898392
309.184488376115 2.6313
311.190570443175 3.31347
313.263783468614 0.800584
321.18104349384 60.4234
321.338017617454 1.32347
321.387169311716 0.715277
321.476670745252 0.620741
321.639162016654 0.956468
321.961627281647 0.858784
322.342442112425 0.903655
322.554963661702 1.00874
322.733860449579 0.943671
323.551723941027 0.61653
327.184456027641 0.631595
329.176354415455 0.971547
333.191823033424 0.693797
338.338242339572 1.4919
339.190825180711 37.89
339.333628398595 0.743523
357.202840255441 2.35943
363.189570629767 2.06678
368.218831895016 1.25085
371.219569572348 1.4681
381.201052592202 9.74625
399.211825394676 42.092
399.382964316886 0.654999
399.802864488111 0.681625
416.327495388344 2.15347
417.226135174488 1.08628
417.3669428258 0.786697

>collision 40.0
41.0382786774236 1.5787
43.0196876867309 76.8222
43.0782745136096 1.21074
45.0392170712224 1.49715
53.0397163452169 3.60366
55.0188800363609 1.54332
55.0553481718471 8.3061
57.0691326333292 1.27942
57.26643990896 0.961319
61.0301841382437 1.00054
67.0544034110244 5.65365
69.0357151421758 4.14913
69.0650204435851 3.03157
71.0478682774897 2.01021
75.0246348258798 1.23995
77.037336798854 7.16659
79.0564143111286 7.12565
81.0292416415713 1.24176
81.0709799040602 4.26972
82.0727852175747 1.49266
83.0487618427711 2.68829
83.8604265079682 1.20492
85.0634374555864 2.98471
91.0546138505231 24.6302
93.0719749767696 13.7604
95.0476519645779 3.49442
95.0859865263087 11.1143
97.063465430547 5.47318
99.045577563126 2.94029
101.023750456945 4.98511
101.060513394049 0.961803
102.04611169029 0.993172
103.047216986706 1.78427
105.032026028151 1.7828
105.071096226027 32.1398
106.075037591467 1.02575
107.088024793866 27.0652
107.142247839973 0.821967
109.067991310953 5.84372
109.094885997072 1.76899
111.046560113925 6.66106
111.078142703966 1.72277
113.057945621331 1.13095
115.055193021897 7.83051
116.060272412348 3.10472
117.071252498669 13.1913
119.086757156557 14.5118
120.060916297597 1.05433
120.085445147723 1.02911
121.067222182252 56.0822
121.177525617035 0.881885
122.128835662065 1.5871
123.079812947422 5.81764
125.060825290679 3.32794
128.061717320143 6.79859
128.117744417968 1.4922
129.072599569144 2.6867
131.085384221521 10.1598
133.100763098798 19.2634
133.156924298401 1.03793
133.181748213632 0.880036
135.081542516699 100.0
135.218107094323 1.12615
135.447422631245 1.20966
137.067796941187 9.07477
137.13786776573 0.882506
139.075695684247 1.63734
141.065606368501 4.34319
142.075953087345 4.39264
142.121462735623 1.43259
143.08718384139 8.1299
144.088082117597 1.69688
145.088621544277 10.6214
146.074365275485 8.02789
146.107838045272 2.19298
147.080591578264 10.8718
149.097229194087 4.11806
151.077388324473 3.49999
151.113679476715 2.40738
152.059040252157 2.18374
155.3755368933 1.00281
156.099660292082 0.844867
157.100203484522 6.22964
158.072489288291 6.36668
159.08161507277 36.5498
161.096979461177 82.6842
161.369274060854 0.824137
161.414051955721 1.04049
161.468864477413 1.23163
161.635165534578 0.937246
161.697494640104 1.04877
162.099253333683 1.06566
163.076679001747 1.6568
165.089153595385 7.2465
166.077542815 1.6083
167.111342176367 1.00858
168.086546192391 0.848321
169.063859377598 3.27617
169.101838578677 4.44379
171.087516977858 6.58711
172.083930848451 6.32391
173.092980274698 15.0673
174.10009685239 1.39224
174.140423993597 1.08961
175.110589176798 11.4439
177.091983511573 3.61924
178.075270694776 6.00367
179.092899607507 1.71897
180.087956049954 1.41592
181.08813362456 1.88524
183.101648349876 3.54157
184.089666574418 2.66972
185.09749232908 65.1594
185.191715399524 1.55014
185.352297456815 0.858303
186.111192551562 0.885794
186.175068079589 0.989941
187.112361866818 25.7667
187.214211040167 1.02064
189.093173135058 10.3945
189.417389106226 1.20152
189.974284206356 0.821114
190.079473950259 1.57802
191.094924456928 1.95037
191.1432368114 1.18764
192.097515115489 1.06449
193.09940536829 15.9184
194.066026906853 1.86441
194.142512293726 0.848229
195.079790675327 12.7705
196.089170857042 11.0852
197.096813245356 6.59919
197.154691014473 0.965565
198.107431706608 3.93601
199.108623935727 10.7896
200.115223267045 1.09482
201.119164582026 1.41201
202.081276997294 2.19383
203.098344830263 1.03238
205.105621639538 3.62241
206.109715001469 3.89508
207.115022826115 3.54661
208.090701723491 6.65178
209.096758939781 17.6357
209.72303741006 0.944263
210.107501430795 15.2762
210.188307808173 0.960135
210.622180340722 0.989941
211.111718937507 46.3735
211.258161458346 0.900923
211.617888792858 0.874832
211.718982721382 1.08679
212.12364926522 2.24446
213.126550307872 5.90523
215.089028912054 1.18471
217.104997943387 1.85731
218.099293520247 3.26769
219.114339554791 6.80993
220.110503247301 1.86477
220.475758168836 1.27388
221.099144159752 3.07029
222.105108815655 10.7141
222.302516378913 0.909506
223.112081583875 30.5826
223.419059003916 1.76571
224.122214134185 12.0819
225.128231926971 19.1882
226.135513321922 1.29468
227.124627971384 2.08806
230.117726324967 1.35072
231.134937375952 3.78832
232.100330352215 1.04622
233.106785378233 2.62859
234.11140307893 1.46358
235.120025750172 11.5578
236.116468248749 11.305
237.125631047704 20.4901
238.135546440027 10.3804
239.143967424688 1.31298
241.114551332285 1.91938
243.123193746461 2.54132
244.118275332831 0.840725
245.106799532134 3.31617
246.103488544117 6.74038
246.169628204398 0.98436
247.113248119004 3.23785
248.107674591198 1.37113
249.125601304918 7.14953
250.133883757345 2.48867
251.140307822925 15.3706
253.158905563695 29.2798
253.236137643328 1.82214
255.16259818768 1.18713
256.124089588735 0.921573
257.13982932688 1.09445
258.112491492836 1.04423
259.113033070223 5.94799
260.125302999284 3.811
261.127206813866 4.5443
262.11540467968 1.98515
263.160644473099 3.39667
264.144313981737 2.60348
265.158391410439 10.5347
265.247975578337 0.837122
273.133798846043 5.32823
274.13414066324 1.47526
275.137786600792 1.14978
277.152158021175 5.32164
278.120512698618 0.823116
279.147695957298 7.60014
280.173708740461 2.42785
282.122532352138 0.848886
287.145569566382 4.97286
288.146517926429 1.56165
289.148378695259 0.842089
290.156066309944 1.25521
291.136372092716 1.63825
293.192221811581 1.24939
294.829623967045 0.820924
303.173833652229 6.05731
306.155814582783 1.02405
321.179826867643 1.82207
339.187462925982 0.926609
357.184137243002 1.26876

