>compound ANETHOLE
>formula C10H12O
>parentmass 149.09699993997
>charge 1

>ms1peaks
59.0472547278951 0.890659
80.9453879637151 0.873969
88.0074254713915 3.04495
91.0554469855077 0.802528
93.0085575200687 0.927555
108.520611931955 8.50893
116.983330053985 1.15426
121.064399968176 7.62795
124.431802691878 0.75791
129.034037824597 11.8328
134.072721594016 0.775969
149.02255823101 3.24779
149.095362813264 100.0
149.205534995062 1.27284
149.553650633706 1.59568

>collision 10.0
59.0511065946072 1.58371
73.0670661418784 2.09644
88.00768615943 10.467
91.0528803782154 9.23144
93.0703495545495 4.04567
108.522677776259 3.50052
109.066093725471 2.89384
121.065926254213 100.0
121.165617806563 1.4365
121.366395456281 0.792182
131.079699369325 1.02499
134.074435366238 1.44383
149.022480585277 3.95192
149.09699993997 25.5239

>collision 20.0
40.9706483622692 1.54704
41.0396738448477 3.87362
43.0161132449958 1.90748
52.035051310351 2.43468
59.046623298556 1.48868
60.9884853471581 1.23006
65.0384916146414 2.90903
77.0379176240506 6.53516
78.0473836821486 5.55773
79.9921047000464 2.19285
88.0093174781203 18.1605
91.0544538410603 33.4966
93.069559543176 3.51987
103.056286423068 1.16634
108.056881583397 2.32701
109.062423991017 1.09827
115.056110425596 1.71054
117.069206272112 1.75196
121.063789107247 100.0
121.158097512379 1.49558
134.070124655826 3.51526
135.042266705911 5.42641
149.018766360553 2.00234
149.087983984289 1.78525

>collision 40.0
39.0214879991707 13.6449
41.0417958233869 9.01171
51.0230719651462 19.043
52.0312750866855 7.28307
65.0392774981139 61.196
77.0379503482757 76.5856
78.0470718707889 100.0
79.0179739067569 3.17613
89.0399079593527 5.38168
91.0547394086834 54.0137
94.0422518966708 7.89559
106.043026824708 5.43848
115.052502070543 8.25453
119.049674817902 5.43902
135.045400593209 3.02902

