>compound SALSOLINE
>formula C11H15NO2
>parentmass 194.117389847558
>charge 1

>ms1peaks
117.070796421718 0.663463
145.065335736475 1.37576
177.091569586078 3.25792
194.117389847558 100.0
194.243521589052 4.48374
194.288248840637 1.94246
194.346819147777 0.756934
194.379618505981 0.67801
194.413854097892 0.782766
194.45694284826 0.52623

>collision 10.0
91.0544443451783 0.64644
115.053814928253 0.910864
117.069524924644 7.41296
127.05344571053 0.50371
145.06390267105 22.279
151.07428293433 5.49071
162.069478827874 0.560617
165.089215643845 1.96423
177.089703484524 46.8883
177.209964041225 1.30462
177.252092262386 0.577337
194.115267557867 100.0
194.243158007922 3.78257
194.283800404744 1.72241
194.34794410064 0.621813
194.379449586791 0.56985
194.411626964801 0.626382

>collision 20.0
79.0550536679126 0.616983
91.0552668794943 6.64589
95.0505342735316 0.802217
105.070829237688 2.26126
109.065292925874 0.848683
115.054975334316 12.3828
116.062860873356 0.646821
117.070945820411 82.3361
117.168609357305 2.3559
117.201489842613 0.981617
119.050797973593 2.34766
121.066255489118 1.06975
127.054815787492 6.03457
133.064384808057 1.28836
134.094064295347 1.30343
145.065441861984 100.0
145.174855138989 2.95378
145.210557904526 1.27559
145.264882665609 0.506244
146.071875007137 0.717563
149.086799232326 1.63489
150.063697169487 0.903253
151.075790875757 11.4672
162.068581723466 6.80727
165.090957374687 7.73702
177.091296346293 51.4199
177.211429736677 1.17183
177.250686942405 0.513072
194.117692714469 10.3902

>collision 40.0
39.0242347714507 1.79644
41.0398944176504 0.571468
51.0244436370988 0.645108
55.0193724047078 0.841003
65.039720112178 6.59362
77.0397881308671 10.4821
78.0475617737835 1.86721
79.0554646383731 8.68471
89.0395376131537 1.11053
91.0555380470288 84.527
91.1425417841487 2.45752
91.1688941487182 0.897013
94.064306271169 2.60095
95.0503228426532 0.813911
101.03975747 0.505509
102.047470607204 3.40386
103.055169984761 3.7643
104.059100233182 1.19552
105.070686345825 8.32845
107.049760200879 2.02222
115.055345543415 100.0
115.15220375696 2.77582
115.18510405666 1.12961
115.232813190763 0.510018
116.062709843304 7.52843
117.070861879234 43.6107
117.168315849131 0.930502
118.060204908573 0.659748
119.051782051359 3.26688
121.065814520436 1.47342
122.062304833999 3.14328
126.047085864497 0.575572
127.054865100959 8.02643
128.062798903405 0.539221
131.050391345404 1.23638
133.064139364915 3.32229
134.071962288844 1.24766
137.060820396028 0.913468
144.057773318164 0.717373
145.065365841227 3.16003
146.064261128309 0.525552
147.044735961635 2.4768
150.062494354664 1.84103
161.05942199669 0.546333
162.068100933165 3.22758

