>compound Pristimerin
>formula C30H40O4
>parentmass 465.300708671223
>charge 1

>ms1peaks
201.091194562785 45.2915
201.218519840517 0.807203
203.17928988516 1.34299
209.152959762095 0.556736
215.106625335256 7.82289
241.121597261765 1.14514
243.138513733085 1.2484
251.201692515145 0.702877
257.153471072869 5.30603
263.199432707564 1.69006
277.217551511145 1.10328
405.276461580758 1.98793
465.300708671223 100.0
465.487362399051 2.07004
465.560053564932 0.991386
465.701788083422 0.572572
465.768461487203 0.63759
465.997919045867 0.616338
466.298779553758 0.719751

>collision 10.0
95.0851058991504 0.89664
191.177165691488 1.32917
201.088844851091 100.0
201.217735018914 2.02099
201.262437684621 0.915701
203.177037138219 6.10273
209.150928831031 0.966171
215.104016903959 15.9742
217.192308323784 1.01827
227.1038264645 0.82195
241.119038687047 3.07401
243.134902812566 3.12654
251.197620081219 1.216
257.150608070042 9.12948
263.197340568668 2.11599
269.149208559306 0.619646
277.213005891292 1.62272
405.273828768715 2.66857
465.295042100633 17.2982

>collision 20.0
95.086105799469 2.4708
107.086278325491 0.530429
109.101294044063 1.0926
147.116907535438 0.722992
149.13375682088 0.668011
161.133006044134 0.550866
191.179647829335 1.6876
200.082945072666 0.848532
201.090899342704 100.0
201.218410802306 2.08749
201.260085087923 0.979038
201.300876143928 0.589946
202.093339738018 0.530102
203.179024165211 9.04968
215.106264665819 14.6735
217.194488765229 1.09895
227.105160574101 0.72443
241.121635414871 3.34271
243.138072017938 2.56201
257.153305852524 2.55515
405.275953425451 0.606774

>collision 40.0
67.0548050284302 0.560515
81.0702894652033 1.20567
93.069975587526 0.908581
95.0854841561042 5.58487
105.069744544477 1.23199
107.085830353848 1.84884
109.101299993888 2.7297
119.085112493702 0.866047
121.10093719098 1.63529
123.116671221721 0.668
133.100123600829 0.977162
135.115353028486 0.705319
145.100568618613 1.01428
147.115750715578 2.89581
149.130400093693 0.995256
153.068416879392 0.688228
155.084659279365 1.73852
158.072290627907 1.36077
161.131290710967 1.12135
169.098920289206 0.574988
173.094579437894 0.731354
186.066402993438 1.42715
191.177346726284 0.568582
197.094656026751 1.17591
200.081565832578 5.59493
201.089879804294 100.0
201.218192732968 1.93794
201.260095729631 0.899809
203.177824016316 3.65428
215.105071105427 6.33079
223.110390608768 0.870064
241.120948525784 1.0362

