>compound METAXALONE
>formula C12H15NO3
>parentmass 222.110557357628
>charge 1

>ms1peaks
25.0643283659905 0.502837
28.251870666258 0.630742
31.4869976875842 0.51938
33.3403380227805 0.559568
34.1103809763617 0.563195
38.6755384837191 0.529359
39.0276724695634 0.824084
46.9093240608281 0.554108
49.8181979689738 0.549306
56.0502759652593 1.59863
56.6970557396842 0.530164
62.1777543352692 0.591909
72.0797594627213 0.695935
72.7132813150415 0.530338
73.0539921356876 0.518554
87.986750360712 0.592218
97.1192175071782 0.551969
100.038815135094 1.15065
102.006954799184 0.515349
102.997203766352 0.98899
105.003678367048 0.660166
110.454190475532 0.531681
115.199318945535 0.579656
116.142082685086 2.9511
123.080703528366 2.39254
127.065738641592 0.559918
133.099241272523 1.09825
135.080333608962 2.94989
135.94378187906 0.628848
137.002133241995 1.81491
137.370855995372 0.500698
141.054822358178 0.536595
142.991652479201 1.75004
143.049297222758 7.12348
144.002254227076 1.58983
144.052946583514 0.651634
144.079603825182 0.639359
144.498006958953 1.78857
146.080298730704 0.958908
149.094766152239 0.559294
155.140045631106 0.509856
157.353525803607 0.513979
159.076342897079 0.679256
160.501986340819 0.520365
161.095481987176 10.4982
164.007529930377 0.515183
165.718798483738 0.500083
170.899172080507 0.500035
176.006614775614 1.46832
178.125830159699 0.848928
180.026892762188 0.545977
181.009385770837 2.04901
182.528909559717 1.00762
183.012800214353 5.55855
183.497309342647 1.24066
186.328288187179 0.509719
194.88737720367 0.505486
197.714820868923 0.731062
204.102474272982 1.21522
205.973036696987 0.616427
211.015272261786 0.519368
216.782412149022 0.53066
221.003898108839 11.2939
221.060946329532 7.59521
221.119012380868 2.40931
221.198975774139 1.03935
221.464665593395 0.592743
222.005293958488 4.9034
222.110557357628 100.0
222.242124101677 1.94754
222.311718191523 1.0331
222.354558332183 0.840123
222.390233242576 0.999862
222.420227553058 0.594057
222.47923771786 0.841673
222.530405171103 0.60495
222.648297005068 1.21848
222.766941280535 0.888877
222.967741669897 1.02776

>collision 10.0
40.0475006907841 0.64874
51.0257131519426 0.861587
55.0145966042764 2.50083
56.0509000628846 14.604
63.797089703115 0.758192
64.9752112485004 1.11554
73.3784882860091 3.11316
74.025315485361 5.43258
77.0438752645781 0.796591
82.0339756209553 1.45999
97.9936642650079 1.34101
100.039776825687 7.76362
101.005324339083 8.83453
101.037001119629 1.02391
102.046571818456 1.42483
102.996956976404 4.47729
105.000671890299 3.58396
105.067148911509 4.14949
105.480999054874 1.17286
107.088609008895 1.37146
116.14423532219 5.40811
122.07737528315 0.796719
123.080591003568 6.54784
126.962912526764 0.99688
127.967225694268 1.06022
131.086231603014 1.60229
133.098938645174 5.98321
135.081067663552 25.9136
135.166824222392 0.663309
136.513067005446 1.04438
137.002376222107 3.1382
142.990438407844 6.60643
143.0519483203 10.1401
144.011604639752 17.4899
144.050907141925 4.74253
144.122439367108 0.643476
144.485630005401 0.969162
146.020339076521 0.665753
146.072123068602 1.58801
147.810016564535 0.821386
149.098505910874 5.5322
159.076203401264 0.853009
161.096050620788 100.0
161.211668783745 1.32868
161.251270194305 0.943032
161.300450989515 0.838098
161.408676872217 0.65532
161.588038295188 1.11072
161.765853326137 0.661959
161.954016305463 0.631701
182.022322464467 0.891392
187.067724555843 0.681769
201.982851962759 0.866522
204.107718423041 2.84104
205.987260858567 1.39476
221.005206776544 14.7364
221.37052139147 0.704271
222.008518590764 7.31955
222.114574380676 13.0515

>collision 20.0
55.0230807968365 2.89908
56.0507434031074 29.7796
56.0869762024989 1.66692
57.0711870798496 5.36619
61.0093335085365 1.67099
62.9912145570105 3.10343
69.0329127958367 1.56533
74.0239691719976 25.6048
78.9673889089449 3.03824
79.056256178972 7.5621
82.0308524524208 4.61182
90.4846661350986 7.10079
90.9855171324687 6.21758
91.0539703729158 5.45365
93.0665496334608 3.78174
97.9943978798246 1.66384
101.005623095118 4.63575
102.001061103033 1.55148
104.675510772124 5.0401
105.006624247028 9.27365
105.069319420989 62.7722
105.293977504341 2.09739
105.481393583189 12.0343
107.085807593664 5.6831
115.056573641578 4.42873
117.071766348872 8.10465
118.077200535358 5.8056
119.084564151568 30.2448
121.064632689147 3.69532
121.112094946605 1.56053
122.072726704322 1.77774
122.987416373007 2.52819
123.080850324439 22.4362
127.967688143836 4.6205
128.063980595933 4.39982
128.975303189316 1.8525
131.085439233159 12.7708
133.101568580051 55.8202
133.152403011031 4.28357
135.080563437148 37.5343
142.108420758247 1.67769
142.991736762698 31.5598
143.087207634844 12.1951
143.993817483101 7.05968
146.073967581757 27.9551
149.100688382033 11.3465
159.077437616807 2.63236
161.09843126584 100.0
180.968476087491 2.78054
205.983027581932 2.74434
206.077891357563 3.32072
206.970222385241 2.13734
221.01170713789 7.48479
221.998106474789 3.03043

>collision 40.0
39.0232884297975 2.53256
51.0215881539121 2.82961
53.0428558498117 3.14453
56.0479334474139 6.88079
58.9856024810875 13.642
65.0403489960942 5.74195
67.0537993055185 5.6369
77.0378791044761 43.9879
78.0451918438741 2.99258
79.0535732891671 41.7695
80.0600161274174 2.38547
89.0368094818015 4.01297
90.0435699976488 2.7929
91.0554353340133 46.505
93.0682501271634 3.05526
97.470474900042 2.38336
102.044786220327 2.79719
103.053688410027 34.3151
104.064091924856 2.35906
105.069331551542 100.0
106.07442336359 3.70677
115.051592085768 16.4158
116.059344032344 14.3741
117.067265959791 13.8607
118.078875295766 7.48752
119.087802971206 3.93533
120.059350369581 2.33349
121.060781329241 4.83215
124.248180237677 2.33899
126.957478505904 3.80868
127.05249046564 3.98782
127.967545025599 9.85614
128.005997304202 2.02881
128.060453131432 4.55055
128.96281509803 5.0798
131.049363548969 37.063
133.098249489614 6.56527
135.07232415238 2.24844
142.989326130717 2.64762
143.997381665528 4.31645
145.059357972231 6.01833
146.070079646828 9.63516
146.100174889011 3.7163

