>compound Nicotinuric acid
>formula C8H8N2O3
>parentmass 181.060100211579
>charge 1

>ms1peaks
79.0415779733166 0.77844
80.0502820187448 0.721367
101.071250856895 1.20857
101.093362953205 1.0583
102.00614202432 21.7483
102.075145169242 0.605573
102.999336617232 36.5242
103.091425725035 0.72939
107.062474374797 0.571815
117.04269145665 0.851217
135.055556621149 17.3074
180.019378579744 24.8528
181.012892274912 44.8442
181.059470777119 100.0
181.180447825744 2.04379
181.219424447103 1.05246
181.257981808318 0.890272
181.342949427361 0.707776
181.423108284743 0.67402
181.519617024203 0.502919

>collision 10.0
78.0349623433954 0.92394
79.0420267698225 3.25247
80.0488851967548 2.1706
92.0471001062465 0.628361
101.094789177511 2.62449
101.1219655263 1.20027
101.153517272505 0.826439
101.170799857806 0.660443
101.247664831419 0.663778
101.41999253601 0.653082
101.457609253738 0.566927
101.513806861568 0.575764
101.567669891848 0.541585
102.006003057243 59.5846
102.071865946617 1.44854
102.097406024118 1.09054
102.126459145471 0.554574
102.171425786702 0.520902
102.999338702816 100.0
103.091795139074 1.75573
103.135043594211 1.09598
103.272697281145 0.528697
103.566430771865 0.518844
106.036332919076 0.696146
107.060883637799 4.08497
108.043502928225 1.99065
117.043301396066 3.0005
135.054943894893 74.3132
135.160075791238 1.07579
135.193623895417 0.715402
135.284526022187 0.507572
135.370121270127 0.5139
181.060100211579 90.6021
181.180405432994 1.39902
181.218743741547 0.727983
181.251318415792 0.501142

>collision 20.0
63.0239736096097 0.501467
78.0340227045213 4.88948
79.0420414216519 9.16107
80.0497219940386 12.34
92.0481825017127 0.891019
102.006123686014 6.8534
102.999655260516 14.3522
105.04403289592 1.58782
107.06106967732 10.6055
108.044129673814 6.63208
117.044642709361 6.38984
135.055106548687 100.0
135.162820202961 1.97024
135.215242387382 1.05363
135.252824168893 0.659799
135.339220336062 0.539973
135.462419742115 0.552401
135.712731140804 0.560971
135.779171622457 0.559374
137.068443283939 1.38
181.060559268469 9.15213

>collision 40.0
51.0224996476906 1.153
52.0312258367185 9.85375
53.038615621062 12.2698
60.0570989683116 0.934619
65.0377953361077 5.93197
67.0415835611067 0.815307
78.0343016845176 36.4248
78.0979162570053 1.17277
79.0419202473962 100.0
79.1046907897563 2.16787
79.1247585830894 2.33603
79.1461430837138 0.862375
79.3875211468963 0.834557
79.5250668148288 0.915032
79.718913438064 1.27901
80.049581711551 52.1017
80.2924287991523 0.987173
90.0322613586473 2.38648
92.049180217194 4.96537
99.207193379532 0.800094
105.044805422888 4.15417
105.508340280195 0.914146
107.061617207666 14.749
108.045114565092 8.94355
117.044794598545 7.23801
119.021074760391 1.7856
134.045512020037 1.62791
135.056650730447 9.97653

