>compound Formononetin
>formula C16H12O4
>parentmass 269.081313258981
>charge 1

>ms1peaks
269.082110876111 100.0
269.225710774013 1.68276
269.276899198501 0.838691
269.430286636104 0.580818

>collision 10.0
269.081313258981 100.0
269.226044989995 1.84073
269.275189289937 0.748288
269.322364725494 0.605341
269.354101363672 0.587053
269.3959232523 0.575219
269.523384349139 0.585566

>collision 20.0
107.051226847865 1.51403
118.042163047336 1.49191
136.015558980246 1.32819
137.022861481662 0.641529
197.057936490914 0.546964
198.066164478364 0.545623
213.089157847003 5.16937
226.062334881587 1.75756
237.052334411768 4.23575
241.082688868243 0.572356
253.047998278607 2.47649
254.054655447196 7.16513
269.078280125244 100.0
269.224677170136 1.53084
269.273842563784 0.733429

>collision 40.0
43.0189602723769 0.917715
45.0337299573051 1.34934
51.0243555985529 0.717383
52.0316224293221 1.21348
53.0430283259588 0.783383
55.0188448299241 1.18222
63.023195284944 0.858346
68.9981490126979 6.22184
77.0405075744406 6.66854
77.0745758132247 0.560375
78.0503843019615 0.649468
79.055565737264 6.19086
80.0262918334718 0.611938
81.0346351275911 4.29694
89.0405600319665 2.33645
90.0479857022886 14.0654
91.0547357360362 1.44907
93.0333556241354 0.81008
95.0543322345352 1.20246
103.0554107006 3.77702
105.033019458343 3.02758
105.072448296693 2.57637
107.049745229738 5.74777
108.02133486778 8.52297
108.099878282131 0.606918
109.03300729345 1.0125
115.054711512654 1.11792
115.674429388664 0.512055
116.059444676413 0.601215
118.042344288877 42.8755
118.140424886939 0.54725
119.050468472524 0.784807
119.971730686049 0.607819
120.019675024662 1.30822
120.055167793562 0.889984
121.035336110064 0.641252
123.05113744668 0.727519
128.065054112279 3.84461
129.022751325858 0.895393
129.071513092635 4.63904
133.067122875444 7.02639
135.045132410167 1.42665
136.015958324323 6.53894
137.024670329197 17.3724
140.065405837821 0.976678
141.069444477982 11.0329
142.076273911543 1.24728
144.059956619465 2.88274
148.054551609931 0.829529
152.062390008581 13.3314
153.070133739138 7.82011
153.141672756745 0.527428
153.548621776863 0.558533
154.077789767267 0.987276
155.052261426921 2.49658
156.06020040003 9.87405
156.121829647271 0.584596
157.067407208173 5.71503
158.072163055443 3.62004
159.020738505442 0.897209
160.572275102011 0.522041
163.039631182421 0.655887
164.053639687856 0.513053
165.071303908583 2.97549
167.085769466945 0.90884
168.059760910012 3.85232
169.065860436491 20.1709
170.07285312626 20.7361
170.156713920387 0.57241
170.243449417884 0.646363
171.07563640649 2.29257
172.047605664415 1.33589
180.055332357833 2.08421
181.065373261705 26.0609
181.156507415183 0.563035
181.190251008629 0.536858
181.222723085319 0.510835
182.075747988286 7.12593
183.049502650281 1.04163
184.051071998266 4.1003
185.086624986071 0.878434
195.083684587277 2.2756
196.053266869858 5.5878
197.059725436021 100.0
197.18322548105 1.6399
197.226914471563 1.16572
197.266203408078 0.895732
197.30630182153 0.676901
197.43523771159 0.79183
197.542410392308 0.800692
197.781792710589 0.645915
198.067357066096 18.4147
198.147957758248 0.74027
200.045519129578 8.31028
208.056532588006 3.00703
209.059684502642 4.66314
210.069052733179 1.10681
211.062526945547 1.60809
213.089301790533 15.9381
225.054623152313 45.2633
225.177086016266 0.997386
225.486487402717 0.613422
226.062918351708 29.5314
226.174739300348 0.73371
235.264262684909 0.537011
237.056706763776 28.5684
237.137168069484 1.17071
237.203267754899 0.715918
237.389171429858 0.599957
238.059966800756 0.879215
238.436771968566 0.697607
239.059330702406 0.721495
253.049456492753 57.2325
253.198749832704 0.724226
253.285273259872 0.656826
253.371503810724 0.597117
254.057525228794 8.48404
255.531157313955 0.586734
269.082583496716 4.95827

