>compound PROTOVERATRINE A
>formula C41H63NO14
>parentmass 794.431751545523
>charge 1

>ms1peaks
794.432790408588 100.0
794.665351240046 5.3739
794.785328044793 2.27178
795.024869566422 1.32353
795.22463167308 1.05

>collision 10.0
776.421478225595 0.650918
794.431751545523 100.0
794.67496195759 5.3922
794.778966740006 2.32408
794.952488058284 1.31261
795.024627364792 1.29468
795.100043062357 1.04742
795.165861065038 1.0398
795.291920559406 1.02195

>collision 20.0
776.417513214678 2.85605
794.426937918819 100.0
794.66729886651 4.9999
794.784233492334 2.27494
794.950715515894 1.16295
795.023011838899 1.20857
795.124068695627 1.00309
795.29096785413 0.933627

>collision 40.0
154.122942760019 4.24953
454.264616906675 0.58518
514.280111706612 0.780352
536.301653467233 0.62913
554.311411163131 0.980752
556.301549731655 0.582929
572.323688013414 0.644243
596.32324468523 2.10635
600.353644333951 0.773406
614.333632540831 2.58998
632.342330155474 1.14633
638.355704982639 0.931633
656.370499487576 2.47878
658.360127908633 5.66621
674.360720392839 2.05388
676.370278906557 1.54512
692.366047054144 0.972365
698.391279784261 4.45229
716.401754722479 8.00783
734.412321068646 4.70961
740.401936570976 0.543464
758.412519703429 10.3139
776.423248385794 100.0
776.655740955541 4.1434
776.758589557062 1.64754
776.92349098247 1.03872
777.003015909962 0.957107
777.097104187755 0.901675
777.211821827711 0.870889
777.290493934489 0.83204
777.428457135182 1.84377
777.661691543889 0.657942
777.72613050483 0.668237
777.801911416007 0.574018
777.92264234404 0.547602
794.434399173816 83.6609
794.67387671931 3.32605
794.775202796981 1.37764
794.95394868766 0.838017
795.08075327839 0.762168
795.158947673899 0.723693
795.239812584914 0.733062

