>compound HECOGENIN
>formula C27H42O4
>parentmass 431.316126759029
>charge 1

>ms1peaks
299.234089431005 1.13427
317.245686175612 0.595189
395.295277983875 0.967607
413.299608689958 1.87858
431.311716893288 100.0
431.495095455664 1.49012
431.580563997891 0.897492
431.727577733544 0.609316
431.897073133136 0.670256
432.140897970492 0.653079

>collision 10.0
69.0716869543653 0.896687
133.101402166644 0.833947
161.131192518297 1.00537
173.131986229346 0.572259
281.22646543505 2.79664
287.204841194484 0.508109
299.237705157942 10.863
305.211722029774 0.835969
317.247508858968 4.10398
377.282636095408 0.710505
395.293685922834 6.0677
413.307176685743 10.3345
431.316126759029 100.0
431.501683050026 1.55874
431.55410503081 0.895273
431.709880137182 0.806964
431.943447220151 0.890495
432.091149650061 0.817582

>collision 20.0
43.0538755558037 0.63449
55.0547050954644 0.923287
67.054480107514 0.897626
68.8739367256572 0.540992
69.0325332138169 1.50939
69.0701830639626 20.1315
69.1476807238106 0.524139
71.0530328915247 0.63374
73.0646356263206 1.95066
81.0739768498988 2.06372
83.0519094444295 0.938832
83.0865653794984 1.22501
85.0639255643631 1.91728
91.055442617046 1.48957
93.0696420861591 1.32855
95.0860273680456 5.24219
97.0655664560833 7.18178
97.093453631491 2.40157
99.0857691031582 0.665186
105.068547421538 1.64737
107.084669452041 6.26312
109.097548101124 3.11455
113.093159696553 2.30218
115.077250387686 4.63485
119.085272883956 1.8136
121.065372631067 0.77541
121.100903532044 3.56184
123.114751007462 2.88181
125.097272701753 3.59117
127.112880267592 1.07443
131.091433886135 0.855842
133.100578210798 10.9752
135.118426185689 6.00054
137.121171589013 1.11726
139.115567915095 0.504497
145.102552855036 2.86787
147.118534386819 6.7059
149.129686085376 2.23015
151.109051814375 1.1022
153.128196604458 0.550127
155.08860583985 1.07898
157.102613591291 1.85379
159.117205238693 4.63523
161.133626087723 4.71993
163.130861245531 1.85723
165.125223045222 1.46065
171.115564796831 3.3939
173.133158032412 9.09669
175.135938640821 2.15303
177.126025436774 1.79846
179.102742995988 0.749414
179.14742779787 0.549523
183.133001032214 1.40326
185.1344770671 5.54617
187.146691327846 7.93743
189.133915613588 0.930269
191.145757917374 1.57097
193.130897788197 0.528058
195.137348050753 1.92646
197.137665244825 1.83557
199.147076205202 3.89452
201.162341877189 1.58328
203.139016317659 2.43892
205.157394132644 0.863731
209.148876220279 0.749361
211.149149367508 2.23214
213.162739824957 3.76729
215.157317481151 2.49292
217.157000351292 1.04051
219.174930640541 1.35715
225.169104113772 1.22808
227.182524343 1.22096
229.15780246762 0.50462
231.176232358035 3.08679
239.181938872054 1.71026
241.201460123417 2.86604
242.151739315607 0.501584
243.19468329566 1.00202
245.183909245952 1.34715
249.182130209614 1.02855
251.185718201774 1.19651
253.197698765884 1.18658
255.222029030842 1.06137
257.233769033461 0.587951
259.207019414089 3.64106
269.188918169071 2.35301
271.230602147637 1.71643
273.218248695097 0.967705
275.197837613662 0.770382
281.226285086391 22.321
283.199146945405 0.739107
287.201825946509 3.30016
297.222111433585 1.37952
299.237920314409 67.3287
299.389568928769 1.01015
299.434026562829 0.507656
299.562534610341 0.571862
299.752699547857 0.566122
299.848457456214 0.541325
300.248892560275 0.523913
303.203920449636 0.721488
305.211167828821 4.70683
309.273838356291 0.553013
313.211301489783 0.743091
315.228157231428 0.926566
317.247547231001 24.9173
323.234002019156 0.713047
335.235836787766 0.634753
337.255729090345 1.31925
341.244860364523 0.968872
353.268892878391 0.648041
355.268573057681 1.00528
357.244395783177 1.01432
359.266345204981 0.993066
367.2977157257 1.55892
377.282053371915 4.51051
385.309593223427 0.608017
391.702446616941 0.52301
395.295595169471 45.4308
395.462718307834 0.936351
395.989700411863 0.532704
396.126938574474 0.53179
396.314932209082 0.534595
412.28158507782 0.643306
413.305555177521 63.087
413.492796167808 0.910577
413.539749847463 1.02585
413.63973593699 0.562011
413.702311435358 0.751284
413.920379005635 0.628798
414.198326052369 0.615092
431.315254531341 100.0
431.504145950035 1.36937
431.576951549977 0.849764
431.730077906775 0.706488
431.843168617314 1.14165
432.031231084357 1.05982
432.218736257943 0.601161

>collision 40.0
39.0214212099997 0.778017
41.038917288748 15.8601
41.0750580606604 0.697977
43.0183224899609 5.00942
43.0515232213512 1.04326
55.0547187732138 5.08104
55.0793028355048 0.675046
57.0350794931804 5.36807
57.0709128446078 3.31825
57.0996748201992 0.526328
59.0489423861324 0.893625
61.0088966441771 1.01956
65.0368580286666 0.690585
67.0543025531126 10.0256
68.058345574644 0.860793
69.0327384711931 1.54139
69.0701874948573 100.0
69.1462221459718 1.38792
69.169714516471 0.55891
69.2395175330818 0.582235
71.0477210088259 1.11062
73.0648363329557 12.2953
77.0374279130361 1.52276
79.053919431434 8.02782
81.069037167826 10.0695
83.0858200747017 1.49428
85.0596744232282 1.3384
85.8170210738598 0.549741
91.055291427806 7.80538
91.4489623046299 0.780889
93.0317567794518 1.22153
93.0700529886575 11.1021
95.0842850609892 11.6246
97.0314761410587 0.597713
97.0644997448066 7.64494
97.1033681151114 1.22738
99.0797066073952 1.93816
105.069636857601 14.9802
107.043694080619 1.09332
107.084868995228 21.8686
107.18213499138 0.516476
109.064510958403 3.724
109.099375573137 10.5508
111.082179760557 1.724
113.096008958258 0.594133
115.072782692454 1.53417
117.069007698867 3.61848
119.08533074013 8.36728
121.062868432546 3.73569
121.099135067866 11.588
123.07962540826 2.62455
123.114951920705 3.45374
125.096201837176 5.20285
129.066526711192 1.66902
131.085425325675 8.66589
133.100256027486 20.3718
135.113826590258 8.42423
137.056506755305 1.15864
137.090441018744 0.765462
137.129535733389 1.57219
139.109663971813 0.502517
143.084302076875 6.39108
145.10032268056 12.7969
146.101688545577 0.623818
147.11523551506 15.1797
149.12944524267 1.66596
151.114224626917 1.43238
155.084852303782 1.29403
156.090418268788 0.800139
157.099433590597 6.61489
158.104351013892 1.36715
159.114877604706 10.7019
161.128813866261 7.80086
163.108692527891 1.72341
163.149380308088 0.583952
165.124969751446 0.956584
169.096849752207 1.69826
171.114860035267 6.99274
173.129304301439 15.052
175.107475317784 2.69499
175.146334488297 5.50275
177.122364841282 1.68621
179.111721968911 0.503768
180.08536754599 0.612635
181.103766508725 0.750556
183.117942091167 2.19151
185.130934605221 6.47394
186.100433795065 0.728964
187.145088741872 15.3541
189.125236150611 2.95582
191.141248654958 2.47188
193.119921105145 1.12716
195.113545357013 0.698863
197.1291681032 4.29175
197.305254018195 0.583176
199.147607017066 5.6821
200.147791619261 0.565927
201.161319098342 4.70197
203.15230767952 1.25629
205.156058725754 1.38134
209.133731376533 1.58937
211.144198585007 4.57284
213.159757786085 4.53847
214.159215842865 0.614188
215.145035322365 2.70539
216.961735778313 0.742402
219.172375068317 0.974445
223.145832606375 0.633016
225.163507812215 3.2996
227.171216169191 2.55432
229.160455665412 2.37301
231.178584359727 0.715991
235.139260889474 1.37408
237.139507982047 0.698206
239.180627485397 2.11149
241.192864720066 3.22767
252.184855555038 0.564909
253.189472359741 0.528546
255.202615274679 1.82844
263.182193906627 0.521325
266.202419167407 0.574655
269.190778309513 1.99225
279.161872938577 0.506452
279.207407701602 0.828637
281.227798039603 7.34843
283.202724898331 1.09637
285.283934465286 0.584457
287.197781762811 1.00523
297.230316978399 1.21799
299.233794010415 5.83107
305.218323679672 0.741094
307.236427990257 0.710555
311.28366544094 0.800139
317.238744507339 0.81866
321.214351955718 1.43161
323.225987073408 0.536067
335.233592061722 1.13511
339.243859338497 0.899856
355.264513952208 1.27055
365.254362749978 0.579773
376.709055592234 0.729281
380.262965418263 1.1784
395.294291985335 4.87871
413.303854742578 1.24687

