>compound BRUCINE
>formula C23H26N2O4
>parentmass 395.198379328132
>charge 1

>ms1peaks
395.198379328132 100.0
395.370252863038 5.98943
395.451518184814 2.71511
395.565209613633 1.60968
395.615509079063 1.63808
395.673428853311 1.24242
395.717478432026 1.20385
395.759106592327 1.15915
395.806270589946 1.144
395.856186962671 1.06488
395.94873631746 0.93875
396.013265175802 0.889712

>collision 10.0
395.198737510184 100.0
395.371090386771 6.46547
395.455564033741 2.74543
395.615342811693 1.7314
395.684406531382 1.2742
395.758772340892 1.20658
395.805858343789 1.18202
395.849647861612 1.0997
395.988495278901 0.914394
396.07858730956 0.804874

>collision 20.0
244.094606117153 0.885781
282.109895160511 0.697117
324.12069359815 2.69314
350.135744470425 0.792563
367.162490018428 2.39709
395.193826035938 100.0
395.370131216886 5.872
395.463669365655 2.85269
395.613526146697 1.65093
395.684747639992 1.1527
395.803855791585 1.06767
395.847879372267 1.0192
395.890180513388 0.910228
395.984951069198 0.807529
396.035061840677 0.793135
396.07765065646 0.727047
396.195105607489 0.980497

>collision 40.0
55.0186666455629 0.611154
56.0502607843651 2.22492
67.0543499682734 0.60987
68.0499340867663 1.0653
69.0342958129179 0.6023
70.0656910899243 1.50774
79.0544908388449 1.05273
80.0500212258317 1.26424
81.069387658354 1.12681
91.054861219271 0.918024
93.0635018601254 1.80085
94.065452907124 1.47997
95.050120197413 1.11873
96.0809502836969 1.36706
106.06539379573 3.1344
108.080858789579 4.96093
122.060407522916 4.24172
124.075665860189 3.6686
144.080580605453 0.591824
147.06905620763 0.514796
148.075745533501 1.03669
170.060011141289 0.785688
176.070998997358 0.619472
178.085836664545 2.69079
184.075262856975 1.06226
185.08339735242 2.6336
186.064244991945 0.554919
190.086205320779 2.06296
192.06743943983 1.78945
197.083412678589 1.28211
198.056135927694 1.5107
200.071852828889 0.79871
201.079182723286 0.818151
204.100798801795 1.47091
212.071141993007 1.29047
213.078792976582 17.1994
214.05980245108 1.89674
216.101926915424 7.89994
220.092126661026 0.517874
223.09860103854 0.510261
226.086413403497 0.967232
227.093918408107 2.71538
228.097059481287 2.31185
229.074415727139 18.7423
230.093888293273 1.03046
234.091086174615 0.644473
235.098530048089 0.540405
236.082989153856 1.11107
238.08785506372 0.593307
240.09846098858 0.887496
241.091654235205 0.57004
242.089849114452 0.853471
243.089507772756 1.58391
244.097126267106 56.0559
244.237744757753 2.04652
244.283603213931 0.834047
245.103914110499 0.952445
246.10994505526 1.18542
248.088542988233 0.641374
249.10037085056 0.975908
250.091093702962 0.731577
251.09480828571 7.07202
252.073746158471 1.78745
254.117273926411 6.05476
256.097216351904 4.62024
257.103227981166 0.555313
258.110486646058 2.49509
260.095063316642 1.39553
262.090117088757 1.59602
263.095189066693 12.1394
264.099101622367 1.74789
265.08904150636 1.15532
266.110085777055 1.27177
267.090102955933 11.0619
268.10904336937 0.611144
270.112399651578 0.863862
272.095512835302 1.23897
274.103445373251 0.529173
276.103353204183 0.835572
277.109058506512 0.730564
278.117236542355 2.09238
279.100269547693 1.22713
280.099950614124 7.66452
281.107468127423 1.70485
282.11352938954 20.0717
282.262361805376 0.508258
283.110232979124 0.705926
284.108779654731 0.580717
286.102012426332 0.795342
288.103711792827 0.809785
289.110337933949 0.884817
290.115997352373 0.979165
291.124275886543 2.27571
292.114332130238 1.263
293.111456647039 0.770735
294.114872082 6.18436
295.13091782088 0.787325
296.129874082591 1.33694
297.111126347278 0.742716
298.109891308644 1.4576
301.110464265885 2.71147
303.121626704834 0.726165
304.116764950905 0.659944
305.117487134479 0.54737
306.114457598337 4.36888
307.122370383321 2.07421
308.127563451415 2.41792
309.117935753415 1.05984
310.127522469653 0.56313
312.125859183467 0.657654
316.101876883158 0.519927
317.106937225956 1.54269
318.134281677183 0.97754
319.122336880617 2.1528
320.126896738182 1.26626
321.136438934268 5.78009
322.144269741472 9.26716
323.140192405977 1.42963
324.124051405395 53.6601
324.282503092606 2.03724
324.341382344714 0.830562
325.14776392137 0.567638
326.136966343799 1.34571
332.129091163913 4.25733
334.136806994894 1.72528
335.121555141777 1.35406
336.145544785622 1.34645
337.142038489915 0.815843
338.142300412134 1.67474
339.16915478654 0.525719
349.155329966833 3.48872
350.140424755098 16.4765
351.16524935289 1.31554
352.146562075329 4.35375
366.170081764449 1.11007
367.166678146336 27.6801
367.335180242135 0.728242
379.165744519903 3.31894
380.173959192297 2.45278
395.196909113769 100.0
395.372343113515 4.47664
395.439235913035 1.82505
395.564984091504 0.801573
395.617789333894 0.888942
395.677316221167 0.678413
395.798591633848 0.641319
395.890005740002 0.562404
395.98590252938 0.510434

