>compound ISOCORYDINE (+)
>formula C20H23NO4
>parentmass 342.169974639377
>charge 1

>ms1peaks
279.102721188613 1.39077
311.129101907121 2.03923
342.17188623251 100.0
342.33024919378 5.77828
342.411842720995 2.5508
342.560952279384 1.49028
342.616491409673 1.07692
342.656502445142 1.04977
342.737675760115 0.992463
342.778718279539 0.92203
342.831902199046 0.835659
342.908450912189 0.754751
343.00389138133 0.67226

>collision 10.0
247.074985673944 0.552528
248.082957820625 1.8412
251.10645157682 1.14991
264.077709682095 0.830747
267.101408888725 0.794921
279.101164558531 15.5887
279.252525997657 0.608556
280.109320647108 2.78308
296.104312285531 2.52585
311.127082180848 21.6151
311.286697040577 0.89524
342.169974639377 100.0
342.331655213979 5.67781
342.412993473103 2.64093
342.560169594602 1.44813
342.625860235485 0.951534
342.694494341016 0.905038
342.738047362208 0.887914
342.780542882654 0.840512
342.834455645794 0.748808
342.910827189967 0.669034
342.95319571107 0.648115
343.008336331455 0.583691

>collision 20.0
44.0501910008736 0.942103
191.08463219479 0.981133
219.079739492975 1.59735
221.094196577309 0.56073
223.110961353329 0.604131
235.075082177158 0.658845
236.082791155259 6.08789
237.090037709583 0.751224
247.075021054915 5.39128
248.083170205443 19.9484
248.225377130182 0.660051
249.090258238835 1.5488
251.106483295623 12.1515
253.085676237954 0.632225
261.090235905249 0.651498
262.098527603148 0.924711
264.078033279813 12.4678
265.08556205557 5.00495
267.101160208712 4.91525
268.108577645049 0.572086
279.100605298553 100.0
279.251121331736 5.10065
279.311727667253 2.16121
279.415255228445 0.922869
279.456008184622 1.06922
279.522409212039 0.658222
279.616971526066 0.598696
279.698955279362 0.510942
280.109117321147 22.8173
280.258691140975 1.14277
280.314831360729 0.633131
281.081502442422 4.51832
296.103995983948 22.5378
296.257406415551 0.730222
299.126968223586 1.0705
311.126936000813 53.914
311.283709072853 2.30579
311.344438839487 1.0606
342.16946524449 32.1313
342.333257028718 1.15513
342.395282319245 0.524317

>collision 40.0
44.050503958109 6.65075
55.0188465059198 0.796372
58.066109652996 0.528656
152.062427545222 1.04179
153.070347161898 0.74505
165.070245414121 7.67002
166.077899207111 2.35135
167.085453964208 0.652994
176.062130621099 0.777106
177.070444863792 2.02728
178.078386652308 9.22959
179.086128491095 6.45705
180.093304568302 3.26206
181.06818676083 1.82352
182.073269803702 0.694805
189.070449356146 5.83554
190.078431388581 9.97228
191.086316101081 33.3702
191.211525728255 0.757411
192.092695183379 3.43068
193.070978955967 7.72547
194.073432672836 8.11479
195.0813230072 1.56923
196.08693955495 0.541245
201.070365862718 3.26168
202.077951417538 3.61249
203.086216163566 4.53828
204.077888723893 0.65672
205.06659763404 8.168
206.073298062712 12.0796
207.081264207577 18.5861
208.089168774082 17.0438
209.092738919195 4.38779
210.068433492409 1.67201
217.065626925218 2.21231
218.073656949847 9.25425
219.081578426934 29.3306
219.215141501243 0.643836
220.088738696359 9.23544
221.072403848155 11.8166
222.071206284352 6.26706
223.108353677501 4.36482
224.084060004177 4.02371
225.091781048558 2.17081
231.081617526129 11.5159
232.086973164544 0.581404
233.077748953706 4.16796
234.069130536569 5.32643
235.076717104031 36.7816
235.213617214405 0.914553
236.084109994639 100.0
236.222430772786 3.89607
236.27030340329 1.62267
236.373246967877 0.676141
236.409756177628 0.70529
236.460921551738 0.559972
236.517419277511 0.536002
236.556540839313 0.511847
236.651292582212 0.507991
237.091985231252 27.9907
237.228044441912 0.863668
237.275543573649 0.506376
238.064043317317 23.6213
238.202621299673 0.612704
239.100427522468 0.957854
241.087168562935 0.522445
246.068947925427 3.5176
247.076939047421 50.0519
247.217030138881 1.43628
247.26389209321 0.559088
248.084739860986 48.0422
248.225535328295 1.44957
248.271894064061 0.642179
249.075797718067 6.93835
250.098228804973 5.25217
251.107038992128 15.5168
252.080398784301 2.75639
253.087319223487 33.9557
253.227852557268 0.827052
261.092370666034 1.94069
262.098727392706 2.3581
263.071794715261 20.0074
264.079520180635 73.736
264.223633449166 2.56858
264.276374403188 1.07631
264.347932252394 0.525804
265.087008572782 93.4337
265.230950188923 3.56362
265.284152282302 1.65964
265.353357235706 0.789802
265.392776023684 0.724821
265.432040701563 0.788278
265.499401390504 0.617919
265.587970729028 0.556755
265.625591090366 0.543868
265.677900250196 0.508333
266.063111168381 3.1296
267.102889812981 4.01317
268.110079668912 1.20701
269.08354242237 0.793102
277.087598728304 2.71324
278.095575859401 1.94755
279.103213317847 22.8275
280.110821491172 10.2164
281.082824015098 51.4442
281.232296221001 1.39026
281.286558384559 0.640309
295.098195940108 0.79353
296.106142786373 12.4902

