>compound Harmine
>formula C13H12N2O
>parentmass 213.103077136618
>charge 1

>ms1peaks
198.07912285795 0.56067
213.102638486863 100.0
213.231304348283 5.27732
213.289179602411 2.47009
213.377503257359 1.08646
213.411718532316 1.20872
213.471155055391 0.749149
213.584346874312 0.6479
213.626283865723 0.565012
213.659185658499 0.525942

>collision 10.0
170.084495502288 1.26801
198.079708264339 2.98393
213.103077136618 100.0
213.234150737692 5.28715
213.289816119631 2.50005
213.3777751377 1.09433
213.412322347642 1.2314
213.461519201394 0.763898
213.518471822562 0.713731
213.584276739509 0.656786
213.628317028501 0.590479
213.690553598258 0.517871

>collision 20.0
169.074347433236 1.11962
170.082467673342 13.5902
198.076425672367 40.2052
198.205868078939 1.85089
198.246354367635 0.796291
213.099982830591 100.0
213.23173475824 5.24072
213.278643977593 2.5515
213.376142150204 0.907623
213.410134808978 1.1645
213.460277002139 0.657317
213.517163079973 0.610281
213.550718013193 0.588897
213.582954139927 0.557903

>collision 40.0
93.0578557091439 1.47437
115.054661651795 0.819865
118.065182132764 0.868915
128.049653123998 0.648342
142.064958048399 1.09034
143.071059655034 1.36615
144.07876315007 8.98483
155.060684479028 5.32711
168.068317738359 0.583535
169.075923101775 47.8054
169.193173510083 2.02589
169.233244279808 0.8721
170.083737263645 100.0
170.202100023984 5.1412
170.245103258557 2.37159
170.299951363077 0.940536
170.33041386116 0.891101
170.361019248232 1.04724
170.40305894396 0.629847
170.455588745744 0.582182
170.487319012734 0.57402
198.079452491251 10.6956

