>compound CEPHALOTAXINE
>formula C18H21NO4
>parentmass 316.156202236793
>charge 1

>ms1peaks
284.129474214846 0.564938
315.143936986504 0.519457
316.156202236793 100.0
316.312399553917 5.84783
316.38182248929 2.54773
316.487169496451 1.35943
316.531407341514 1.46254
316.592073460332 1.01347
316.659545709033 0.929374
316.701760323062 0.924501
316.74069994506 0.857518
316.830690130922 0.766891
316.870202428874 0.701871
316.9134437249 0.687915
317.014766985973 0.570132

>collision 10.0
229.110473614645 0.804293
284.130220133414 5.07337
298.145631517605 0.575981
315.143311183714 0.572864
316.156627859102 100.0
316.312563783893 5.92663
316.381938607355 2.57983
316.486941713483 1.39557
316.531662403289 1.50045
316.593432279617 1.02687
316.658614586918 0.960523
316.702968354427 0.962449
316.741431771389 0.877559
316.831217346028 0.771841
316.870303324556 0.713175
316.936702016087 0.682906

>collision 20.0
125.059066276145 0.520495
149.058880591849 2.53624
150.090332300189 0.53827
187.073865468547 0.772972
213.089207485644 0.60935
226.106214293173 0.661863
227.093796078777 0.642551
228.100544742169 1.49523
229.108071093202 10.7507
230.116321133673 3.14957
237.089835127131 2.16639
239.07770823283 1.40339
241.086881867734 0.609616
242.114817926422 1.00264
254.115778560087 0.802301
255.101504235766 0.60896
256.1306165469 1.25991
266.116185163807 2.34727
267.105469009258 0.809943
284.12597548526 42.0064
284.278648483769 1.91841
284.331550693845 0.858257
298.142455132429 4.66411
315.140039750439 0.650229
316.152388712783 100.0
316.313356145257 5.43895
316.376372471211 2.51862
316.447914872289 1.12597
316.487924896691 1.05939
316.530795555367 1.2284
316.61589829642 0.737746
316.777411860342 0.571681
316.832151202391 0.535282
316.872245375174 0.509973

>collision 40.0
41.0397567630322 1.01466
42.0348144818882 0.735021
43.0188558405273 0.837334
44.0507297735731 3.64609
45.0347348716498 1.34522
53.0396810501023 0.629688
55.019071502422 2.68295
55.0551358171735 1.05524
56.0506103663881 4.31543
57.0346093745014 0.522932
58.066081852909 0.541579
59.0500257283789 3.50787
60.0454897198157 0.503616
65.0397560137983 0.80191
67.0550922294123 3.49023
68.0503385206022 0.959721
69.0349464970034 0.590566
69.069234779786 0.666709
70.0661965416209 4.65386
71.0501941515406 0.771187
77.0395578965046 2.41538
79.055063782041 4.87944
80.0507476654957 1.14798
81.0692350104482 2.37893
82.065190527735 1.03426
83.0570795748496 0.551939
85.0292378541997 1.37165
87.0449747004974 1.07877
91.055078674272 8.5837
93.0694853376842 1.70077
94.0658865075277 1.16152
95.0505930232409 1.60932
96.0813763317498 5.50814
97.0658677567052 1.52925
103.054830818496 3.73684
105.069983442247 0.879576
106.065611642544 0.70866
107.053653891176 0.989493
108.079676626088 1.97182
109.065578737535 2.40317
110.061003283002 1.07093
111.079051153211 1.31658
115.054768671108 4.74781
117.069327178728 1.64216
118.06523105346 1.90121
119.049824716799 7.72891
120.081257287155 1.13574
121.066074956415 0.73428
123.079982840108 1.28384
124.076249596495 1.33546
125.060287521654 5.56453
126.091793705995 0.955715
127.055284093662 1.14045
128.062440592773 2.2669
129.070216657516 5.01263
130.054221631664 0.602475
131.05023264056 6.02647
132.078910667775 0.535559
133.065846783101 1.22506
135.045216519659 6.44403
136.075390398086 1.73867
138.091596676072 0.922155
139.073534627472 1.79832
141.070316431303 3.50036
142.071504615442 0.821894
143.056453392691 3.15677
144.076734843075 1.38988
145.06470970819 2.0155
146.061188219612 1.1165
147.045574087295 1.5551
148.073722164969 1.54268
149.060648041553 18.2976
150.092073960925 8.74003
151.074575816237 1.41166
152.063374745071 1.96588
153.070840829863 6.63393
154.076177331419 1.83805
155.085528547058 7.40714
156.079455495367 1.2708
157.066043252307 4.54499
158.086657069137 0.628458
159.046889609951 3.92116
160.055155954573 1.71422
161.060182958728 4.0401
163.074436941395 0.673954
165.070424079396 7.01
166.080381431697 3.90413
167.083780197386 3.32474
168.079634562541 1.51047
169.079556266721 2.70356
170.095384417301 4.21404
171.101738385494 7.06703
172.108523290487 7.87339
173.06068390697 6.24793
174.058442859465 3.52142
175.064109131799 1.95951
176.070989150014 3.20017
177.063597046251 0.519855
178.079491739771 1.21863
179.086007966003 3.1888
180.083040492787 1.83128
181.073799482249 7.61254
182.080206542426 1.99528
183.08169450903 6.11179
184.098877319382 1.5449
185.0612134437 10.0711
186.073607253191 4.55893
187.075237549142 14.6999
188.070875489999 1.39303
189.075553825029 2.00739
190.083982854271 2.44904
191.085768639228 4.14413
192.091231388019 0.644395
193.076028970361 1.66603
194.074862366591 2.05906
195.081083426946 2.98893
196.083680918762 1.10395
197.082132029389 2.98324
198.10239695823 5.91167
199.076681590052 5.74676
200.095134294857 8.81555
201.08456415581 3.5493
202.087226184042 6.72537
203.082812200092 0.520997
207.083642605558 1.84862
208.108340459987 4.02493
209.088749320361 6.89423
210.076565426292 2.80873
211.076482774376 6.36724
212.085378812425 3.91203
213.088927380372 5.96166
214.088165727736 39.3332
214.217319092809 1.01698
215.07491653312 2.14524
216.102051809169 1.82737
219.081898274148 1.69511
221.07967583287 0.634892
222.071389307173 1.77249
223.080339589344 4.65068
224.079544934786 3.62792
225.086710155513 4.29066
226.105939504506 11.0697
227.094868203303 7.62736
228.103026779076 33.071
228.237065063088 0.742542
229.110251829452 100.0
229.247326187542 3.39958
229.294389555471 1.55434
229.3977016622 0.655808
229.431536483377 0.662592
229.472690773259 0.554678
229.510696089535 0.536804
230.118333140071 6.72649
236.105981106348 2.47277
237.092085694332 7.15185
238.088536229151 5.12831
239.076470007211 8.27169
240.101381088681 7.85058
241.09373674288 2.39315
242.116449708226 12.8352
243.092421149551 0.627665
249.091661624948 1.00307
250.090144862601 1.17591
251.099369399758 2.95948
252.10058471734 2.50487
253.104545938164 2.27235
254.117939954974 7.89636
255.103468652936 1.88718
256.131252859215 8.47811
258.109859758057 0.501328
264.103193847259 1.6491
266.118829566619 12.0246
267.124792578703 3.13192
268.101260282869 2.45266
269.106836254393 0.811207
270.113605607304 5.06118
282.114119113892 1.90954
283.120095162976 0.771242
284.129930274769 20.3074
294.113708452566 0.547629
296.129384771402 0.619635
298.145035600065 2.11017

