>compound AESCULIN
>formula C15H16O9
>parentmass 341.087970825065
>charge 1

>ms1peaks
179.034671603705 17.6149
219.637495717306 0.659433
262.953638604656 0.61115
300.562878287128 0.501504
340.967404771195 0.571294
341.087970825065 100.0
341.261384392124 1.38359
341.305264823452 0.879599
341.395120433866 0.677309
341.475435688389 0.711817
341.539289162314 0.759538
341.582098615542 0.545872
341.709814648489 0.720156
341.823688647335 0.55562
342.082144150953 0.878318

>collision 10.0
43.0177080889285 0.503047
85.02670711409 0.647639
179.031679134744 100.0
179.155146213679 1.27967
179.188356135621 0.764477
179.233283199298 0.506837
179.327810327815 0.616372
179.39656913681 0.62309
260.951804458109 0.80312
262.941454239062 0.540571
341.083485020551 42.7289
341.253719183617 0.572636

>collision 20.0
61.030240010994 0.550508
69.0361229124164 0.597744
85.0298910279432 0.881007
97.030725501381 0.853016
123.043147153272 2.46412
133.031303280914 1.47319
135.041484715387 0.822862
151.038128890697 0.793859
179.034002429901 100.0
179.15244162008 1.28118
179.193988164974 0.850487
179.259192018701 0.515829
179.344408211498 0.520683
179.421599092268 0.547431
179.615650216139 0.598451
224.068763745099 0.565016

>collision 40.0
41.0381739056274 1.08915
43.0186231532777 1.91605
43.0410440914779 0.732896
51.0243583981598 1.29333
52.0753495044287 0.816032
53.0388027538166 0.990687
55.0142362720407 1.59886
57.0338975219781 0.595612
59.0450054888425 1.10233
61.02864216661 2.27852
67.0555078462193 0.701457
68.9951384378982 0.69304
69.0345130130575 4.98105
73.0252403407899 0.73333
77.0379199321911 3.74234
79.0227903031846 1.39446
81.0319889964026 0.698547
85.0283951026348 4.77366
89.0389093455928 1.87692
97.027725892466 1.96426
105.032059035198 1.50614
108.920778929925 1.36657
109.026041817441 1.04989
117.03261655405 2.29638
122.050564034177 0.54424
123.043300500356 35.0237
123.146889335294 0.654755
125.001297124422 0.674891
133.028445154615 35.9398
133.128522067494 0.505951
135.044623511715 3.73529
135.074820881074 0.595538
151.03845769138 10.9241
179.03368347466 100.0
179.136620595277 1.69369
179.190726619894 0.680615
179.23489075086 0.980532
179.358536254694 0.985619
179.445897244144 0.60579
179.504974082875 0.591761
179.656459078019 0.778974
180.031442842091 0.576602
180.568648644014 0.50806

