>compound CHELIDONINE (+)
>formula C20H19NO5
>parentmass 354.134003662666
>charge 1

>ms1peaks
275.068731295884 0.81343
305.079502901668 0.635211
323.089857783755 0.605589
354.131293746861 100.0
354.299348123197 5.05437
354.367464098804 2.29056
354.484677917811 0.910688
354.530498485815 1.07293
354.603524280518 0.687117
354.668198039066 0.681406
354.712354476796 0.654452
354.754253663728 0.612114
354.804776632885 0.57747

>collision 10.0
135.043989298665 0.539238
247.075549127509 0.830277
275.070907882865 6.53655
295.096380748809 0.892945
305.081583551925 6.93952
323.092045494256 6.81074
336.123349480065 1.15978
354.134003662666 100.0
354.297840005755 5.46334
354.380743200312 2.51221
354.531198791967 1.35093
354.597228057788 0.924228
354.667867966607 0.871432
354.71197577731 0.837081
354.753269077109 0.79724
354.805498125128 0.731408
354.888646604612 0.642587
354.933405671313 0.625014
354.980973163984 0.577609

>collision 20.0
135.044803218769 8.71545
143.049377193662 0.511934
159.044406258283 0.541009
161.060426878651 2.9052
163.039676560088 4.84669
173.060243833686 1.41386
176.071110637232 1.33533
188.071246153725 1.75925
189.070637038787 1.56793
217.065754332201 1.40857
235.076281776046 0.723195
237.092023213397 1.08041
245.060123046948 0.927162
247.076836251376 16.1777
265.087243427908 3.05099
275.071071099072 100.0
275.217028388771 4.5855
275.27646037147 1.9965
275.383172850222 0.826336
275.422449475353 0.896093
275.469059455223 0.626345
275.508579427903 0.58856
275.543742770027 0.583475
275.581593126343 0.553549
275.620243044383 0.518295
276.074839214734 0.626285
293.082471956034 3.4907
295.098256934981 10.7909
305.082274434775 47.0884
305.235672811265 1.76225
305.294887919722 0.742704
307.098350387143 0.768816
323.092815161391 45.7089
323.252093687178 1.79808
323.310769517605 0.707345
336.125173404212 11.3451
354.134866738047 99.3946
354.298895029967 4.71191
354.368270516841 1.9697
354.532276463137 0.96148
354.590086666629 0.678184
354.629693544385 0.664918
354.670764694637 0.633622
354.715133618386 0.618457
354.794935859714 0.562236
354.868746729051 0.534903

>collision 40.0
77.0386509619889 1.06247
79.0543111243149 1.23631
103.054010772597 0.999376
115.053406465324 0.73468
118.064630309581 0.812041
131.048489978491 2.23333
135.043460645794 13.123
143.048228367266 1.53243
146.059282849256 1.07611
148.050921657287 0.512977
149.056321692281 1.06135
159.04328509427 2.3405
160.074202440895 0.581822
161.058751017339 3.78671
163.038340441815 11.2082
173.058632951296 1.23293
175.051794994441 0.657622
176.069080056964 1.9734
177.068858826685 0.685578
178.076635314297 0.75265
179.084439290464 3.08262
187.040922946627 0.789349
188.069331141553 8.12827
189.068667009146 34.7226
189.194707618767 1.35636
189.233487821336 0.549132
190.075939556956 1.13912
191.084290756496 2.19514
201.068232890087 0.634396
205.063521152578 1.79223
207.079226297829 5.15852
217.063994230043 30.7356
217.198613311015 1.1105
218.070706596656 0.770255
219.079091932546 3.10777
222.066329125912 0.618045
233.05872432881 0.507307
235.074102632511 6.57181
237.089704081303 7.66867
245.058393466183 5.0116
246.066085321254 1.68336
247.07346852895 83.8595
247.216748134425 4.22795
247.263931178596 1.67688
247.306712847925 0.824737
247.370499339822 0.633485
247.408480576264 0.773264
248.079394366432 0.56627
249.088689824164 0.759235
263.068938642566 1.61201
265.084653210709 7.04751
275.06824714654 100.0
275.217933891259 4.73855
275.270570008238 2.28949
275.345012029897 0.834647
275.383197515457 0.803179
275.421254745968 0.906703
275.478412920146 0.589087
275.581469421521 0.53508
275.617368019294 0.519926
276.076697232357 0.602833
277.084368954267 0.648862
278.056432697812 0.545649
293.079330545466 1.85876
295.09473029044 2.0596
304.068757797381 0.511683
305.07867974596 1.46331
323.089573198339 0.677909

