>compound BOLDINE
>formula C19H21NO4
>parentmass 328.153794944978
>charge 1

>ms1peaks
265.086435237954 1.63536
297.113050480789 1.98014
328.154997314139 100.0
328.312229116893 5.15799
328.383552616311 2.29197
328.4935538714 1.05501
328.537833410719 1.18431
328.601119937456 0.816361
328.670416256877 0.756368
328.71206079091 0.741041
328.750855297097 0.682701
328.802890662565 0.632072
328.853683429066 0.626079
328.968310668029 0.507615

>collision 10.0
44.0503382554242 0.833829
237.090795866043 1.51491
253.085258212462 0.803255
265.085717553808 21.633
265.232805594209 0.783979
282.088483931833 0.605513
297.111968606072 25.0419
297.267112781463 0.97124
328.153794944978 100.0
328.313271183721 5.18666
328.3821316118 2.39402
328.494600817097 1.04023
328.536960597471 1.15616
328.601546771464 0.76049
328.669165028332 0.720451
328.749822491842 0.670915
328.802532619185 0.584039
328.844443691644 0.56367
328.894061502201 0.543358

>collision 20.0
44.0501896959321 4.48321
177.068530654113 0.751548
205.06376163134 3.43967
222.066689884491 0.88574
233.058714660019 4.66715
237.090561328706 19.1229
237.228036757092 0.576694
250.061443467972 0.628236
253.084889747353 2.76699
254.092575370795 0.538403
265.084276338153 100.0
265.231808607588 4.97873
265.286889132949 2.28129
265.353898434967 0.911243
265.391967913296 0.86472
265.430841504732 0.977952
265.506659577436 0.607358
265.622203237752 0.548343
266.09256221601 3.74958
267.064465275177 0.82854
282.087714879327 6.19031
297.110425576631 49.544
297.266396819119 2.1815
297.322892952744 0.834134
328.153616467193 17.7327

>collision 40.0
44.0505292489232 13.9705
55.018635054495 0.518765
141.070103631047 0.633106
151.054070395784 0.811865
153.07029276682 0.807434
155.085946032638 0.859994
165.070187317039 8.57405
166.07792555991 4.97178
167.085486725169 0.737999
168.057344971713 0.602034
176.062212474141 3.29263
177.070548845802 53.4081
177.191117188442 1.4679
177.229532615156 0.617759
178.077501869145 1.11603
179.08503272387 1.4687
181.088036539337 1.05071
182.073066390009 0.611775
183.080811410885 3.43407
189.070695993877 0.782187
190.077915099259 0.763357
191.085481376544 2.97548
193.065025546572 3.57735
194.07345351633 43.3924
194.1988584311 1.14702
195.080628564231 1.69356
197.06516217904 0.650221
201.05969992189 0.901627
204.057828006318 0.961072
205.065446247919 85.6098
205.193922770281 3.09897
205.238297567186 1.23817
205.369373557641 0.529602
206.072733829026 4.60175
207.08102326041 1.91373
208.08861468773 1.07512
209.096073146533 2.56228
210.068506996369 1.33962
211.075829923844 10.7375
219.080760982385 1.47506
221.059958350344 5.28892
222.068642366032 57.8668
222.201528441415 1.84482
222.246852016374 0.728821
223.075758406773 6.3711
225.091253344216 3.76309
226.099101022311 2.23308
227.071219879665 0.735126
233.060348014445 9.4134
234.068368384444 3.922
235.075786812315 1.01856
236.08368337155 1.56441
237.091448246369 100.0
237.228505450988 3.68876
237.279766854815 1.59729
237.38033801472 0.604737
237.417932697621 0.617614
237.523683604048 0.505431
238.074638592718 0.687456
239.071195992803 25.4569
239.209829515961 0.625056
247.075743220799 0.865546
249.055711413353 0.825389
250.063080282675 8.56901
251.071166021818 9.86653
253.086358282857 2.27564
254.094621668877 13.9826
264.07963020809 0.773579
265.086850200767 18.9937
266.094493079863 5.30964
267.066364598275 21.632
282.089680288984 11.797

