>compound Losartan
>formula C22H23ClN6O
>parentmass 423.16894222534
>charge 1

>ms1peaks
207.088805172811 2.33985
377.148488675589 1.87726
405.154977133858 12.722
423.165818610282 100.0
423.348256712371 2.00275
423.411315151458 0.958054
423.47279667803 0.616784
423.553305114802 0.558808
423.594443394402 0.552224
423.642654523158 0.527036
423.770516545131 0.548274
424.162738023048 0.580453

>collision 10.0
171.067468492744 4.79635
180.07945316947 0.728958
189.078203827334 1.26134
192.079630167103 6.67778
206.09111453072 0.985095
207.090835591795 55.0693
207.218815135429 0.817043
235.097438078467 8.39353
258.100780028472 1.43054
294.079829059744 1.27686
324.14781219316 0.925283
341.176354109803 4.88638
362.142112657704 3.21601
365.151797028368 0.588083
377.151599359492 39.3055
393.156047547165 0.614359
405.158327787572 100.0
405.33323115271 1.75985
405.398970407044 0.835643
405.481561697815 0.608276
405.685367551549 0.602014
405.897185655326 0.524905
406.115842407969 0.507267
423.16894222534 90.6127
423.3446986693 1.5344
423.417091509305 0.844633
423.503551731222 0.646054
423.636589034542 0.666602
423.895184360062 0.575157

>collision 20.0
115.003867270556 0.506674
171.066335636437 11.0615
178.072962680398 1.10848
180.078816496406 3.28994
189.077052394437 1.97255
190.061986070011 1.96081
192.078599907516 13.245
195.08881377551 0.679618
205.073477604538 0.550689
206.083842329875 2.59569
207.089396695413 100.0
207.219283521146 2.01055
207.259263699813 0.89416
207.296767288961 0.562651
208.093342255017 0.504244
235.094901600642 15.1289
241.073141280943 1.23786
258.100387973424 3.95887
282.099176583742 1.26282
294.075831429641 1.64079
324.144287423525 2.31374
341.172579851921 6.87987
362.13819051668 3.59753
365.151381823265 0.706518
377.149120762349 22.9951
380.146743445774 0.8922
405.154716349971 9.99864
423.1661704847 1.52598

>collision 40.0
77.0384924716944 1.66302
79.0528950545162 1.89746
80.0499153099583 2.08317
102.010028070168 0.519143
108.080906199994 0.792538
115.004412005226 0.523563
129.036951589651 1.39447
135.090479569627 0.971485
140.049201328504 1.55181
142.028177864901 4.94078
144.056062472107 0.639761
151.052731404252 1.82028
152.060646971494 3.11141
153.068886684032 6.63799
163.052639839823 1.52171
165.06807617928 4.46594
166.070648130575 1.43044
167.072558652578 2.40708
171.066813142385 12.6872
177.057707087548 1.01545
178.068426042944 10.3568
179.071905787316 7.58474
180.078899966448 41.3796
180.200143148564 0.609233
181.07574798366 0.970959
190.063235266848 17.7756
191.071347262267 4.03514
192.075948873443 29.311
195.090653369454 0.56988
205.074656077315 13.6771
206.081913675368 31.473
206.178455786935 0.638113
206.212438222551 0.580573
207.09014288226 100.0
207.218759549719 1.61831
207.262686438974 0.942239
207.581161750596 0.532863
208.097566608764 0.503555
214.063174046974 1.19129
216.077811620518 0.797345
218.082990128232 0.501107
231.088305073895 0.718511
235.09530946284 0.576112
241.074007195221 5.07625
242.080938227548 0.83698
243.090165293474 0.772916
258.101080253498 2.47422
281.091686902681 1.53188
282.100843553514 0.733194
298.118078963357 0.654843
324.147534535154 0.682042
362.141830610628 0.612373

