>compound ANISOMYCIN
>formula C14H19NO4
>parentmass 266.140062824394
>charge 1

>ms1peaks
121.064371705808 0.873852
206.116736669155 0.972729
266.137725054223 100.0
266.286034570881 5.38227
266.342348491834 2.49502
266.409504274169 1.03617
266.446362911398 0.968013
266.485140818362 1.16755
266.541674262809 0.668054
266.603943742718 0.619798
266.642670681257 0.62254
266.718540291114 0.527109

>collision 10.0
98.0607355434681 1.03344
121.065497825175 10.5017
145.065607475428 0.599765
147.080717612656 0.800541
150.092355305113 0.504736
159.081070885621 1.255
188.107959998241 3.69189
206.119066494616 15.1486
224.129180610473 0.552855
266.140062824394 100.0
266.285823865227 5.09833
266.34271023509 2.15663
266.445783974475 0.909445
266.486244733194 1.04435
266.541306141859 0.679644
266.604624675137 0.626351
266.643053911371 0.629936
266.680008922153 0.590905
266.727387716248 0.543677

>collision 20.0
30.0341106113902 1.65801
43.0189480831332 1.18892
56.0505498672757 1.35075
60.0453001988378 4.37891
70.0662048249729 1.20699
72.0451222543677 0.578857
84.0453625888055 0.574813
91.0550808733225 1.07891
98.0607919796797 4.29484
121.064930323105 100.0
121.165379531139 4.64803
121.1974323855 1.80856
121.226844436526 0.825459
121.272275957149 0.581614
121.299216124032 0.729216
144.058117335946 1.63211
145.065779183465 4.66247
147.080524761063 5.36898
149.094564253988 1.16794
150.091928782275 3.09417
159.0811274059 8.11537
161.096703574622 2.11374
162.091892483158 0.722784
163.083760719288 0.552281
171.081062187913 1.766
173.084329724366 1.19096
177.091762360658 0.884311
188.107994381831 11.4816
189.091856536632 1.39265
206.119095787311 43.1651
206.248688853122 1.33549
206.291793466666 0.575913
224.129427702997 2.92196
266.141012159738 24.789
266.286508847927 0.628094

>collision 40.0
30.0336895101133 0.948176
41.0390088314548 0.539044
42.0344253186656 0.831761
43.0184945253858 3.54564
55.0182591009853 0.575575
56.049781934122 0.760564
60.0445978087489 5.15489
65.0387480477089 0.64496
70.0650755426224 1.24173
77.0386176783854 7.52912
78.0463263611793 2.97427
80.049502831943 0.609012
84.0443707268258 0.899809
91.0541110534231 11.3408
93.0697245203859 0.738683
102.046295624768 0.639402
103.053598263136 0.629413
105.06923316766 0.677304
106.041037787783 0.854312
107.048677654545 0.877031
115.053674032159 1.68365
116.061288514704 0.935895
117.067432479769 0.942222
118.064201042399 0.635423
121.063735124678 100.0
121.165079842249 4.83895
121.196079456131 1.89716
121.247276477775 0.652913
121.272375102818 0.578781
121.298625984314 0.731094
127.053660286862 1.09621
128.061270626997 1.21236
129.069382079636 0.567865
130.057169650899 1.07493
131.069136968632 1.12839
132.051866671694 1.0542
133.063226975929 0.5174
134.060467877129 0.787212
135.077606021107 0.576309
144.057192243588 4.41631
145.065516195797 2.84078
146.070084012763 0.699611
147.074476151453 1.57492
148.074709313173 0.63309
156.078197451239 0.660488
158.059473770608 0.710588
159.079071648809 0.792926
160.075420983689 0.577243
171.077909298018 0.653299
173.082608928853 0.880263

