>compound Rhamnetin
>formula C16H12O7
>parentmass 317.067377273867
>charge 1

>ms1peaks
190.087319187616 1.00327
277.116748974982 0.938415
277.641069453383 0.546809
278.166410253786 0.611188
316.064731234483 0.746278
316.15877954403 0.941459
316.302461900854 2.58316
317.06611633688 100.0
317.308845041158 1.27507
317.410899999057 0.762431
317.545264844553 0.891087
317.681943409286 0.683121
317.937812395082 0.590506

>collision 10.0
60.0438644752927 0.524497
137.002192273575 0.756849
137.99819294823 0.530368
229.103916768274 0.573437
316.20339835579 0.731696
316.307359742196 2.41791
317.067377273867 100.0
317.286422067532 1.34901
317.377119401925 0.658316
317.434020099536 0.541441
317.477149732429 0.706839
317.668733881503 0.572336
317.783926084678 0.501342

>collision 20.0
60.0439527919243 1.79196
167.031233523227 0.631867
179.034668721133 1.43444
243.063963491805 1.97595
271.056861041763 1.16701
274.044609482429 1.52019
288.057694656223 0.509499
299.047607711393 1.04677
302.041587232586 1.24065
316.310754747329 1.33015
317.062976720919 100.0
317.21657734812 1.65212
317.325109973265 0.733071
317.480414661237 0.696931
317.618983981053 0.670693
317.998495703125 0.524866

>collision 40.0
53.0425042193158 2.21048
55.0518154450537 3.01416
56.0516350702834 3.46048
57.0420280816088 2.24146
58.0627574605834 2.15682
60.0466959088798 4.88943
65.0396930654406 3.15625
67.0158825505197 3.33507
67.0592971064509 3.71453
79.016076609174 2.2493
79.0526940657162 2.79399
81.0322702657812 4.83542
81.0684609081962 2.63152
88.0739307448094 2.20482
89.040940141044 4.84199
92.0318716235839 2.41496
93.0316668284368 14.7852
93.0663052189336 3.11165
95.0095612888498 5.54239
95.04784703869 19.3115
95.0848558076657 3.63828
96.021815291457 5.00558
102.088211879186 7.13249
107.049996862138 2.50128
108.01950135383 2.44282
109.025369757948 4.01946
110.039177792684 5.58623
113.986130577549 1.95557
117.065590551147 1.83801
119.041880936158 2.50548
121.027578329501 34.1434
122.034690221682 3.68788
123.044664547867 90.3845
123.107370144619 3.06301
123.577765017347 3.40584
124.017141378302 26.3409
124.051892074475 7.02349
125.02922299897 5.2382
126.045028464058 3.19024
127.057775200529 2.87848
130.958478233412 2.03589
133.033052381152 1.93305
134.037693892171 25.9642
134.083873632209 2.35872
134.980506880731 2.20831
135.042182000055 7.24524
137.023325299837 57.3726
137.334565805072 2.4572
138.039738600302 3.50049
141.064370794999 6.86385
144.060542745407 2.64687
145.034683848727 9.81857
147.045516268601 2.46694
149.023597242803 13.3701
150.032715986055 10.4023
151.036980815106 23.6344
152.006981764158 4.36505
153.01481131739 14.0461
154.044933439821 3.68111
155.051059232125 7.09123
156.060895286836 3.90146
157.059717982556 2.31455
157.81247930875 2.38694
159.079433598961 4.59291
161.013493030138 2.74487
163.043320643235 4.36243
164.040952090991 3.26213
166.011177366015 1.78491
167.033705876918 100.0
167.771435700387 1.74717
169.05713257293 4.01806
171.084128133212 3.50013
172.052841062581 7.16114
173.058442063187 5.95029
176.043632183895 2.81919
177.089155267167 1.91944
179.034031273036 28.7558
180.03905595521 2.71579
182.03604607795 8.5729
183.040129195185 9.77124
184.04856420618 7.80809
185.059108831591 3.70226
187.068465668615 5.97734
189.014211825531 1.77485
191.065046747401 2.80183
193.052974257928 4.53117
197.054410266175 3.2803
199.034604095395 3.60466
200.045311181518 39.2239
200.178139998546 1.94212
201.06671153427 2.76362
203.024208008416 4.34049
204.036467629799 2.26625
205.068192827387 1.81365
207.036022642498 1.98463
209.045353731276 7.20889
210.035030314777 1.94081
213.054915647828 8.82246
214.035856389143 1.94512
215.071533990523 19.7233
217.054557915518 5.92662
218.628452063516 1.86501
219.031625144285 2.62941
228.04217700971 37.9063
229.045608893188 11.9408
229.108572954132 3.37836
231.025214570346 1.99329
232.063974858707 2.89377
233.093236331027 4.31315
235.0176612974 3.35076
237.086882335389 1.81124
238.032431465267 2.73502
239.026264895162 4.47518
242.046238321968 3.91086
243.065691182468 39.858
245.03958150265 11.5462
246.050695547562 2.45807
253.050385907439 4.45419
255.029109704461 3.98253
256.036458004171 13.0348
257.046198823205 17.5369
261.073378142353 7.67798
270.038582375214 3.62231
271.06492107292 14.9234
273.038302687185 23.0259
274.048226266127 98.7354
274.363529788815 2.64788
274.454511704575 1.78455
274.778095461913 1.92066
285.037396322511 9.87986
288.062427017526 9.53161
299.055313226252 6.43742
300.051634742698 3.54367
302.046921518597 23.667
316.181697886686 1.80566
317.064002164736 40.8929

