>compound DIMETHYL 4,4-o-PHENYLENE-BIS (3-THIOPHANATE)
>formula C12H14N4O4S2
>parentmass 343.053645654921
>charge 1

>ms1peaks
151.032598505405 7.54996
226.064924569726 2.99952
235.993002208385 0.592579
268.020455155963 3.44995
311.027214994572 7.07401
343.053645654921 100.0
343.218974078979 1.59042
343.266585249431 0.818013
343.322432231709 0.618959
343.391742619229 0.573811
343.452255347842 0.56141
343.545756658684 0.532066
343.639542679013 0.547023

>collision 10.0
74.0056621623768 0.90418
76.0393687782348 1.10272
85.968776549113 1.08825
109.075161775144 1.02782
117.994166297334 0.716397
135.055076004703 0.686098
149.014765313293 0.728242
151.031058057561 100.0
151.141659984492 1.48066
151.17857976016 0.762815
160.048512483796 2.20368
192.074821609632 6.55892
194.036489719354 3.57415
209.034995014412 0.867683
219.033786540379 1.53893
226.062251909562 15.652
235.993010397119 7.71657
251.057026596201 5.10784
268.01848059688 18.474
277.036008533014 1.86488
278.998704614361 2.20479
311.023994807399 39.4759
311.180805384095 0.527371
343.050468085016 45.6929
343.218091484709 0.641147

>collision 20.0
74.0063003272766 2.94471
76.0405025112254 1.8759
85.9697880557955 2.40795
93.0582927823069 0.954905
109.076050762579 1.69729
117.996035878558 1.71526
134.071025740164 1.06438
135.054563854852 0.956659
149.01654256607 1.12387
151.032651938466 100.0
151.143553599113 1.41556
151.18227747764 0.660666
160.050511280432 4.19107
177.011592875026 0.670178
192.077872724133 3.94197
192.984934222657 0.654037
194.038230801378 2.04076
219.033589794593 2.00397
226.065237989131 0.626753
235.995374685314 3.68818
245.01512321773 0.515815
251.061329003816 1.0952
268.020117655159 1.88335
277.039052436071 0.788795
279.000251647782 0.763426
311.026871386326 1.69089

>collision 40.0
33.034125179517 0.668245
43.029794108964 0.559971
46.9972903043877 1.40941
59.0137797750789 5.01319
65.0404620418982 1.24478
74.0062298325773 11.3572
76.0402642675725 5.01875
85.9700727926975 11.889
92.0500085921409 4.03671
93.0578780542368 16.233
107.061993895931 1.42152
109.07601833727 7.35705
117.993699443473 1.5525
118.05335388681 8.00456
119.061141940471 2.4688
122.00714312261 0.709586
132.055855775238 0.548136
134.072479841286 1.24901
135.015478509348 0.624823
135.055352199016 1.22088
149.016807228974 5.73239
150.02413645474 1.07398
151.032893069275 100.0
151.144755544458 1.63246
151.187700384604 0.787112
151.308097429347 0.51471
160.050371637565 10.9688
175.018091392875 0.552077
177.010992944603 1.37177
192.988189068477 1.18948

