>compound PELLETIERINE
>formula C8H15NO
>parentmass 142.123246671026
>charge 1

>ms1peaks
56.0508874504025 0.640525
84.0818991758324 52.1524
84.1644433047641 0.914633
101.00475083523 1.95878
141.110341220592 0.752982
142.123494469429 100.0
142.230883964929 1.92396
142.265868574254 0.824052
142.30304310491 0.571299

>collision 10.0
56.0506554170166 3.09402
84.0816965603112 100.0
84.1658698870745 2.30413
84.1908630891305 0.897664
142.123246671026 24.5821

>collision 20.0
42.0350502688762 0.994317
43.0186681698037 1.17372
55.0545515328233 1.47459
56.0501522296351 10.7982
67.0542892868557 0.941388
82.0657985035672 0.668504
84.0810582482586 100.0
84.1652769081233 2.17151
84.1903409040034 0.894871
142.123034525166 0.656746

>collision 40.0
28.0183763447778 2.46223
30.0341228819322 1.35074
39.0245270305287 1.02842
41.0399754201601 5.37751
42.0350316907123 12.5026
43.0190426454009 14.3672
43.0392448010289 3.223
44.0514271671801 1.03956
54.0359083581617 0.973415
55.0552276723535 14.4406
56.0505791572535 100.0
56.1195941125511 1.78777
56.1387650883227 0.802744
57.0698888083104 0.711439
65.03889113894 1.75324
67.0551124347429 7.43649
68.0504652846386 2.34747
69.0593332974343 4.19642
82.0651331136589 4.57043
84.0817470801231 75.7297
84.1646903247128 1.3397
84.1914880337207 0.616973

