>compound Arbutin
>formula C12H16O7
>parentmass 295.078711502682
>charge 1

>ms1peaks
158.963886344477 0.508049
294.939696026539 0.84384
295.078590838162 100.0
295.229226686097 1.74302
295.285312604803 0.956204
295.459010437123 0.563928
295.546976987202 0.548946
295.69740568534 0.5062
324.69740568534 1.0e-13

>collision 10.0
158.962216828801 0.856868
295.078711502682 100.0
295.23209738237 1.63003
295.282652927337 0.851327
295.368032890583 0.583984
295.416297410545 0.542914
295.584556223512 0.510804
295.688904771333 0.590427
295.786932644201 0.52914
324.7869326442 1.0e-13

>collision 20.0
43.0186925467906 1.91501
45.0333105606141 2.06497
57.0336717784172 5.30897
61.0278246068937 3.17621
62.5779844334272 1.24045
64.9765092598976 1.49843
69.0326196229242 4.79786
73.028065109322 4.40567
81.0279610621037 0.995595
85.0279435109087 3.46964
90.9785654166197 7.93028
97.027191586443 5.28967
102.969656781697 0.9451
115.03556493668 3.16675
131.051121085754 1.09695
131.082063839923 0.945494
140.115085531246 1.29935
158.960913703376 4.30892
194.983463049194 1.13654
204.995383388703 8.751
218.166949576064 1.0628
295.077509495959 100.0
295.258204677885 1.89053
324.25820467788 1.0e-13

>collision 40.0
31.0156408240353 27.0216
39.0219883732917 30.8243
41.0382397760894 71.6386
42.032883541557 17.9372
43.0181876211466 15.7456
44.050274796608 48.065
45.0348299950915 42.048
56.965793659429 23.4668
57.0332113426734 83.8697
58.0640302153387 27.0541
60.9580040145906 11.9982
61.027871473711 61.9343
67.0527009940146 15.5822
69.0348527954645 100.0
71.0142081023898 14.6815
73.0290941791793 42.4624
85.0718336999218 17.3866
85.9769585755527 12.2236
88.951609069197 13.5248
97.027124668133 33.556
97.059175918956 15.4701
98.0923788094173 15.1862
98.9734172205762 31.7912
102.965229150577 47.4154
114.968538411708 90.55
116.980362612172 24.8403
138.072104056603 15.358
213.146501698681 15.608
245.980720881805 13.4523
274.98072088181 1.0e-13

