>compound SECURININE
>formula C13H15NO2
>parentmass 218.116861449897
>charge 1

>ms1peaks
84.0829593131868 1.14607
217.107236674405 0.606154
218.118871922944 100.0
218.252766231884 4.85321
218.299704416314 2.04828
218.362876072427 0.809505
218.397374148141 0.757917
218.432760702065 0.872125
218.483616741297 0.56347
218.572190751645 0.509931

>collision 10.0
82.066550564535 0.689889
84.0823925405018 7.99706
218.116861449897 100.0
218.251745697919 4.70157
218.296930331552 2.25155
218.363280895319 0.827477
218.396818063318 0.803786
218.431376709328 0.925116
218.504184273887 0.556046

>collision 20.0
55.0566632118407 0.537956
56.0517605527855 4.57314
82.0674249286268 7.53422
83.07515401114 1.23121
84.0827191381658 100.0
84.1671910990636 4.50802
84.1928763730518 1.87504
84.2357161629654 0.6166
84.2558247619099 0.518719
84.278401632007 0.64778
129.072062231031 0.935942
172.113582331316 1.50652
174.129773063613 1.334
190.111531245948 1.03349
200.10856072779 1.06535
218.118895313123 81.5207
218.25253944542 3.1723
218.297816391438 1.30854
218.363844928161 0.523968
218.432669035735 0.523468

>collision 40.0
42.0358300981564 1.1506
55.0561517011855 3.46148
56.0516060168479 29.7868
56.1205781013578 0.802967
67.0558297586533 1.55986
68.0514277865485 1.81718
82.0669337013 3.36292
83.0748810546663 0.847237
84.0822424630901 100.0
84.1671374989597 4.74061
84.1922827886848 2.04167
84.2359427679111 0.587899
84.2565417446285 0.547716
84.2780014530301 0.674886
91.0559411887705 1.08836
117.066293626917 0.654622
129.070732173245 0.678572
130.067095657432 0.787036
144.082094384322 0.733346
162.092756700638 0.733499
172.112466283954 0.582302

