>compound SCOPOLINE
>formula C8H13NO2
>parentmass 156.102083452623
>charge 1

>ms1peaks
110.099075136123 0.744984
138.093683596905 1.43533
156.10403252266 100.0
156.217845232141 4.37049
156.255122407291 2.01403
156.311171191216 0.682765
156.339902237231 0.639994
156.369446357765 0.748816

>collision 10.0
72.046453454207 0.625779
94.0667115637176 0.582729
110.097812295326 4.03358
138.092266208072 7.41644
156.102083452623 100.0
156.216063865864 4.64573
156.253510245682 2.20911
156.311750671884 0.709308
156.339872956979 0.659614

>collision 20.0
41.0411681607592 0.53574
42.0364098602074 1.67088
44.0520338450481 2.24055
67.0568316145375 2.7292
68.0522879523742 1.27678
70.0678772429463 2.5576
72.0471360931721 4.49271
77.0411993000182 0.569404
79.0569385038034 1.59057
81.0631537948295 2.40822
82.0677905741145 1.84304
93.0696456739044 0.503603
94.0676917212508 4.41913
95.0753773567625 1.51509
97.0559432220818 3.28794
108.083420231198 1.99763
109.091605502543 0.531224
110.099092500143 26.9873
110.194269656815 0.661333
120.083332262352 1.19508
138.093917292365 33.7302
138.200983048373 0.823248
156.103904773686 100.0
156.216495123282 3.7017
156.254450376117 1.6306
156.311304719452 0.608073
156.33915940826 0.566359
156.369235589698 0.577014

>collision 40.0
29.0402624304856 0.701401
30.0354771792355 1.84567
32.0512979253239 0.597867
39.0255468217138 5.78592
41.041115334538 44.0172
41.0999761603159 0.804438
42.0367229874513 61.8325
42.0960165652325 1.25051
42.1127652540979 0.576177
43.0205253410613 2.28184
43.055274166977 5.27698
44.0521673810716 85.2146
44.112228350257 1.69433
44.1308829181633 0.662657
51.025560759002 4.6322
52.0326286676785 0.667215
53.0414099211171 18.0254
54.0385372993147 4.28639
55.0203791926689 2.87117
55.0564229198361 18.1443
56.0524069086908 12.8381
57.036265555107 6.86746
57.0570969168271 2.83381
58.0317117878434 3.39997
58.0676768082442 2.66061
59.0396084785785 1.47159
64.0007253528866 1.13791
65.0413138762119 16.1565
66.0489905623675 3.09791
67.0564672067305 72.6049
67.1316070054375 1.31315
67.1569614823432 0.578737
68.0522385452624 82.2812
68.1269960841834 1.57695
68.1502486080395 0.712172
69.0463620025754 10.2945
70.0318809710133 1.12687
70.0678531499703 26.2928
71.0563703570499 0.522247
72.0471148903694 39.0218
72.1248904996975 0.676206
73.0549581732341 2.02465
74.0624960746722 1.0934
77.0412409225254 38.2085
77.1219434648172 0.616968
78.0390689744602 3.86361
79.056722266964 37.4114
79.1382840134958 0.625304
80.052341353959 29.2352
80.1346119646463 0.521194
81.0606250829519 40.4238
81.1414013656182 1.03586
82.0316382141867 19.5394
82.0676486175943 35.1389
82.1510601757325 0.744844
83.0523603542083 2.57614
84.0475260966684 1.68084
84.082933355292 1.1007
91.05707622173 5.48429
92.0521848582188 2.97735
93.0623659018311 14.3741
94.0678127684088 100.0
94.156762733158 1.7524
94.1827209884038 0.774894
95.075590267916 31.2493
95.1639461849317 0.570733
96.047758456448 2.2046
96.0823017983165 4.03313
97.055206878204 66.5211
97.1449051626006 1.22864
97.1717928042604 0.548397
98.0628761371475 0.531093
104.052241686609 0.683147
105.059369927968 0.958541
106.067782702137 2.69863
107.07481446766 4.52147
108.083544737935 42.8045
108.17755801229 0.686467
109.091671512074 4.56819
110.099200072245 80.641
110.19436095251 1.48966
110.222713658227 0.739243
118.067079155832 0.576379
120.083019407376 5.9766
122.061644865402 1.79517
123.071251937742 0.854292
136.076132349122 0.565543
138.093659852707 21.6654
156.104061094906 14.5796

