>compound L-Thyroxine
>formula C15H11I4NO4
>parentmass 777.693727472929
>charge 1

>ms1peaks
731.688275633611 1.24841
777.693933302186 100.0
777.935686840702 1.77117
778.035930818594 0.963879
778.16628811491 0.715069
778.292436354758 0.629576
778.479321033895 0.574598
778.684928260543 0.70589

>collision 10.0
633.76197993197 1.02577
731.687252170851 11.5078
760.666332009695 1.04487
777.693727472929 100.0
777.935275639998 2.14668
778.025683841528 1.07519
778.147963371385 0.719846
778.293321173943 0.588355
778.462764093931 0.543324
778.59064042671 0.540706
778.686223786995 0.607865

>collision 20.0
379.955047672558 0.658217
604.783878622071 0.851538
633.761939529104 10.9248
718.655188397767 1.73646
731.688169551835 100.0
731.924410160812 2.0892
732.008998001957 1.06449
732.088928848296 0.7469
732.190156195792 0.635858
732.324308554818 0.589561
732.496106029365 0.590498
732.681217259917 0.567938
760.66519804262 4.76464
777.693594733254 55.218
778.021777391208 0.543127

>collision 40.0
117.057432349154 0.790913
197.057687227481 0.638494
216.950092048891 0.635405
223.062293826871 2.29322
224.070280887846 1.26035
232.945969915762 1.04435
253.049512540378 0.571443
309.949008201831 1.37728
322.956851091994 1.46064
323.963836160376 6.02926
335.964409096927 1.53227
337.943766228483 1.31311
345.833739381249 0.672934
349.966328304363 1.67387
350.974995052446 15.5263
351.959136583142 1.66305
358.841625670834 0.503098
360.823782248246 0.517298
379.953635124311 10.0009
448.852604043745 1.85379
450.868266574532 2.85669
461.861952559833 0.528026
464.847216018096 0.717807
476.871169299769 0.990827
477.879230412976 2.80855
478.863788147757 1.96293
488.848672990607 1.23435
506.861997496295 1.1037
563.757772008911 0.989936
576.763497276535 3.05346
577.772567054817 2.27798
587.754955854211 0.661413
591.751808675675 3.77348
603.77455026428 0.946708
604.783703441491 29.9908
605.000500897031 0.500041
633.762346859831 7.32692
718.656006441637 4.76517
731.687953683355 100.0
731.924919842558 1.93687
732.013827146891 0.977158
732.183125420955 0.632928
732.271224310335 0.620168
732.360268849664 0.647782
732.442623870735 0.580263
732.622007009376 0.581039

