>compound OXYQUINOLINE
>formula C9H7NO
>parentmass 146.059805321367
>charge 1

>ms1peaks
118.066975116028 0.841014
128.050913555073 0.569682
146.06135770411 100.0
146.169727330321 5.19267
146.212245394871 2.38638
146.288546620947 0.865462
146.317687182178 1.08496
146.361547664272 0.584021
146.406070800374 0.557355
146.434466430778 0.551925

>collision 10.0
77.0400317806418 0.587476
91.0554493216687 1.34704
101.039587760773 1.11289
117.057902223402 0.958446
118.065896558979 5.72489
128.05005503297 4.51741
146.059805321367 100.0
146.169629316965 5.52276
146.206759627823 2.50965
146.238312431956 1.28038
146.288791925981 0.893699
146.316532382934 1.19698
146.376108101586 0.589359
146.466419030287 0.502968

>collision 20.0
51.0250752825808 0.800835
65.0408121343953 0.581725
75.0252492606449 1.92409
77.0407897072166 5.86866
91.056492590901 8.86497
101.040724016269 10.6061
102.035975929367 1.98856
117.059201048251 6.86322
118.06732995948 23.9265
118.165475142301 0.740279
128.051484824306 23.4927
128.154447276753 0.745047
146.061110591595 100.0
146.170126050159 4.75788
146.208109250552 2.11877
146.289086978119 0.713153
146.317618331048 0.867011

>collision 40.0
39.0251194574857 2.42462
41.040791296686 0.816168
50.017333227522 1.27882
51.0254062636965 56.148
51.090492847182 1.39119
51.1116011499978 0.5588
52.0245256624598 1.66635
63.0253335657599 1.68293
64.032434242365 0.641418
65.040905411598 18.3728
74.0173930094414 7.84987
75.0253469965172 100.0
75.104666272841 3.43601
75.1284554425688 1.32011
75.1538038911838 0.564681
76.0210728974917 8.47886
77.0410507360324 90.7566
77.1214020444863 3.02984
77.1461873274278 1.15067
78.0366431544344 3.30409
79.0436387045245 1.58413
80.0516490833195 1.00478
88.021638626567 0.582084
89.040675072691 11.1907
90.0485035323875 15.2498
91.0564700665021 40.4089
91.144080978955 0.844784
92.0517279612457 0.935805
99.0229664934871 0.63546
100.02747711793 1.41006
101.040922885071 87.3609
101.132730823152 2.62961
101.160348165119 1.06617
102.036097729065 40.5046
102.127088347134 0.928891
116.051396736739 1.60198
117.059416330162 44.8503
117.158043498219 1.08675
118.067171506581 12.7532
127.043481307452 5.26854
128.051354654606 31.4905
128.154037128528 0.731706
145.053348352955 0.611082

