>compound OXICONAZOLE
>formula C18H13Cl4N3O
>parentmass 427.989338830088
>charge 1

>ms1peaks
82.0545963424656 1.16035
427.989338830088 100.0
428.169972181849 4.96412
428.245113954005 2.18301
428.372673474196 1.04729
428.425886568632 1.1314
428.491066096502 0.839284
428.572381039758 0.768767
428.622022110417 0.739367
428.670969603625 0.703295
428.775392074788 0.640139
428.86154933576 0.584803

>collision 10.0
81.0459964994698 0.685337
82.0539128529778 7.30232
158.975999198908 0.676179
234.041590322044 2.20073
269.009984751755 2.20988
427.984914980588 100.0
428.170786763812 4.83061
428.251499167934 2.22982
428.374326321795 0.987217
428.425121204759 1.13626
428.505317292693 0.734622
428.624328701939 0.713746
428.681514460471 0.648694
428.783001457836 0.57408
428.98635945909 0.77508

>collision 20.0
69.0471310412564 1.13491
81.046873828032 5.71055
82.0544080393612 77.0556
82.1379348925014 3.16092
82.1630907090202 1.29829
158.977878494261 7.378
227.015283265004 0.830409
234.044237585786 26.5222
234.179769984464 0.626231
254.025581796999 1.06762
268.004726808151 0.819493
269.012880854645 15.0484
427.989111432342 100.0
428.17094820163 4.22521
428.241627788265 1.73135
428.371601535788 0.775173
428.426818418469 0.806695
428.491276818621 0.674266
428.572263647244 0.642681
428.628189582471 0.610761
428.785602148321 0.544384

>collision 40.0
54.0359991445505 1.57215
69.0469429798361 2.90226
81.0471337681875 21.3661
81.129807792234 0.545831
82.0544249021398 100.0
82.137874317209 4.67385
82.1635807569927 2.00278
82.2059635769903 0.64993
82.226126103528 0.581904
82.2476910344923 0.701213
158.978053574785 14.1895
166.007012073689 2.73799
170.977916633165 0.980731
234.044603524756 21.941
234.180242478776 0.517113
268.004913171873 1.57561

