>compound BICUCULLINE (+)
>formula C20H17NO6
>parentmass 368.114137605842
>charge 1

>ms1peaks
307.059830653193 1.20272
368.11151501109 100.0
368.283628425565 3.81266
368.348228311912 1.65828
368.431396435554 0.714271
368.518691595779 0.721018
368.578850030009 0.544201
368.704616300192 0.555764
368.763340771083 0.502809

>collision 10.0
190.088119470566 2.41724
277.050829879903 0.905204
307.061607705255 10.718
319.061304842312 1.29459
325.071203267395 0.920914
368.114137605842 100.0
368.282256995524 4.25526
368.349739742435 1.81641
368.470245902655 0.755916
368.518812363718 0.824091
368.607586559987 0.624705
368.706496956613 0.587279
368.748764449707 0.555101

>collision 20.0
44.0521459940868 2.14732
149.062518040866 2.93939
176.072653828599 2.71777
188.072346770223 0.795111
189.081033435742 2.46121
190.08874376756 16.9093
191.095218003301 1.18704
249.05637840895 5.14156
251.071798913199 0.893277
261.056884550591 2.18746
263.072138805309 0.675387
267.068102187513 0.691789
277.052066672203 15.8919
279.067499703494 3.33546
281.081217269556 0.842544
289.051912478063 3.5042
291.0668664265 1.56339
292.076161455394 0.541326
293.083479016723 0.585039
295.061961304329 1.67562
303.067631545132 0.725281
307.062221694958 100.0
307.216214518746 3.61043
307.274610541412 1.50796
307.430927567 0.68375
307.501528669273 0.538281
307.558184116612 0.52568
307.600920378479 0.511803
308.065710767471 0.566549
309.078115204522 1.03879
319.062475599479 11.9983
325.07289393086 4.78792
335.08110316838 0.758192
337.072717996735 2.50035
350.103128607471 1.16036
368.115290782809 84.0871
368.281952405511 2.81709
368.346239516307 1.18048
368.428713038954 0.60181
368.52165221239 0.5839

>collision 40.0
44.0517552149589 15.7306
91.0562135961774 1.09533
119.050905112291 1.15044
131.064909023444 0.653223
135.0451103404 1.05517
149.059097556885 2.422
159.059747598044 1.44
160.070816154471 0.717508
161.060509206015 0.637025
163.054673487006 4.37502
165.070569008449 8.42985
174.055043266994 0.531727
175.051049303868 1.44413
176.070811747075 8.50926
177.018691794188 3.51352
177.06845136538 1.96366
181.064706298774 0.837526
188.070999323264 3.95079
189.077999867329 5.6309
190.086562748451 17.9309
191.049437270123 9.30957
193.06510948565 6.39961
195.079888462307 0.758409
203.049087164345 0.721968
205.064813655904 3.78654
209.059720798922 1.22336
219.044101247648 9.07109
220.051026185668 0.60765
221.05967597018 15.2045
223.07513229638 4.83724
231.043838615659 0.762419
233.059514660511 9.23935
235.074831129685 1.81872
237.054782362362 1.08978
239.069235432597 0.738188
245.060284800106 0.600578
247.039388674059 3.79017
249.054546396169 100.0
249.198544462656 3.41864
249.246360352774 1.4496
249.31570629415 0.574564
249.352426851888 0.552156
249.390319393008 0.575557
250.060321919647 0.831946
251.069899802787 5.44321
261.054043509665 16.4125
262.065987570446 0.508754
263.069556703301 1.80403
265.05001487474 0.624848
266.05635422019 0.970436
267.064559570559 2.98853
277.049184280792 92.0166
277.200664440434 3.07226
277.254296561335 1.26979
277.36467804934 0.530414
277.403042737112 0.516467
278.057471964675 1.08498
279.06466065599 28.6367
279.215249895628 0.647893
281.048730657039 0.639268
289.048553668173 7.99767
291.064196354163 2.12473
292.072068644439 1.00294
295.058313400085 1.5511
303.0641162762 1.42958
307.059235582504 30.5022
307.216833969935 0.638867
309.074663431967 0.630197
319.05828862299 2.51793
320.055582545966 1.40454
335.07644797034 0.610233

