>compound CINCHONIDINE
>formula C19H22N2O
>parentmass 295.18202190026
>charge 1

>ms1peaks
295.18202190026 100.0
295.334686379171 5.20706
295.395986779875 2.25641
295.503697012843 1.03059
295.546087943198 1.14292
295.600501027091 0.766343
295.670294828498 0.705151
295.711640443879 0.710701
295.748799749513 0.673425
295.806057696031 0.608852
295.869199009033 0.550652
295.943093578197 0.534431

>collision 10.0
277.172635056005 1.11179
295.182868062244 100.0
295.335134947973 5.53685
295.398710723877 2.39127
295.503993277007 1.14507
295.546586885168 1.27443
295.606850967587 0.837191
295.671599890616 0.781096
295.711900858824 0.778365
295.753771597851 0.734628
295.839294280352 0.616046
295.870928227337 0.596771
295.931480012349 0.552522

>collision 20.0
67.0563469798025 0.562386
79.0563298412071 0.87607
81.0719358164848 2.74633
110.09818925539 0.611445
130.066509844963 1.11272
134.097506787388 0.837406
142.066318314937 0.558994
144.081810336624 0.539154
154.065999546335 0.660245
156.08154227398 1.03772
168.081247180851 1.32489
223.122562303418 0.559718
234.127183213971 0.793426
277.169289868026 11.2531
295.178866474717 100.0
295.334674422578 4.98524
295.394582590574 2.49037
295.465026420047 1.02679
295.503768312398 0.987799
295.544776091733 1.14323
295.614884213792 0.712223
295.746539499524 0.623083
295.79675244626 0.546702

>collision 40.0
30.0358684275337 0.561094
39.0259544124179 0.764412
41.0414855268573 10.066
42.0366950523232 6.10132
43.0564645747026 1.14696
44.0523897349667 19.0564
53.0415214810058 12.9895
55.0571500672943 20.3031
56.0525165067686 7.02289
57.0607276554376 0.867918
58.0681811190954 1.06393
65.0414805423119 4.9251
66.0493711377025 1.84681
67.0569569459855 24.5446
68.0526252284811 5.41316
69.0637781363217 2.77555
70.0681964593681 3.3442
77.04139625402 10.1325
79.0572494795723 89.0491
79.13865166499 2.19056
79.1646710509889 0.870524
80.0526531312945 13.5204
81.072837335406 100.0
81.1553483706853 2.42183
81.1814898991655 1.09797
82.0680153569342 20.2633
83.0765057105704 1.01571
84.0837479685241 3.36087
91.0570103553057 12.2755
92.0584870405758 0.525595
93.0712581994739 7.27594
94.068597739406 7.17492
95.0852136244066 6.90552
96.0833993565421 5.72698
101.041294166643 0.922867
103.057324109931 0.940515
105.072551284998 6.30274
106.068479752595 4.12359
107.085629025636 3.36789
108.083695315014 12.9293
109.092785807677 1.36897
110.099228821486 5.57178
115.05710079897 6.94607
116.055467672547 0.643673
117.069500345141 1.65184
118.068433795376 1.13841
119.078886369762 0.909606
120.08378745234 3.8662
121.089990352751 0.573076
122.098877792937 4.26362
124.114499675714 2.97609
127.056652812977 1.01065
128.052517514931 13.9182
129.062923208426 4.21608
130.067918250556 37.685
130.171439632486 0.689452
132.083414549453 3.85316
134.099255402728 10.9893
135.107141092101 1.35525
136.114515669887 3.20979
140.052594566616 0.534254
142.067867577815 38.0616
142.175800986209 0.663339
143.075384137153 20.2864
144.083461951754 11.639
146.095232788901 0.585462
154.06770431871 25.7277
155.075322286327 4.97727
156.083018846263 34.8587
156.196110826695 0.648779
157.088748242665 1.16621
158.063331688289 2.46595
159.070771220198 3.88893
165.07091900178 0.735759
166.067699788499 7.68412
166.121305765034 1.03156
167.075213785845 23.9489
168.083033635953 38.3319
168.20031377432 0.694343
169.080172731151 5.90438
170.088776272938 3.04609
171.088843088136 0.970193
172.078154302814 6.93196
179.080574963487 0.916611
180.083113323549 16.3327
181.083942762519 7.88225
182.095405232006 5.16989
183.089443643327 3.11196
184.078431279823 9.81375
185.091083264272 0.52821
186.094046923107 0.583118
191.075592389582 1.69122
192.083224665064 3.97927
193.089978102798 4.24398
194.098210286836 8.75018
195.097135030193 3.05048
196.113603048588 5.45914
197.109074454691 3.51684
204.083425383817 5.44268
205.090069446146 2.54968
206.097689664453 6.46836
207.099609563045 3.18534
208.112779121555 3.68573
209.110302368817 2.49239
210.123228784442 1.31249
217.092139818076 1.72283
218.097835789572 5.02045
219.102241729437 3.52542
220.112905324397 3.81326
221.110097866937 7.35345
222.121224431765 3.89784
223.125337014314 3.3469
224.144370157628 0.961444
230.098532433603 0.896419
231.104558863162 0.735135
232.114087423549 2.27327
233.115047902366 2.13431
234.129560874645 5.50092
235.125450143804 10.1577
236.140892659368 2.84345
246.129346631772 0.916032
247.125176372587 1.61684
248.143538693049 2.57032
249.139747374053 0.732079
252.140827988439 1.1008
266.155087743134 0.637941
275.157204517901 0.564714
277.171798412995 12.3199
295.18228547987 13.7963

