>compound &#38;alpha;-TOCHOPHERYL ACETATE
>formula C31H52O3
>parentmass 473.397966892612
>charge 1

>ms1peaks
33.2382160459674 1.06287
38.0247906990077 0.926561
59.8599021450864 2.14242
59.877953792362 0.833599
67.6894848667893 0.824841
70.1267071810836 0.833266
94.0769811802543 0.752067
110.076988531905 0.797626
112.115463367116 0.939815
112.690109698569 0.918817
115.783321011754 0.779722
120.741810565281 0.750636
124.69899269335 0.770562
154.035802251524 0.814328
161.421183910802 0.750829
164.097508859994 1.19328
180.055437838124 0.79145
180.9791322078 0.752294
188.092664808831 0.850742
196.071068075461 0.780487
198.037732151308 0.765042
207.097417023398 5.8075
207.374978495147 0.833162
224.686480148302 0.801799
231.15557427015 0.859763
234.638265221669 1.04011
238.891042199134 0.768331
270.175633525156 0.750525
272.823849543711 0.919802
290.125456376676 0.807797
293.98772865632 0.82317
311.41292745132 0.777778
312.169127620014 0.768397
373.881129428958 0.738218
383.284905099428 0.770143
394.922697365696 1.10721
395.183781162899 0.902291
396.175909275352 0.990692
397.668638306126 0.75479
397.770595542179 0.832774
400.460765234798 0.827447
429.792243863552 0.751108
430.385950017112 13.0963
430.563118299202 0.77781
430.793460287114 0.954622
431.383293231965 5.26304
431.884174651206 0.983025
432.51090618531 0.863836
433.778766364499 1.67476
434.429430187501 1.20094
444.167298925177 0.818714
453.503394449368 0.89843
459.687726640454 0.74069
470.96203956958 0.782895
472.390174949648 82.8334
472.69498185363 1.65236
473.116141158119 4.17757
473.397238167869 100.0
473.612259197667 2.81973
473.709783406789 1.87561
473.798494337877 1.27005
473.940704873051 2.11306
474.14149867372 2.05122
474.224866406151 1.76445
474.357101020768 1.63969

>collision 10.0
54.7263727031393 0.710441
57.0701059296596 2.99264
57.0947656225344 0.722784
69.071533994692 0.71168
71.0836919537857 1.16655
79.2759686124434 0.863094
85.1012535544569 1.17808
109.102852635967 0.845725
111.116787599242 3.12012
125.134941559386 1.84246
135.089826715621 0.741714
136.764228549333 0.834134
137.61582937388 0.717698
153.092485327657 1.75119
162.071271605811 0.930717
165.090359441982 7.14066
166.088683511726 0.952547
175.10789828329 0.757421
195.098228584002 1.7276
198.177810613305 0.723568
205.121106333579 3.61725
207.103061056627 48.2862
207.210098972133 1.26892
207.746700327661 0.718352
208.102313948007 4.0167
223.237846873077 1.02215
229.162205322139 1.6861
235.193628881962 0.744116
236.152880247249 0.957035
236.588750872222 0.964269
243.886612348402 0.84656
247.133610171538 1.77385
314.891580822187 0.870043
315.191469936162 0.71649
317.096758085552 0.876697
323.106345414937 1.0535
334.968005224104 2.1437
368.054342283308 0.82986
393.289254634545 0.81025
394.800602811433 0.814477
395.024955619633 1.48334
395.09588139314 0.709908
395.186705856978 2.16728
413.388491399654 1.07862
417.835806244279 0.938851
427.056593930238 0.704489
430.381407787982 75.0981
430.548787274429 1.69255
430.639309312619 1.05688
431.001744220336 1.23656
431.208476149311 1.28577
431.385801683389 35.654
431.563153169204 1.23432
431.64349669429 1.16503
431.733659489553 0.818968
431.913642513563 1.07538
432.109829407877 0.953261
432.423327498057 1.11427
432.861306948921 0.793715
432.976010605244 0.84691
433.197981456977 1.09602
433.75748064291 0.913033
440.994583472836 1.10189
467.89878304894 1.83559
472.393279719276 57.5926
472.55284774778 1.69509
472.798831175884 1.27569
473.133695831525 2.48374
473.397966892612 100.0
473.586702088224 2.19052
473.664010724208 1.78568
473.726246219163 1.62325
473.782351682787 1.37209
473.863745611203 1.43786
474.02018057102 2.58793
474.103787188801 0.923761
474.322420844447 2.04852

>collision 20.0
43.0549451685065 1.91891
55.0539832442798 1.61876
57.0700902163935 4.03732
69.0696636377165 3.21083
71.0883854069131 4.35353
81.0678100384463 0.507075
83.0863239452216 6.43957
85.1008434029565 0.868279
93.0691137341525 0.613241
97.1003882443599 6.87549
98.0927493702848 1.11869
99.1176421122906 1.05963
109.104066388828 0.552434
111.11657971122 1.59046
113.132217426471 1.07368
115.084792443737 0.511889
124.088175235354 0.743638
125.132121892756 3.06837
133.101725187003 1.26282
135.081153663474 3.25465
137.094958534325 0.889765
139.145839267881 0.744705
147.081172030751 2.00205
149.095268550457 4.89006
153.090352764341 3.48838
161.09386833175 1.42844
164.082289750686 9.00444
165.089283002515 15.4943
165.833933186935 0.693358
166.092229752556 2.3239
175.110069591668 1.04626
176.978939511445 0.889916
177.086282359978 0.933332
188.596658569873 0.837152
189.120775841824 1.54546
195.09796644363 1.33844
199.092940865681 0.578682
203.884318911268 0.541805
205.119974471197 2.22515
206.119519529418 2.77884
207.005329705069 0.552382
207.100071917352 100.0
207.214694422284 1.87839
207.263458948046 0.784031
207.306249965047 0.822679
207.379599134124 0.623494
207.776600367023 0.914145
207.839381705822 1.20812
208.104936773435 2.1455
208.249396943221 0.644737
208.370392933984 0.824443
209.003298812294 0.618877
209.107488272647 0.658361
226.961989072433 1.61097
227.676787786014 0.711973
244.976106806454 0.536987
247.052749614868 0.592878
247.137105327693 1.5837
248.248040827305 0.649481
261.262944520447 0.502514
272.965295420795 0.794776
295.146500679386 0.767924
365.708054670681 0.65397
376.983292913097 0.587257
381.166423003964 0.542613
385.34073951532 0.560918
399.765512287003 0.519202
413.359967219635 1.14779
430.377513307569 75.0465
430.568509408694 1.04084
430.699960818094 1.42399
430.860753113946 0.646463
431.165699012938 0.509452
431.37973633999 35.5661
431.518415803109 0.992192
431.577882236615 0.982492
431.665660197056 0.615165
431.737848998301 0.794936
431.894373280125 0.970965
431.978242654487 0.732681
432.015717610693 0.621972
432.141425150286 0.845688
471.312211577787 0.536265
472.382789910664 2.37704
473.14984200249 0.678795
473.396589183457 6.39138

>collision 40.0
41.0394351133619 1.29843
43.0183733347659 1.90167
43.0545538401969 5.50551
55.0564088259978 5.48002
57.0719143041662 5.24891
67.0572936848948 0.761688
69.0724444682808 4.76024
71.0585725248552 0.614386
71.0870837568608 4.95879
72.077200510363 0.875764
77.0396721256493 1.14829
81.0748991004504 0.576407
83.086298445669 4.86149
84.0737255238601 0.524198
85.1027518621924 1.61781
95.082677216184 1.06346
97.1017905108163 2.60926
99.1032418586834 0.602666
104.060524725427 0.616899
109.10167854367 2.60567
111.115098873576 1.2144
119.087669723146 0.707368
121.06676423424 1.56148
122.039483040388 0.580674
135.077691363423 4.70177
136.089092970937 3.76575
137.060652718334 0.724492
137.095472298616 6.1441
144.075924482172 0.521432
145.093976080861 0.876637
147.079513774311 6.60333
149.09779774862 4.10329
150.100512132265 0.598066
151.071786428929 1.57474
152.087367212029 0.888376
153.089820750023 2.39331
163.114427293071 0.514548
164.08305545856 22.6098
164.483809581526 0.821227
165.09185673215 100.0
165.208896095456 1.24517
165.248738683456 0.902149
165.318490737517 0.654439
165.383451631505 0.537029
165.612006451259 0.773742
166.092872356174 5.72358
166.132868075171 0.999714
166.167502674628 0.589574
166.796775709887 0.526488
167.108849524005 0.524758
175.116452618322 0.626817
177.100241629083 1.23306
178.093635052162 0.669224
179.10693511952 2.03722
187.032541919939 0.98191
188.108772465764 0.556595
189.131197287657 0.520161
191.108931788787 1.92084
205.121035400209 3.48814
207.101644067294 16.964
207.548192816438 0.513364
210.012044987724 0.507211
225.15016155399 0.666996
240.765172399201 0.560853
303.227363098357 0.515828
323.883488623342 0.587506
388.325244106078 0.501268
396.26538603843 0.525188
430.384714642435 5.24933
440.970768889933 0.558707
444.141958836902 0.636845

