>compound ZOXAZOLAMINE
>formula C7H5ClN2O
>parentmass 169.017469813193
>charge 1

>ms1peaks
82.4963273260197 1.10944
90.0090518720905 1.17171
90.0941512867932 0.757387
90.9793398424298 0.694091
121.503123911741 0.83842
129.015856197565 16.6774
129.517316739051 3.78917
130.014522666412 4.23128
168.022008481705 15.2413
168.104773490461 0.533136
168.523456739893 8.54158
169.019384745783 100.0
169.136251646829 1.6366
169.177857390724 0.888583
169.2598311758 0.545614

>collision 10.0
82.496360261186 1.74716
90.0080002695283 9.27366
90.093695046827 0.770092
90.5090311127186 1.98631
91.0069696795769 1.58356
99.0025111959632 1.04752
121.502804520599 5.99162
122.003231432909 2.2628
122.501522324439 2.55145
126.996350483137 1.89548
129.014518935988 10.8847
129.515486287344 4.08521
130.01268791716 6.20507
134.04930580004 0.855213
169.017469813193 100.0
169.135318318569 1.6721
169.174852198279 0.787914

>collision 20.0
72.9873867328195 1.0304
74.9853619501353 0.85568
81.9933408139155 1.44436
82.4971288933072 13.7753
82.9969181647632 2.61365
83.4964750404455 2.90991
90.0090883652341 16.5613
90.0940231443385 0.637167
90.5094682325397 5.39741
91.007468241282 6.04747
99.0027523631284 17.7021
114.01250148777 3.37715
126.01403248421 1.53956
126.997143006607 32.6571
134.050399705456 14.8452
141.023958605061 0.869627
142.00842458282 2.07148
169.018755737774 100.0
169.135717879792 1.55106
169.187238255081 0.71472

>collision 40.0
39.0255583667891 1.11835
43.0317676922745 0.968692
44.0161011841905 5.49153
44.9822355560662 0.649009
46.9984905366884 1.33534
48.9872957189559 1.97067
51.001953945882 0.590049
51.0260560139483 2.06004
52.0272850093622 1.07839
62.9927722496513 3.54179
63.0260503959582 7.34561
64.0320307090228 2.01619
65.0195872308031 0.591134
66.970286711836 1.28752
72.9870875521458 35.1217
73.0654395817717 0.591478
73.9779008826614 2.23666
74.4813166609216 5.15865
74.984319141003 4.86045
75.482432458187 1.77927
75.983990859624 1.10661
78.0365916732687 4.9048
79.044879777357 5.78975
81.9933259636348 5.73255
82.495873048717 3.35251
82.994072343386 1.74019
83.494823536325 0.809718
84.9624135905513 1.24528
85.9684251482895 0.585586
87.0027865329218 2.74569
90.0363768774627 3.52969
91.0449796056712 4.80443
99.0028755203817 100.0
99.0917717986525 1.59686
99.1218072090348 0.79391
102.00018099904 1.24249
102.97269361824 1.14409
102.999748912699 0.517661
105.04687578189 1.34173
106.054704584996 1.12208
114.013832841236 17.5793
123.998097980446 2.00022
126.015782816335 0.53542
126.997211255784 8.10896
134.050391878971 9.7691

