>compound Phenethyl Caffeiate
>formula C17H16O4
>parentmass 285.111932734163
>charge 1

>ms1peaks
77.0375756569266 1.75667
79.0509925847899 0.617858
105.069309412123 80.2741
105.162532890664 1.23834
105.192263473212 0.718604
105.225277979919 0.519858
105.269575212514 0.515564
105.472864584707 0.675969
163.036278251121 1.34577
175.084295614239 0.8355
207.069835214552 0.746348
225.085078222888 0.866944
267.097768191567 1.07498
285.111932734163 100.0
285.291339603958 1.1219
285.353631182377 0.834245
285.462429002142 0.789575
285.535147788236 0.757065
285.679958593741 0.675969
285.891425562713 0.508249

>collision 10.0
77.036636615883 1.43157
79.0531715180234 0.710822
105.068015214329 100.0
105.161815818473 1.43653
105.190397569869 0.695877

>collision 20.0
77.0389327291843 2.8403
79.0528786114209 2.75338
103.053750014098 2.10289
105.069421507332 100.0
105.16182661608 1.66738
105.1895729372 0.74392
207.061986007004 0.622144

>collision 40.0
51.0235235644598 2.89073
77.038240219425 29.4441
79.0542634339878 26.8975
103.053192463908 18.7125
105.068999527159 100.0
105.15977087367 1.5933
105.201538853955 0.589184
105.324633656433 0.624084
105.419716242466 0.633237
105.695674665839 0.503242

