>compound CEPHARANTHINE
>formula C37H38N2O6
>parentmass 607.27828710748
>charge 1

>ms1peaks
606.269883266827 8.82669
607.280921435201 100.0
607.491959025674 4.07323
607.582128630055 1.73629
607.732581375959 0.916308
607.803862636339 0.920146
607.877436687368 0.820347
608.025543678581 0.80899
608.097660575015 0.776915

>collision 10.0
606.26915833325 8.80868
607.27828710748 100.0
607.493062435254 4.24481
607.58108805831 1.8486
607.734875035237 0.91426
607.800044613938 0.923497
607.903890334249 0.812763
608.024539589753 0.731845
608.092549148214 0.724377
608.14135308684 0.704748

>collision 20.0
564.234877581099 1.42553
576.23769970265 1.26896
606.264679795892 9.01198
607.273992975577 100.0
607.492288065179 3.86726
607.578564208696 1.80405
607.736267933005 0.84865
607.798805425319 0.896454
607.870820175792 0.74068
608.013275162364 0.717827
608.083637973636 0.687339
608.28014988006 1.13651

>collision 40.0
44.0504983002918 5.34334
58.0662495248525 5.04191
91.0542969323049 0.52446
105.069227778786 0.760284
121.065060674321 1.89838
135.079865620481 1.75048
137.059512060203 0.908983
144.080017908652 0.717952
145.071119025304 0.821842
146.095908589011 1.58269
147.079986532863 0.787059
148.075682985268 0.590751
149.087529110495 0.552542
151.056709501142 0.677459
159.081967876739 1.84999
160.078495378903 1.13806
161.074824605967 0.705919
162.091627259571 1.25773
165.058925992926 0.55528
171.080672070477 0.986773
173.075798297915 0.866048
174.091574340481 7.90515
175.095149140376 1.67934
176.10721173624 4.65889
177.063376823666 0.865317
188.099154770235 1.81791
189.0933294802 1.87574
190.088049210126 2.29948
191.092330522571 2.34622
192.096917878676 0.963818
202.088322618531 0.607518
203.094407741939 2.61555
204.068832819322 1.55794
205.073579708331 0.646178
206.081880518492 2.28266
209.094335230526 0.568237
211.079152646211 0.714489
213.091906430236 4.72224
218.081483505018 1.94347
223.085400739403 0.646064
225.090735998045 0.935157
227.10626641565 6.61747
235.087661607061 0.636968
236.088806663479 0.727576
237.09437181588 1.10195
238.098804729101 0.57489
239.106361242854 1.90667
241.12281079693 3.01902
248.09073500382 0.757928
249.094019096589 1.18416
250.100996007247 0.749109
251.102651912467 1.54228
252.10413852551 1.07047
253.115168122767 1.59096
254.121566251112 0.549903
262.100897414051 0.5193
263.100331983668 0.977826
264.093052814456 2.80217
265.096182339272 1.75898
266.123793081772 1.39924
267.089744203952 0.895749
268.124526382452 0.821234
269.105515168687 0.655469
277.111959670474 0.581069
278.120319427204 0.710754
279.112685700102 1.20046
280.11877363219 1.01169
281.094557475708 1.09615
293.106789765966 0.728451
294.141520525467 0.90975
295.124072665566 0.594561
305.102013970879 0.54797
306.111653182498 0.955572
307.104014147748 1.03148
308.125368170787 0.988898
317.109509809225 0.675843
318.112760061714 1.44238
319.116938624234 2.18934
320.126733562927 0.686
322.113645667932 0.772524
324.12581013897 0.783922
331.112941388523 0.714915
332.118403633773 0.590096
333.123040339081 0.995177
334.112626365212 0.929125
336.12469781397 0.85228
337.134825658582 0.55299
338.140332851876 2.00295
339.141557253798 0.833102
345.117854508034 0.717905
347.136341136722 1.1505
348.138299645194 1.37737
349.147284018824 1.78579
350.146253986154 1.2107
357.148419136715 0.845372
359.162236540674 1.18507
362.140038169338 0.590417
363.16012654921 1.07248
364.147832675176 0.649366
365.150549382418 25.3129
367.1639322677 1.30933
369.149345098931 0.958339
370.157369874981 0.532408
371.162678471138 2.24184
372.139792856944 1.55805
373.169201724509 0.904537
379.163922090506 1.08574
380.173092719598 1.53262
381.174615985787 0.724728
383.1615833944 0.745357
384.161961972867 1.22014
385.166511252729 1.97623
386.168611515278 1.25962
387.152235832883 0.844458
393.175539006237 0.519983
397.144139304124 0.604483
398.164686914253 0.536893
399.163755635489 0.978227
400.191075871094 5.06206
401.181224556058 1.0709
402.204587961186 2.02144
414.187856981253 0.735849
416.205933851225 0.94538
427.161645842249 0.65062
440.181901614694 0.984686
458.196758481096 0.504199
469.210242236116 0.684032
470.197800406276 1.11666
475.191460444576 0.623584
491.188820057811 0.575693
501.183709042368 0.75076
502.187952339759 0.646354
503.190324395703 1.43705
505.202092780574 0.660971
515.189769621431 0.729083
517.199979817309 0.634928
518.20084200551 1.02073
519.197344128193 0.522015
521.197305044243 1.83585
530.204820965508 1.6306
531.201575007326 1.79861
532.210747138306 1.97389
533.199443532655 10.2818
534.224430669086 1.68501
535.21770447307 1.14864
543.213434266113 0.552522
544.221381991082 4.18818
545.207037040031 5.29064
546.226750529981 4.00577
547.216377362722 2.54479
548.222662415136 1.61855
549.223095276711 0.840298
550.229164435416 0.94751
558.217641403915 1.4618
559.219409898676 1.8161
560.220102098949 2.56425
561.226168879281 1.89142
562.227423798765 1.40989
564.240263077189 35.8233
564.44358749766 0.63434
574.242217926829 5.45614
575.252100500349 6.07653
576.24516053571 38.8401
577.26182513799 6.13427
578.255762152316 5.11933
590.242608656462 2.19893
591.249161157509 2.37971
606.269435447827 12.884
607.282646940276 100.0
607.492388841071 2.18997
607.572177099183 1.12766
607.675603083639 0.860557
607.810202835589 0.740515
607.91481232635 0.80856
608.000980305738 0.703266
608.271252191163 1.00086

