>compound CHLORPROTHIXENE
>formula C18H18ClNS
>parentmass 316.092297891006
>charge 1

>ms1peaks
271.035886078603 0.856707
316.092297891006 100.0
316.250445625044 5.25159
316.317113153448 2.28036
316.425019705257 1.00447
316.47048546067 1.09476
316.529930064088 0.773494
316.597307249981 0.712891
316.640901923271 0.719957
316.678628538719 0.660028
316.738507899549 0.625369
316.807207171348 0.560709
316.848699188001 0.533476
316.886541855181 0.51422

>collision 10.0
58.0654973785614 0.533297
84.0804477646357 0.662491
231.001257002274 2.02712
235.05638548735 0.527554
236.063660530408 0.652339
271.032723961407 6.00029
273.047828224966 1.78482
316.08809570017 100.0
316.249564413487 5.45124
316.31977371452 2.40244
316.424504012789 1.07874
316.468006374609 1.2373
316.555675313828 0.762141
316.676884706389 0.684187
316.767494501711 0.595054
316.80659724356 0.543784

>collision 20.0
58.066232841519 7.4573
70.0660478313364 3.57007
72.0816171151122 1.35924
84.0816489835249 9.69899
85.089273606886 4.1604
128.062662061697 0.634274
203.086095453071 0.760756
210.050529010654 1.25301
221.042822807312 5.57192
231.004279086567 31.5963
231.140532794339 0.807789
234.050373412855 1.25984
235.058454490124 9.67903
236.066571329148 13.197
238.056365820491 6.02788
245.01990308564 6.5725
256.011831492017 1.97579
269.018915780944 0.554487
271.034533518014 67.874
271.181195134713 2.68413
271.23502061799 1.07716
273.051309187381 14.7997
316.091682872762 100.0
316.250790936278 4.53611
316.309709903772 1.81458
316.425660904797 0.77734
316.469498361808 0.82595
316.54262523578 0.633883
316.598321003975 0.559477
316.637939053957 0.579024
316.710578909017 0.549603

>collision 40.0
42.0349273476373 4.45721
44.0508850634706 0.540423
58.066120541962 15.0869
70.0660073791618 32.9096
70.1427815064076 0.790012
72.0814710588702 2.47622
84.0815137944021 26.0926
84.1652951391248 0.648752
85.0892193886981 7.29477
103.054773799507 0.680563
115.05463913602 1.4135
128.062065141116 2.98925
149.015383318122 0.989765
152.062141514132 0.964552
159.026201802281 0.560754
162.023240478828 1.56231
165.070318760843 2.12212
178.077818739823 0.794194
192.987757806437 0.558212
195.026337479503 1.79108
196.034366533196 3.48244
199.030909173138 2.01521
202.078025021516 6.3228
203.085995336011 14.894
208.034333754829 0.638111
209.042116985554 2.12962
210.050320145958 21.469
212.039068555955 3.48214
221.041789052542 95.6664
221.175283549935 3.30281
221.222386965998 1.39355
221.287312173744 0.581076
221.356788093834 0.569071
231.002168966785 100.0
231.140732800703 3.43558
231.187358817048 1.49117
231.252797572986 0.610688
231.28865530229 0.575248
231.325056995638 0.587295
231.376319621062 0.50088
234.050562712999 24.6606
234.18795603296 0.569969
235.058530415821 46.0079
235.195933240679 1.31632
235.243352830998 0.587681
236.066026143494 14.87
237.063589864159 0.772009
238.055071713107 18.5789
245.019548152832 6.85368
255.00407893445 6.62969
256.011321841199 5.28749
269.018720181966 0.863869
271.034899397885 6.25499

