>compound BEPRIDIL
>formula C24H34N2O
>parentmass 367.274003212573
>charge 1

>ms1peaks
84.0814179648807 1.08574
184.169672172725 3.96175
367.273034790189 100.0
367.442629303824 5.18438
367.515602390504 2.40654
367.631014107816 1.18173
367.680055421619 1.24896
367.735087239866 0.917277
367.779514379556 0.89332
367.816605972608 0.862124
367.862839376026 0.846645
367.904993383562 0.806844
367.959803243423 0.730001
368.009541479631 0.709203
368.095919411207 0.638135

>collision 10.0
84.0818752142385 10.4351
184.168555201874 52.1077
184.291564910036 2.53337
184.337419527973 1.09271
196.11284832447 2.16738
296.202425295727 2.85176
367.274003212573 100.0
367.443817315611 5.47796
367.516924466305 2.42157
367.632195531669 1.16159
367.68134057105 1.2559
367.747581891147 0.893942
367.818239377843 0.82405
367.865760388357 0.826022
367.945309342363 0.741179
368.001196376481 0.687749
368.043607530098 0.647548
368.095344378856 0.634636

>collision 20.0
84.0794707624914 76.4919
84.1646527966242 3.99488
84.1907606314212 1.79365
84.2337751257452 0.578313
84.2543598845042 0.534724
84.276191664645 0.671852
91.0538472863675 4.61551
110.095552981661 1.67181
120.079759833196 0.638518
170.15216191513 0.752535
184.166152713657 100.0
184.290453492767 5.32887
184.336676788223 2.27222
184.423439931842 0.852374
184.456311470699 1.07752
184.507945701093 0.595208
184.587697850769 0.54383
184.622157559796 0.520001
196.110337469252 11.5245
222.125387039876 0.787623
296.198284201152 3.58397
367.271772095531 13.1729

>collision 40.0
42.0350580197165 1.52033
55.055403345184 1.15746
56.0504115869335 0.650358
57.0708747827598 1.52475
84.0804832381618 100.0
84.1646708252559 5.48302
84.1925035814983 2.27681
84.2174393058081 1.18068
84.2545696569488 0.865719
84.2766855348011 1.08812
84.3154381933657 0.548568
84.3648429357427 0.504273
91.0551663729722 15.0984
98.0969807198743 0.552225
110.09691489588 3.5565
114.091663528727 0.576463
170.154104110503 1.26153
184.16977178551 1.34163

