>compound MONOCROTALINE
>formula C16H23NO6
>parentmass 326.159032809496
>charge 1

>ms1peaks
326.158327949295 100.0
326.319218503334 5.18717
326.384294368224 2.21159
326.496332430532 0.996457
326.542209574248 1.10554
326.612612574443 0.752553
326.671156892559 0.70535
326.714009008874 0.722666
326.757247321975 0.660774
326.809442543894 0.614555
326.912027382451 0.559636

>collision 10.0
121.088889475773 0.540947
326.159032809496 100.0
326.319766532913 5.50964
326.388978961742 2.33475
326.497618755378 1.11814
326.542641569574 1.23108
326.605791808149 0.837236
326.671320147017 0.766436
326.716033930655 0.759
326.755724020568 0.711468
326.845937946251 0.632626
326.889276178676 0.603067
326.978197049612 0.548404

>collision 20.0
94.064667849038 0.841534
95.0724506299081 0.504782
120.079517759264 2.72966
121.087343532345 4.91424
122.095117832646 0.836803
138.089686126443 0.947239
164.104984244843 0.909995
194.115165641865 1.47948
237.133420566631 4.44887
238.14134682565 0.791121
280.151609027689 2.86937
298.16181594095 0.811458
326.154422619895 100.0
326.318760660854 5.19172
326.388292030017 2.43265
326.496520226851 0.967842
326.540720172283 1.14161
326.599834549225 0.714543
326.672003942322 0.665906
326.714092356128 0.674167
326.761326638242 0.628903
326.889332325426 0.532332

>collision 40.0
41.0393654753456 0.565735
42.0353558809988 0.766996
43.0188610127483 3.51282
44.0502429114222 0.692567
53.0397741771838 0.870368
55.0551073832593 1.02991
56.0502341277849 0.582736
57.0344496055116 2.93712
65.0395492290865 0.649193
67.0450395510599 16.6858
68.0503323447675 8.71784
69.0601324422282 1.49604
70.0660331671122 0.507861
77.0390231322892 3.02418
78.0408513216836 0.725608
79.054845544014 3.65961
80.0501555397475 11.625
81.0655078368905 1.93826
82.065608082222 5.35808
84.0445542933405 0.676136
85.054390156788 0.718459
86.0609720305675 1.92171
87.0448335312732 1.14665
91.0548579656856 4.40153
92.0587810639926 2.46731
93.0665123607593 8.84549
94.0659941727878 43.0222
94.1540773308606 1.05457
95.0736355980468 25.9267
95.1628685794428 0.604876
96.0812741014642 7.25749
97.0654581553899 0.677087
99.0443315150165 1.93228
99.078246841721 0.708349
103.054583681729 2.28604
105.067933486895 1.73403
106.065435330936 5.7808
107.07400154725 1.09341
108.080879304667 5.96148
109.079847814531 1.46625
110.085337339094 2.42316
111.069911752445 0.650863
112.075908894444 0.708454
118.066687313395 2.12683
119.077157488472 0.881794
120.080968203665 100.0
120.180300254612 3.35843
120.212824538531 1.29161
120.288599587848 0.504108
120.313621913942 0.535168
121.0889899389 70.4163
121.187724335577 2.00772
121.224605863884 0.891081
122.096542480922 16.9205
123.102970478413 0.732085
125.060434648952 0.590445
136.088572003822 1.24223
138.09140524274 16.9587
139.099283511717 4.71372
140.107137651168 3.7044
146.095555215124 0.967506
148.111366072762 0.61429
150.092827784185 0.542039
153.079447921492 0.552256
156.101779220258 5.44434
164.106859841717 6.15466
166.087186996057 0.595605
180.10205407488 1.09094
182.116960879979 1.24188
184.096985510222 5.27271
194.117641323976 16.7523
195.125689814595 2.04681
210.112137699044 0.997917
212.128251084635 1.54872
222.113070856112 1.24207
228.123425714903 0.680585
237.135790711226 4.24784
238.144158292342 1.8232
252.122778439087 0.646741
254.138697405896 1.17359
280.153875508361 3.42895
298.164738168163 2.4402
326.160026830642 8.04951

