>compound PROPIOMAZINE
>formula C20H24N2OS
>parentmass 341.169087271206
>charge 1

>ms1peaks
86.0966326703879 4.37494
254.064441805457 0.597078
341.169552223832 100.0
341.331822214734 2.75756
341.389806414727 1.07916
341.437348943591 0.701157
341.558377779184 0.575859
341.634153967562 0.568244

>collision 10.0
71.0737022830475 1.07187
86.0967669518214 60.9549
86.1816597731264 1.52631
86.2079558569893 0.653166
239.076146972676 1.50459
240.083729814863 1.14601
254.062989942147 7.59087
296.110622049823 5.78679
341.169087271206 100.0
341.332757687118 2.9215
341.389392690937 1.15599
341.436601722777 0.714332
341.510576525127 0.554906
341.585984237627 0.552651
341.70431174301 0.504921
341.76926926689 0.509964

>collision 20.0
56.0497812544212 0.802256
71.0729644121867 2.77721
86.0950997532624 100.0
86.1815170948195 4.03746
86.2072664477349 1.70262
86.250996204351 0.564427
86.2715858402627 0.509918
86.2937711103406 0.574737
239.074885720237 4.65168
240.082961620011 2.11241
254.06222182429 21.498
296.108980885712 5.34507
341.16629086608 3.86261

>collision 40.0
43.0433528637512 0.888966
44.0502334011089 2.16686
56.0502319514208 4.47504
57.0343885870344 1.23683
58.065726604545 1.7317
70.0656711888797 0.828898
71.0735325795368 21.998
84.0808594740132 2.7068
86.096334010065 100.0
86.1816860563396 3.63389
86.2076172374683 1.47677
86.2942886633413 0.513339
105.069883291025 0.725508
196.021756272151 0.579998
197.029525811513 15.9741
218.063221309149 0.801054
224.053151564971 4.36199
225.030429009014 1.01038
239.076568716873 4.2818
240.083964846968 0.533606
252.048153742776 0.538366
254.063896536811 23.0433

