>compound L-Nicotine
>formula C10H14N2
>parentmass 163.12310191463
>charge 1

>ms1peaks
84.0809796979603 0.564232
106.063308938936 0.940524
130.064186697055 1.43872
132.08074904092 2.64069
163.122529799772 100.0
163.284834929365 1.2255

>collision 10.0
44.0510449045516 1.1653
80.0499095371554 1.59843
84.0814466575853 3.37823
106.06559083096 9.52985
117.057282492644 5.12593
120.080196391571 3.48508
130.064923179037 16.4315
132.080641923447 31.5776
163.12310191463 100.0
163.285056122725 1.48769

>collision 20.0
44.050341974291 4.92287
65.0402813565817 0.568308
70.0649637517613 0.564843
77.0383888354505 0.932886
78.0341521355148 1.16838
79.0533990579662 0.741655
80.0495396941702 7.7556
84.0808425817452 9.5592
89.0375760010963 0.547617
90.0459199856893 0.936659
92.0495014706602 2.98034
93.059566906651 0.65537
94.0656405815493 1.02602
103.053411938722 1.36631
105.068546080726 1.3901
106.06489583172 29.1491
115.053369668501 3.99003
117.056535793368 58.1751
118.064264366471 0.992504
120.080014444957 15.2862
130.064233020166 100.0
130.203670725061 1.3801
131.06960426269 1.52804
132.079932194801 70.7074
132.222190331252 0.781576
163.122032715518 16.7595

>collision 40.0
39.0235420234253 1.55699
41.0390723989471 0.703934
42.0347171317873 2.93913
44.0505379457929 6.73809
51.0239888529745 4.56159
53.0397516322479 2.41788
54.0343541872456 0.586337
63.0235383341288 0.751986
65.0392672314351 12.8826
66.043690093629 0.689127
67.042440900783 1.65095
77.0393151294643 28.5072
78.0343921052495 12.7942
79.0520126733952 3.71397
80.0500412428372 7.13292
82.0648846285715 1.15955
84.0812845091727 5.08868
89.038591198485 15.443
90.0463199440422 29.4455
91.0532005177592 3.25787
92.0495648723028 8.96265
93.0577856410868 5.20293
102.04455747664 0.79929
103.054097090673 18.0187
104.049649547168 1.16321
105.068837293538 0.941556
106.065061861038 10.019
115.053521485055 4.9104
116.04852500321 1.86505
117.056899443431 100.0
117.187858266158 1.22378
118.064524957724 2.7532
120.080018806755 2.8036
128.049245475832 2.56826
130.064540272289 58.8297
130.203666076634 0.701486
131.07199246868 1.43165
132.07901990025 1.11787

