>compound CYCLOLEUCINE
>formula C6H11NO2
>parentmass 130.086313141756
>charge 1

>ms1peaks
84.0818077556327 20.8195
130.086891360422 100.0
130.190995022922 3.54917
130.224720946766 1.36176
130.328815495921 0.536112

>collision 10.0
67.0549440582822 2.87182
84.081402601486 100.0
84.1656696591613 3.81105
84.1910120061551 1.54174
84.2330277057334 0.501277
84.2766801189274 0.554991
130.086313141756 17.8538

>collision 20.0
41.040026627685 1.61359
42.0351310360182 0.877584
56.0510628175574 0.966295
57.0715366954381 0.630143
65.0397771273685 0.618998
67.0554825749941 20.3613
84.0819132210111 100.0
84.1658064642537 3.38077
84.191365673252 1.33987
84.2178793252223 0.585164
84.2772082018112 0.501516
95.0502039005548 1.01622

>collision 40.0
28.0181881763641 0.624798
30.0335740896279 1.40129
39.0239655041803 12.2199
41.039520632056 72.5872
41.0980709223315 1.39022
41.1151520104772 0.590009
42.0349111353821 10.3203
43.0185820127477 1.72772
43.0426156363699 6.41355
44.9978350490913 2.34405
54.0345665037828 1.51693
55.0536802222908 1.03114
56.0502897664084 20.9746
57.0696629953749 2.27359
65.0392216431046 21.2584
67.0548040169522 100.0
67.129434693903 1.83582
67.1542420068536 0.803804
68.0499313661761 2.09793
69.0578844657123 5.38159
82.0654460514612 0.999404
84.0810679608717 52.0002
84.165101795726 0.862872

