>compound OXOLINIC ACID
>formula C13H11NO5
>parentmass 262.072390237591
>charge 1

>ms1peaks
244.059639165722 6.78004
262.070333945785 100.0
262.214495081417 1.71593
262.263977019438 0.852922
262.358279007668 0.526837

>collision 10.0
216.034615851411 0.74293
244.061658616434 100.0
244.202045757595 1.57178
244.245039260762 0.827627
244.290913406315 0.5493
244.380031296886 0.50381
262.072390237591 77.702
262.215783215284 1.14748
262.26137037326 0.62056

>collision 20.0
216.035438395467 2.08586
244.061844980854 100.0
244.201073467158 1.68404
244.248377651503 0.892781
244.309198752294 0.561607
262.07222436593 1.85373

>collision 40.0
51.0238934964446 0.968783
61.0087446405514 0.551217
63.0228990687235 0.636987
65.0389644766138 8.1585
68.0164236862547 0.61983
75.0228034162912 2.36693
76.0280610650133 0.788228
77.0383245189743 7.77758
78.0337590408002 1.095
89.0396486419782 1.16316
90.0442083496695 0.532221
91.0533589534388 4.74534
93.0323462160836 0.532334
101.022609789704 0.915867
102.035146624083 6.97412
103.052093687254 9.52261
104.048368765112 9.67165
105.033078755054 1.31718
114.033409536952 3.34219
115.05381612266 3.89471
116.050346453512 1.13291
117.056420073201 3.56011
118.064100422766 21.074
120.032117177986 0.703583
121.026441604339 10.5031
128.046829963339 0.807863
129.021338070465 1.02256
129.055607004968 0.858195
130.064239910196 50.2593
130.133147245715 1.12985
131.065268147303 2.68619
132.043507646479 7.4739
132.07632887278 2.58171
133.026971276045 13.4068
140.04660023462 0.612235
142.062841033786 9.81821
143.050473956501 0.890059
144.043588665977 0.552898
145.048751860373 0.979197
146.059519262884 11.4487
148.038083250778 33.4839
148.148696288578 0.576757
149.058122675177 1.70685
156.04162732639 0.65038
157.045767260183 0.704938
158.053446241083 41.1833
158.176209623604 0.895797
158.418764896141 0.620039
159.030880071093 1.96426
159.065967374104 0.968887
160.038106947012 100.0
160.191853156996 0.877965
160.266062817611 0.551886
160.441692178449 0.610004
160.86679352097 0.51614
161.04017544516 1.12764
170.058570077993 4.00211
171.032329142322 0.506585
172.037993873779 46.9999
172.155925645838 0.726367
173.045348149963 32.2834
173.174785612987 0.597438
174.050313078539 1.0048
176.067833338878 4.41182
186.038435018481 11.4802
187.04051713231 8.20744
188.037526252022 28.4419
188.159742261597 0.659421
188.209007667889 0.502301
200.069616377904 10.726
201.041554296195 6.48467
214.012103363464 17.4109
215.020322134695 43.9627
215.713382884974 0.586444
216.029072976992 95.9357
216.161085036094 1.75717
216.201131572109 1.06041
216.250890519876 0.727317
216.298022392497 0.572929
216.385112523224 0.528205
216.529684514587 0.764654
216.626535038122 0.532391
216.710271076539 0.565699
228.02509812728 1.80464
229.034688190238 11.4592
242.043130984922 0.957167
244.058672863118 86.1508
244.176137767483 1.43526
244.239292802617 0.611047

