>compound MELOXICAM
>formula C14H13N3O4S2
>parentmass 352.041935352719
>charge 1

>ms1peaks
60.044974027147 0.733691
115.034078764733 4.51987
141.016144079566 1.04169
148.964007568823 0.536416
170.992296892279 0.700028
183.04613291217 0.720884
263.874209171134 0.574922
273.513328458097 4.13
273.770826102152 0.533902
273.962546484157 0.615076
274.012752147352 0.842084
274.375453454759 0.53001
274.502848258635 1.1674
311.011073957447 0.524368
312.524003762058 0.917879
313.034023499844 1.58055
343.436129913039 1.03194
351.061674943812 0.774974
351.207547348435 0.719198
352.042703563766 100.0
352.298180276203 1.14887
352.489534714498 1.02045
352.659918675961 0.671917
352.736382564757 0.698567
352.831776209093 0.537905
352.90798586482 0.612897

>collision 10.0
44.9765235950544 0.883918
88.023253104084 1.66084
113.051449527999 0.892019
115.032200663288 84.0428
115.130172328091 1.60725
115.159582547398 0.93409
115.483834878662 1.11559
115.793156301693 0.876094
134.979488619175 1.15
141.013137415081 23.5195
156.054661522653 0.894248
164.990592708107 0.890205
180.256691624815 0.997327
184.056834226224 4.75251
186.019103552109 1.65091
212.04571645725 1.98625
231.995143597108 1.03202
234.509830446853 11.8088
265.01878886268 0.955771
273.510762041738 8.20805
274.010909504318 1.30409
274.668810863566 1.01776
300.017776456102 1.04069
351.073440650551 1.74261
352.041935352719 100.0
352.377093441096 0.932645
352.504759622358 1.08459
352.593989786082 1.94449
352.779576474518 1.30086
352.892838707238 1.03018

>collision 20.0
44.0509276249 0.525795
44.9807195642723 0.531271
56.9661906283355 0.614459
69.3744547054059 0.594062
73.010578069739 2.28396
114.024289370082 0.579006
115.031504918621 100.0
115.128652912888 1.31211
115.166078453051 0.833671
115.215673331166 0.801402
115.290737173806 0.624465
115.432153697998 0.68389
141.010381035831 37.0885
141.119472615273 0.593095
150.508151225819 0.848464
152.997989622322 0.67811
182.034949802074 0.947394
184.052649812346 2.86694
186.017520474719 0.586041
194.027391775759 1.7814
234.505905052422 1.96414
249.980714601127 1.93291
286.957911151567 0.585014
352.039417024992 5.25131

>collision 40.0
42.0352705564232 1.41735
44.0493643092859 0.528047
44.9795678984544 2.1112
56.9647633396316 0.924553
59.9932613306431 0.565059
73.0119768957059 14.8378
88.0218883280766 5.29346
105.035231770488 0.833947
109.011080785359 0.77032
113.014262162849 0.576006
114.015589180444 0.969576
115.032562480312 100.0
115.126926522828 1.52338
115.158868610194 0.718661
115.211286088449 0.599628
116.9685385148 0.918408
127.031531714719 0.546104
137.002636148058 1.11702
141.011654120113 32.1313
141.121925734279 0.555386
146.059260524392 0.949672
153.00066658987 3.25384
168.996013131219 0.611307
186.019120061293 0.520793

