>compound TRIAMCINOLONE DIACETATE
>formula C25H31FO8
>parentmass 479.208055423814
>charge 1

>ms1peaks
223.107769484968 0.534498
225.121121101092 0.840407
263.144636954007 0.745711
281.150615002454 0.908288
293.150793590024 1.75346
303.138867778483 0.785587
321.147738947104 2.82837
339.158207651483 1.45556
353.168464797859 0.709522
357.165596410368 0.956459
363.166535083362 0.869557
381.171182867189 3.16976
399.174845590598 3.78849
417.190007965966 1.86701
441.190885952113 17.2879
442.17049109762 0.52932
459.200703463108 20.1702
461.192609950734 1.02853
479.208531009137 100.0
479.40770663973 1.52195
479.524619507888 0.677147
479.63945896643 0.981737
479.747117524482 0.814334
479.837489553827 0.951565
480.15186781208 0.960036

>collision 10.0
43.0191103742352 1.91571
69.0298705870287 0.815039
73.0305221660592 0.668656
81.0726428914385 1.34856
95.0480846691638 3.45783
97.0288748873066 1.66384
99.2460062167446 0.750451
101.023428032587 5.05223
105.066481416975 0.786694
111.045729196187 0.942787
115.03916086538 4.12039
121.065286259971 0.681993
123.080144997514 2.04655
129.071483029391 0.800474
131.094275265364 0.920825
141.0519416797 0.75849
147.080757915958 3.88234
148.075545645054 1.04154
149.058574600688 0.686561
151.077997753465 4.53732
153.089469804514 0.748085
155.067271160816 0.909891
157.044341560702 1.12078
159.08054669678 2.32224
161.058745989874 2.12636
161.099139373528 1.00799
163.073803309968 2.34611
167.058497655773 0.684924
169.071695943639 2.06251
171.08326508997 1.55608
171.122578057679 0.787784
173.096880004917 1.07848
175.067148170092 1.08507
179.078564397118 0.821506
183.084578348937 1.3449
185.053589678301 2.56262
185.09564657753 4.20021
185.979654311279 1.07059
187.074556362461 15.0742
187.167236954427 0.653221
187.327298744074 0.593586
189.092566120774 0.658044
189.362654299354 0.657325
194.058767587631 0.993168
195.104710532534 0.610662
197.094692054396 1.09282
199.10426395444 1.31895
201.127790294688 0.674676
203.109683488068 0.919078
207.115776101273 0.875489
208.125188499853 0.592803
209.095051769708 0.722371
211.117927432568 2.15386
213.127691689899 7.62464
215.137166995154 1.18695
221.124910400566 0.622448
223.109123203916 5.28349
225.128016364988 16.4598
225.679515310037 0.810263
227.141114843013 1.43976
235.114766592413 3.3513
237.125785054722 7.77353
239.1097850299 1.18381
239.148783834698 1.29199
241.127891777255 2.6382
243.112090266194 1.28953
245.093435463815 1.29703
247.111036831904 2.35061
249.121993621451 0.683474
250.142597583074 0.874872
251.142264444636 1.64612
253.154365382623 6.8747
255.133769413489 1.45068
259.106471387288 0.61723
261.130278803385 5.68002
261.796261961204 0.594567
262.135401283586 1.33243
263.14535067546 16.375
263.220928824931 0.812686
263.300766729922 0.684742
263.788815671037 0.813501
265.163710068202 2.80223
267.134887732107 2.95077
269.140987651268 1.15431
271.098149251463 0.684956
273.098770351893 0.700674
275.142269231404 7.0019
277.128874991685 2.46125
279.137501844009 10.4975
281.154177423124 10.1269
281.25043942996 0.642355
283.157792004279 3.02145
285.135340035833 1.82667
287.972570718862 0.594728
291.134590533346 1.2694
292.999009468853 0.626584
293.150824957295 22.9233
294.150226465295 0.726126
295.129407248554 2.31159
297.142237482368 0.772244
303.138837654493 19.8115
303.237710374263 0.980907
303.715780196513 0.656196
309.152070057164 1.8842
311.165880651439 20.7306
312.176384263162 1.29753
313.093833965759 0.663915
319.136515300999 0.857693
320.4524325966 0.771006
321.149079703084 57.8265
321.391021060282 0.993675
321.725108307227 0.689957
321.948427535465 0.688739
322.193221893748 0.64317
323.150917507245 2.40187
327.164520111431 0.740894
329.173684461899 0.892
335.16171683324 3.91394
339.159370556584 48.4161
339.316030525495 0.72126
339.436753534804 0.627907
340.76206638989 0.630223
341.150363968209 1.69223
345.153953009237 1.73205
349.099741526977 0.881273
353.17420997421 12.3266
355.471472997633 0.688276
357.171156296551 15.5373
358.094481385861 0.642507
359.165219818845 0.86165
363.156317537927 17.515
369.163449347363 1.76719
371.198236856575 3.15413
375.183425110582 1.33539
381.168977135248 37.4015
383.160802241466 1.44356
387.187766429409 0.593773
399.180760999474 58.8261
399.33903320407 1.30757
400.341475337515 0.994464
400.787763229438 0.651423
400.866361919995 0.615833
401.182780958669 2.00057
410.396844784979 0.681058
417.191558753402 23.1012
417.330156186607 0.713695
417.374978709001 0.78616
423.182668043324 0.995927
437.942129677498 0.612377
441.194093432086 100.0
441.385740682374 1.77237
441.442981060903 0.823284
441.550582813989 1.40775
441.804272841558 1.46404
442.043565946885 1.1344
442.156344190648 1.17884
442.232677974712 0.852028
442.47237265564 0.703849
442.555803873872 0.75484
443.034430602979 0.82054
443.191740369552 1.87913
450.125183199798 0.652075
459.202490511494 49.4884
459.374110969484 1.39658
459.514741042469 0.891905
459.609812410117 0.71274
459.780311244286 1.30457
459.864415122153 0.770585
460.78902444796 0.619328
461.198024871384 7.24947
473.144334949258 0.643784
478.187234600671 0.954132
479.208055423814 45.9762
479.432072896627 0.859437
479.879889024444 0.770698
480.206974771412 1.0817

>collision 20.0
30.3791430575398 0.984157
43.0176942642826 14.7274
46.8063373529505 0.913613
61.0241426235049 1.24499
69.0343382112284 1.66095
81.0681637816326 1.32989
85.0277724274444 1.23428
87.0432883697477 3.94367
91.0554967837988 0.939053
93.0709614266432 3.01394
95.0488934215257 9.27706
95.076378299078 2.65635
97.0293467556102 5.78957
97.0593847210003 2.55766
99.0426076810415 1.17543
99.0720277493718 1.04553
101.022819553002 13.215
105.068155870033 1.87128
107.087777441892 3.78382
109.061850720955 3.27782
111.044585294938 1.53206
113.05756857114 0.804817
115.037596811585 6.88297
119.079738549558 1.09852
121.061814312522 7.42154
123.078630183674 1.62827
131.081073205955 1.61129
133.059710000807 2.60563
135.077546847018 3.60231
137.059275825495 5.34252
139.05443958155 1.29218
141.052847762511 3.22823
143.080783061223 1.87428
145.06784025511 3.62866
147.077247318863 26.3939
149.058181196068 2.73456
149.856828694008 0.976082
151.073466453756 11.4317
153.086995829109 2.11271
155.073568856048 3.39659
157.049614611742 2.55268
157.097565329039 1.10715
157.320214325275 0.98521
159.079592738263 7.40614
161.056202658515 7.90857
161.093893875475 11.1484
163.071307010057 1.66129
169.064497445613 3.13844
171.079767287639 10.8137
173.091901668697 9.57936
175.080550286743 0.951918
177.094625697988 0.925759
179.067276466389 3.26558
181.083587038611 1.59037
183.094349176589 2.05022
185.096097371649 7.64721
187.073068325901 25.6315
187.527306058696 1.00497
189.089441702533 2.05729
197.094340608924 5.83013
198.100029517412 0.977642
199.111547571744 7.52029
201.0874870326 1.74897
203.095680154163 1.04547
207.115994027745 1.41435
208.166231104797 0.904477
209.095340001624 13.147
211.112052809393 7.98521
212.117377575503 5.49789
213.122380360398 23.7746
215.123031746987 3.54787
215.402965719118 0.912852
217.08658706479 2.99585
218.099184607575 1.44251
219.07830668377 1.74554
221.089845918854 0.925907
222.099721217825 1.8525
223.108586510479 18.2054
224.117322444506 3.66358
224.158651034661 0.967288
225.12581061602 37.5452
225.35408346238 0.973462
225.410331525442 0.902931
225.521451104121 0.812924
227.131744502118 3.50803
231.120865914262 1.00509
233.092029554094 1.79718
235.110556989384 11.3641
235.923630966532 1.23059
236.130601066342 1.08803
236.21015397176 0.804884
237.125131436019 16.0499
237.202522297411 0.804315
237.902044704466 1.20597
239.13045340892 4.7599
240.101085031717 1.05483
241.130979251586 4.27918
242.123586195085 2.16602
243.115402762998 0.971476
245.081400022632 1.05522
245.125367981073 1.62369
247.112081998951 2.21942
249.123150796172 3.40411
250.13480115896 0.922938
251.139630089715 12.9248
253.022720001026 0.844279
253.152457670873 12.7404
255.138562046575 3.70197
257.133068814855 0.866334
258.094935428496 0.91022
259.111401207025 2.25034
260.118563108492 3.81582
261.12536367766 14.6087
262.136381320871 5.78949
263.142175442815 15.4302
264.14792371089 2.56177
265.155524930601 12.2021
265.744577885104 1.24842
266.463127219767 0.960856
267.137035857648 3.66025
268.136822308347 1.02507
269.153891946322 3.39698
273.124577833546 2.48783
275.139996507989 34.3558
275.244766478585 0.933713
275.716513739846 0.944676
277.128196072473 4.66254
278.132236035273 5.62339
279.134718931613 24.5192
281.150908515125 11.6179
283.158318056844 5.19032
285.124915795227 3.39701
288.112373275243 1.00421
291.135364110407 7.03977
293.151533225068 56.6031
293.278395659107 1.43854
294.096975967012 0.851437
295.131898783172 6.66281
297.145444495592 4.13255
303.134245823984 36.5154
305.152035531439 1.45554
307.168076574398 1.55661
309.145559095894 1.93451
311.163841292032 30.7297
319.130565112145 0.85615
321.147651151567 100.0
321.286317645775 1.95167
321.358234237724 1.3783
321.603519641905 0.960676
321.651912353173 0.946374
321.993779919033 0.809461
322.475761002533 1.08537
323.139439557357 4.12291
327.173579047922 1.31099
329.16800362273 3.43975
331.014630824615 1.10616
335.16296376628 3.07487
339.157094584731 58.3285
339.584970578387 1.73925
339.636405870337 0.885157
340.013609915868 1.04525
340.167474578914 1.09743
341.149975801654 5.75987
341.571743846929 0.80733
353.169627738615 10.1462
357.166613706187 17.8931
359.164264729105 2.71346
359.651867555936 0.904812
363.157599802144 11.7255
369.170181153196 0.932784
371.184373590752 2.21054
375.172964396737 3.55864
381.168312270285 20.9444
382.666827300748 1.17279
399.17984740983 34.3859
399.336311168589 1.29441
401.085135715589 0.854228
401.160510544198 1.38867
417.189874068879 7.66552
441.189206350249 28.2015
441.383268103695 0.841063
441.886314588186 0.865261
459.204658793337 1.1779
461.199733128002 1.12905

>collision 40.0
41.0369244466841 9.04872
42.7465815170985 2.63078
43.0190364653509 100.0
55.0192410265098 10.124
55.0543925365896 10.5331
67.0541207745728 2.91538
69.033021199756 18.3469
69.0680920380974 3.04307
71.0486317224308 7.15441
77.0377120494708 2.28273
79.0583361532693 14.5587
81.0346329797083 2.71162
81.0701781279362 7.46461
83.0480125611152 6.4261
87.045731235656 11.1088
91.054850111771 13.7404
91.17671115195 2.76028
93.0687129041951 11.0609
95.0487107167856 12.344
95.0843605073178 4.95607
97.028047383664 23.8094
97.064457784835 4.94266
99.0424257930438 8.29837
101.021407763654 4.13651
103.604902737501 2.09415
105.070105959845 26.035
105.104152605282 3.0543
107.081366012866 8.60994
109.06261532038 13.2485
111.049156728061 8.5177
115.051742915901 7.91508
117.072215961446 3.70243
119.091224492709 8.05697
119.8762804604 2.64489
121.063649111349 35.0198
122.076393474956 3.19266
123.053596774718 16.1879
125.056739273047 6.76746
127.046204536747 3.85669
129.067303774437 8.57074
131.039299447011 4.62468
131.089665842339 6.25493
133.06426302879 18.6819
133.095030607753 7.47889
135.077457277945 17.612
137.055757866593 8.7418
139.075469695654 2.08505
141.059884994299 7.85464
143.083644135433 26.0523
144.055999348145 6.62941
145.068155473136 14.9242
145.097008416821 6.47851
146.071937159407 7.83572
147.079503445199 63.0369
149.063325014752 3.65408
151.076126975004 12.6642
153.077039282462 7.7092
154.360535535833 1.97579
155.084367142703 15.0942
157.070138489475 6.02365
158.075463769297 2.68078
159.081491766049 39.2472
161.060933187314 16.742
161.097327037526 13.4802
165.070877113089 2.8719
166.070611604573 4.27291
168.057711124492 3.93743
169.069135879621 6.5719
170.877440078606 2.34116
171.079826104548 40.7965
172.091963921482 3.55485
173.09669888559 25.5247
175.072247984593 9.88108
177.086409676468 2.34253
178.078085723737 6.09325
179.086736663713 3.6151
180.09939391764 3.94246
181.102302822621 10.08
182.094793435879 7.69447
183.078244552346 4.15703
184.087626523059 3.31225
185.097887495657 15.5243
187.075608063959 20.8516
189.087131705111 5.02056
191.083269104556 4.38592
192.088186110986 4.7882
193.093203335883 8.30011
195.097810795585 7.6798
196.086838931485 6.74136
197.093026103823 29.0421
197.391297457967 2.01738
198.105166182022 3.02446
199.098120988051 3.41349
201.135565644977 3.26077
203.088642243432 4.24111
204.087504106882 3.06791
205.101663871997 5.43526
206.075427059519 4.05608
207.116589778212 12.6734
208.093981053534 4.11899
209.096466914475 18.7857
210.096660143986 18.0629
210.383375907694 2.10101
211.110616697085 29.127
212.11738386023 9.79295
213.123638085063 69.836
215.123829733091 2.38955
217.101663424935 4.43045
218.096335251268 4.57465
219.108049930536 8.85515
220.087952272371 3.26717
220.120401569242 1.9492
221.097618885896 8.92733
221.573272217154 2.79764
222.114349409301 10.8347
223.11359901814 34.034
223.18479006988 2.89413
224.124141093648 12.9111
225.128119921171 56.152
226.088444468076 4.19785
227.1152985467 15.2154
231.117858276681 3.01201
232.107870439606 5.49971
233.129254662279 14.2073
234.114335597108 6.95566
235.112540111207 39.135
237.127603464195 25.2091
237.745569723422 2.42873
238.142414118097 5.794
239.028920928404 1.97245
239.140915861937 9.29586
240.143249380646 2.1949
241.128907724444 2.48312
242.110018414724 6.78266
243.110033241172 7.54725
245.092102358799 13.5611
246.101487859191 14.3495
247.125079660959 6.63376
247.423609901045 1.99152
248.11358047455 6.18822
249.126525445543 16.5309
250.135494568796 9.56911
251.137510200803 13.7359
253.041714547844 2.79294
253.129130494648 6.62735
255.125684524636 2.70901
255.397229097125 2.53057
257.13513231386 5.50521
258.092340063498 2.15516
259.111419328626 9.73472
260.118182124959 12.9208
261.12430566344 31.6369
262.130444133599 16.3657
263.143444076493 32.7845
264.114501043167 2.8104
265.157135450506 29.8677
267.14972972314 6.52433
270.102406789551 2.53666
271.117895839312 3.65001
273.096494611548 5.06723
274.105715269064 2.41827
275.143129264676 21.9814
277.124178441922 7.50507
278.128281421445 12.3202
279.134864563347 15.0792
280.139171485405 4.04822
281.155387532851 5.30127
285.124147780036 5.83986
288.104336942697 3.06192
293.154536174281 25.0624
294.145198531092 2.01351
295.135042683612 5.50151
298.007501883479 2.39754
303.134844104548 18.7033
311.161489239053 5.32427
321.146173667645 15.8907
323.152352856793 3.0233
323.427864743618 2.06969
326.008465811886 2.4177
327.152973633778 2.63642
339.162463314142 3.17426
363.162385849855 2.87279
381.179490371374 4.21002

