>compound AMINOHYDROXYBUTYRIC ACID
>formula C4H9NO3
>parentmass 120.066437044923
>charge 1

>ms1peaks
56.0508626937782 6.04764
74.0612397333828 27.9688
74.1395335937578 0.519682
84.0455002450962 1.3447
102.055850656809 16.1987
120.06637843874 100.0
120.166178038997 1.80535
120.197724315442 0.875341

>collision 10.0
46.0302055433919 1.72197
56.0508094036942 75.482
56.1192061643122 1.25153
56.1386978918138 0.637057
57.0349614927272 8.07296
58.0661291054222 0.56822
74.0612784486822 100.0
74.139623881062 1.80084
74.1631633863886 0.785558
84.0456459280413 9.94599
102.055793302876 25.7499
120.066437044923 14.7814

>collision 20.0
28.0181384611924 1.37514
29.0386715863806 1.03169
41.0392419731501 0.507429
46.029472518767 2.49269
56.0502167024198 100.0
56.1193010467375 1.94069
56.1398789768038 0.817373
57.0340891503691 14.8462
58.0672866663521 0.513
63.9984667029712 0.861756
74.0602964399781 32.357
74.140017556701 0.596319
84.044796333107 2.78302
102.054844027973 0.840055

>collision 40.0
28.0188031032493 3.62554
28.0339719068192 0.561618
29.0386166618296 3.88197
30.0331688316513 2.85737
39.0242712634916 10.0409
41.0376474214815 2.62946
42.0340293598137 3.69991
43.018418089362 8.79514
44.0503117379973 2.88637
44.9995320230551 2.35303
45.0353614459584 16.0375
45.9886588665436 0.948949
46.0297277228772 7.04836
46.9950827835466 2.91019
48.9752034868252 1.60467
56.0505575533483 100.0
56.1029693943431 1.76387
56.119428158623 2.04516
56.1371551614426 0.851432
56.1733074678864 0.504349
57.0345676600032 15.5309
57.1144202289201 0.664692
58.0303477334452 0.667676
58.0647375092667 1.68169
59.0386411652792 1.10972
63.9985628112862 1.79718
68.996763639302 0.771965
74.060660078252 2.62957

