>compound Fisetin
>formula C15H10O6
>parentmass 287.054969265272
>charge 1

>ms1peaks
287.054969265272 100.0
287.205278128854 1.65657
287.26449324941 0.93973
287.370542158828 0.61569
287.50284886368 0.67729
287.66204859373 0.58755
287.764053202642 0.540246

>collision 10.0
287.051994829275 100.0
287.20417738386 1.59569
287.263916714016 0.678368
287.37651886577 0.532091
287.505088559904 0.597906

>collision 20.0
121.02859909069 1.52885
137.023775351619 3.60611
149.022603414016 1.86418
185.055832491227 0.832156
213.05293176459 2.72047
231.063866517759 1.16713
241.048293430319 1.69866
259.055187587902 0.693409
269.041948396598 1.25479
287.054358254962 100.0
287.203957316325 1.49718
287.254101948433 0.77798
287.322223625581 0.620592
287.478067868483 0.546249
287.595222563125 0.546182
287.68691025463 0.61101

>collision 40.0
41.0393644974626 1.56188
43.017562943189 1.48392
53.0399546616069 3.2183
55.017970183814 4.97899
55.934173207257 0.605099
58.0654828482792 0.511334
61.0096525724944 0.508458
62.0244394902103 0.799832
63.9972743865243 0.656263
65.0390714694344 9.78677
65.1630618691354 0.671728
67.0548500180945 3.79085
68.9967544439858 11.3061
69.028445525392 1.86348
69.0538768596936 0.525298
77.0380968095416 5.01859
81.0336259309227 17.9747
89.0334024322934 0.715182
91.0548358814986 2.18857
93.0338736049403 12.4717
95.0503861969785 5.21416
105.032191506481 2.39206
105.066940060416 1.37001
107.012048666565 0.991106
107.048676317972 1.87151
107.087416593288 0.614671
109.028444819576 14.3554
110.038684695551 1.10673
111.040384099558 1.98911
115.055182023214 2.52562
116.058490735559 0.533464
117.029094958983 0.578565
119.010709324958 0.718418
120.020689384333 1.34499
121.028296513254 32.7495
121.127113681689 0.735763
122.042318130047 1.62858
122.084276098337 0.50373
123.044254249342 5.45753
125.019864066072 0.52656
127.052238596382 4.50515
128.060820696722 13.0463
128.118236466959 0.575288
129.072058524495 6.7093
131.048650734904 1.25673
133.022960489074 1.06063
133.066921751783 2.82388
134.035062797274 0.841386
135.043684964085 0.785679
135.079266676932 0.823034
137.023042330704 100.0
137.129379872205 1.75055
137.162823606562 0.761042
137.217550965136 0.66513
137.299357194649 0.895423
137.401187994582 0.915257
137.526866180442 0.510645
139.053737207512 10.8121
140.068029578448 0.87461
141.073986769667 1.70215
143.046663072519 0.771531
145.063923135106 1.12644
145.973380048921 0.561731
147.042519118964 3.18136
147.075557654388 1.75605
149.022322376289 17.2876
149.090179681878 0.621282
150.029349874784 1.53934
153.065541750579 0.725513
157.064397381672 31.415
157.148436825382 0.555464
158.033796836583 0.537837
160.050436235199 2.07479
161.057820799766 3.69097
163.039418079478 4.1807
167.047011937178 6.85392
168.055499949517 0.789563
169.064858543077 1.41772
170.033346340882 0.699012
171.044777110741 3.59105
173.065766952816 0.612755
175.030318266277 1.8502
175.070720128127 1.47105
177.026960875502 0.715411
178.028956327446 1.17968
183.039322383113 0.716503
184.053686629116 2.6878
185.059792354708 28.2994
185.148218114481 0.707856
187.039910478035 3.05527
189.061225597706 2.5446
191.025145643795 0.600681
195.049673054208 3.53955
197.057790011406 0.865809
199.098119076088 0.623954
202.026122645526 0.569895
203.073736179923 0.810652
205.052329674005 1.64698
212.042048495704 3.26981
213.054721175939 52.8394
213.169395948527 0.712744
213.234371899703 0.707015
213.560605289626 0.551319
214.009253459088 0.760027
215.030240444034 0.720864
216.04112689108 2.61269
217.048747123107 1.11068
217.772616798639 0.5597
223.037478354338 4.81236
229.046064495689 2.24505
230.05554682851 1.47213
231.067945036047 4.18234
240.047788325638 1.30305
241.047855861201 10.7577
242.055281760606 0.831118
257.051057987307 1.18814
258.05121138713 6.19262
269.045933554541 6.13548
273.94938561994 0.638518
280.957186836436 0.549081
285.035342148674 0.665837
286.042266588159 0.513956
287.055184542568 9.66343

