>compound OLEANDRIN
>formula C32H48O9
>parentmass 577.33825539171
>charge 1

>ms1peaks
69.0354911551799 2.2853
71.624613128379 0.962951
113.060286104613 12.6237
139.074787060627 0.507344
145.08601743635 10.0737
337.223420492373 1.14441
353.207057951388 0.708284
355.231483565797 4.05816
371.213927569733 0.713905
373.235619252406 22.8822
374.241323134138 0.592037
415.25237888706 1.20178
431.265800772355 0.538068
433.260166274347 46.91
433.53171711099 0.531689
433.908440219873 0.552373
434.269871398897 0.550913
434.6246173926 0.505773
485.284771074415 0.545666
499.311336665295 0.77999
517.322211970079 17.0396
545.317843590846 2.5175
559.319213283515 0.578811
576.891031988547 0.622038
577.33825539171 100.0
577.595297933726 1.19738
577.708118651586 1.06773
577.788875764456 0.741619
577.879210488906 1.39505
577.992561427759 1.01368
578.091013858458 1.09777
578.181033918966 0.69583
578.295748008494 0.528453

>collision 10.0
45.0335202860869 1.73714
67.0530607462825 0.835038
69.0345179985412 19.4247
69.077260498025 0.608601
77.0607936539055 1.37826
85.0643985810784 0.986465
95.0487332256385 4.3671
101.058854649219 0.603787
113.059770704437 51.9472
113.159494623729 0.620911
113.194324969827 0.556026
113.408823642327 0.524879
114.919001696125 0.557619
127.079365360142 1.24821
145.085892867956 36.1583
145.191085179106 0.569887
145.226935207614 0.526749
146.244365255475 0.624992
149.056709044339 0.538989
233.190009057421 1.74923
247.126485152122 0.634808
255.141846132165 0.661923
273.159782063122 0.597508
306.212088386744 0.570368
337.216030973035 11.466
353.210176145228 1.24019
355.226122229696 27.9163
356.523942512112 0.568142
371.215493192555 1.66301
373.237643005072 100.0
373.398562583285 2.08282
373.458471496052 0.963987
373.504647717968 0.658175
373.549605100621 0.579158
373.714865593338 0.848049
373.903655306297 0.610943
374.057897776958 0.657634
374.126015995319 0.539789
374.238632795712 1.05936
374.357540213722 0.520349
374.43696746668 0.57324
375.322429236939 0.551552
377.275705938081 0.657698
379.22760881416 0.526443
415.244630113376 2.20353
433.25713218268 47.9339
433.444154156666 0.772252
433.718815146024 0.557455
433.777098541863 0.562257
434.06743131183 0.643509
434.59856286087 0.657896
460.19689215358 0.719855
467.29004492852 0.6053
499.310897861343 4.74651
517.315746192588 27.6932
517.559496619636 0.516889
517.769654129386 0.50394
518.061909496659 0.557868
545.296842740025 0.574337
559.313884496835 1.78801
561.912884418201 0.52318
577.33416731287 7.89148

>collision 20.0
43.0167985514577 2.77988
45.033144489071 1.75731
57.031735048086 1.73403
57.0687006545837 1.30927
59.050276027994 4.67662
67.0530533508567 2.2436
69.0340704997365 58.6833
69.0914348808093 1.16617
69.1096086635862 1.31219
69.2254931730843 0.876151
71.0492520009391 1.80538
77.0587423844374 0.818177
83.0485432694021 0.780544
85.065957749779 3.78145
87.044256030627 2.43152
95.0484616701513 14.3124
101.05759793515 3.11101
113.059911377322 100.0
113.132685488128 1.5042
113.167101003004 1.09819
113.2381568777 0.631568
113.273626367106 0.698178
113.325307841587 0.924869
113.358967805832 0.857742
113.430943303779 1.24767
121.099583843613 2.29192
125.056819301815 0.751507
127.075012997535 11.5606
129.096855172988 0.864988
131.086308172922 0.693044
139.071553852435 0.631965
145.084993965752 71.5483
145.190603493226 0.969126
145.232769244868 0.768124
145.273044845191 0.695336
145.498440438915 0.916083
145.64545836337 0.87807
145.930814920376 0.702285
146.009352601702 0.630975
147.117811685217 1.03852
159.116163646594 0.724752
165.053877885641 0.727953
171.11174167953 1.55882
185.140031605089 1.31401
201.119406824296 1.16255
213.157096067464 1.88303
215.174202315985 0.940101
217.334121357674 1.06173
227.111455975079 0.898221
233.194162654419 2.32086
241.115920132161 0.871772
243.122512695801 0.65158
247.125041324171 1.57884
255.13423026332 1.60896
283.199110266395 1.36413
293.227398952518 2.40579
309.215574804138 2.24718
319.203223117561 1.49927
327.214094426045 0.725246
335.192530057449 0.864655
337.213611992944 38.1589
338.154064455374 0.624603
338.221604930687 0.745357
338.996610521655 0.881947
353.215624314718 1.02517
355.227296440053 63.4831
355.359565685193 1.64213
355.514159574364 1.04765
355.934060212371 0.790999
356.065692581357 0.821202
356.489294888243 1.54037
356.781237112871 0.75529
373.237357101211 97.3536
373.422925802769 1.48907
373.477667041525 0.78765
373.709322793094 0.878549
373.812926890854 1.00453
373.925486993768 0.847145
374.521331029066 0.651975
397.224909892473 1.01888
415.242743507475 2.61629
420.24211497176 0.649041
431.253075524576 0.831754
433.261550587138 5.27069
437.346387916231 0.91184
499.302714058873 3.03799
517.317104441321 8.95764
577.162267323969 0.954396
577.309262157926 0.647226

>collision 40.0
29.0363424195391 1.07453
41.0383031285475 1.3616
43.0189089838442 11.3437
45.0336304400717 5.43421
55.019543043897 1.64373
55.0569567443655 1.49639
57.0340062960374 2.63855
57.0696572997044 3.8919
59.0494630532138 22.9451
61.0295565023949 1.01269
67.0544729977774 10.9782
69.0344630702179 99.9305
69.1096074320208 1.34573
69.146215391977 0.817273
69.2593891916212 0.843206
69.3058899788057 1.1654
69.7292002747347 0.745476
71.0493274948945 7.53658
73.0292235115743 0.823122
73.0695223208934 2.98086
79.0545179241012 1.86803
81.071193320087 3.0902
83.05187689148 4.0337
85.0667696080248 7.61659
85.4409511211755 0.915372
85.682010323352 0.902717
87.0440997583139 9.65921
91.0514218971862 0.968052
93.0704611357997 2.3156
95.0499259550027 55.2015
95.1371359235878 0.982275
95.4073534092487 0.766005
97.0627696010316 0.866369
99.0790177460382 3.45573
101.058065854239 7.72766
105.067541857194 2.34456
107.084454011746 0.851898
109.058789847665 3.91537
109.09428274833 0.892536
111.085700563866 1.09043
113.059708405358 100.0
113.120770229148 2.32261
113.155394722201 1.4358
113.181958005368 0.78817
113.450785342888 0.76342
113.978416852824 1.19947
114.068042459695 0.977679
119.083815054589 4.6132
121.100807658566 1.73081
127.073859741287 10.8
130.076070748234 1.40351
130.162113251317 0.786017
131.081358517908 3.91297
133.10020719568 3.55403
135.111913984774 0.927278
139.037397969284 0.872668
139.068377123823 0.731042
143.078628982917 1.1843
145.087352148307 13.9972
145.320438363695 0.854169
147.118930441928 3.63663
147.779049888516 0.745126
149.132930745318 1.84161
151.076432237235 1.02589
157.096003348179 1.11107
159.121131894769 3.13778
163.099687168433 1.33981
169.096739755171 1.72854
171.083983243225 0.800851
173.087153629185 2.39934
173.137376994777 2.01159
175.071091217296 5.19365
175.143631298595 1.8538
177.095787844786 1.60378
181.091068758884 0.943237
183.122714830708 4.97085
185.135424568021 2.25154
187.133257904505 1.34728
189.088556785749 1.93114
195.113802900593 0.821608
195.518977664055 0.745126
197.124925334784 3.4979
199.153195045717 1.27833
201.083595309284 0.845474
203.108480599545 0.910962
211.133766314485 3.48992
213.122906935913 1.57857
215.171395353167 2.10193
225.157348259506 1.22023
227.109368832606 3.96916
229.117402472141 4.18496
235.150694801641 1.41934
238.177608050573 0.781474
240.178827341344 0.988815
241.119971922101 3.9656
243.135686416755 1.12323
243.674133231535 0.764436
251.184318619873 1.81305
252.201012330216 0.904497
253.112845638643 1.15585
253.198446659384 0.859761
255.141941692463 1.47612
259.123923609718 2.10114
277.193418722613 1.43439
281.15093070837 1.5908
281.222710072715 1.83561
291.210659365447 2.33872
299.172478275612 0.779202
301.195769052109 0.978516
309.220940034677 0.905874
319.212823696862 2.23501
329.189705668126 0.915799
337.217624180543 22.8811
337.337884000212 0.908799
337.99810286467 0.772671
355.22753920245 10.4523
373.241804447403 1.33032
376.488569465962 0.809126
577.326126245687 1.1208

