>compound CYCLIZINE
>formula C18H22N2
>parentmass 267.186419413631
>charge 1

>ms1peaks
167.087517541599 21.3951
167.204500337784 0.732979
267.186419413631 100.0
267.333643937652 5.20033
267.388728916914 2.22826
267.494104252519 0.94213
267.534643011928 1.05194
267.58877185882 0.690788
267.652949669204 0.642767
267.691281340739 0.651669
267.730795512998 0.602197
267.808579632102 0.537815
267.846129500355 0.518276

>collision 10.0
99.092372089954 0.90366
152.062249033819 0.688042
165.070042821573 0.786357
167.08416244138 100.0
167.203557749437 5.70042
167.242408271674 2.68364
167.301692320502 1.01723
167.330280222322 0.955554
167.360928110145 1.17916
167.406203307858 0.623361
167.454642342977 0.56083
167.48665630799 0.574677
267.186078085037 8.8848

>collision 20.0
152.0635879426 2.64608
165.071617164847 3.40622
166.079320070687 1.05584
167.085676439585 100.0
167.203376382272 5.46274
167.247585667186 2.33661
167.330610577838 0.947314
167.361586359276 1.12852
167.405072793018 0.635702
167.455885368964 0.573329
167.486424728211 0.600758
167.518824043013 0.557642

>collision 40.0
115.055977108304 1.30513
128.063782313793 3.43462
141.071624396251 4.03314
151.05598823355 7.34956
152.062281079452 100.0
152.175696890531 4.07714
152.212223036955 1.87875
152.268001427735 0.668266
152.29544682917 0.610958
152.325275966858 0.654059
164.063564801455 0.602918
165.070540510402 95.8539
165.186706841918 4.00323
165.226328599682 1.73168
165.283855084069 0.642474
165.314111511523 0.609495
165.343670439082 0.638382
166.079743916529 31.519
166.196628133619 1.02358
166.236080806692 0.542137
167.086290835985 81.9452
167.204234831078 3.46429
167.243954349869 1.50109
167.331033802887 0.566525
167.361886391722 0.640729

