>compound ETHION
>formula C9H22O4P2S4
>parentmass 384.994591115821
>charge 1

>ms1peaks
35.9109347608378 0.626997
46.9901059014778 0.61678
96.9542143643176 1.18537
124.980399708425 1.65769
128.288936451311 0.615933
135.037511288395 0.821333
142.938384447459 1.99768
153.007808083139 1.46392
154.97451816055 2.0916
158.977734155362 0.671483
170.967315124498 6.86029
172.080429229314 0.612359
178.141894419188 0.6715
184.977748310439 0.736476
191.10586516494 1.52798
193.148373691377 1.33465
198.99926291225 62.261
199.13811381327 0.656498
215.032016743654 4.26208
230.981966683696 2.93821
258.275705387874 0.635983
292.964966998968 1.15313
305.994726022293 1.03615
307.053100012904 0.760998
307.146250502358 1.23545
307.855885526381 0.599586
318.94933316519 0.840586
336.036630476682 1.3447
339.007071432765 2.00665
384.030800474661 1.24503
384.192133938003 1.97048
384.251131569798 0.925147
384.308549173557 1.18548
384.579190311656 1.11916
384.771504786939 1.27958
384.865650646914 0.626944
384.994591115821 100.0
385.137436709842 2.22598
385.24063159268 1.43356
385.29745754413 1.10535
385.417415833385 1.00153
385.54946871415 1.28336
385.645046101987 0.633289
385.685157783057 0.917927
385.784103213882 0.875642
385.851606240107 0.868741
385.933929453738 0.722748

>collision 10.0
34.42322560726 0.761354
75.0244812001753 4.54448
79.0201523421025 1.1573
92.0060397702378 0.865878
96.9497657148592 6.4598
124.978347744274 9.96701
126.945860718591 1.28512
142.934969044201 28.9308
143.021392750132 0.699235
143.050758718437 1.2203
143.072269580135 0.675756
144.929093064398 0.737064
153.012529814393 18.729
154.974729844368 3.3888
170.914384736326 0.803939
170.966783626574 48.7737
171.051619000492 1.35383
171.091814654507 1.03488
171.575419128744 0.777116
186.135466545434 0.985116
198.998671503072 100.0
199.163128859519 0.759946
199.210847401052 1.03015
199.297279037054 0.930934
199.357510465811 0.810934
199.812910723628 1.18527
199.884861646773 0.675649
200.198756678214 0.896556
201.423099214275 0.789136
207.115755780901 1.95449
215.025945848547 8.7144
228.965297964313 0.680333
230.970067318336 6.7696
237.880317299296 0.762057
261.017555691515 0.88988
276.947942920522 1.08649
289.023966622241 1.25589
305.063606612513 1.99753
306.959403197703 1.19214
307.144560247922 1.00054
321.913651952756 1.12608
338.998903658777 1.87329
367.152460664613 0.710986
384.992022467866 3.46225

>collision 20.0
47.3668188326489 0.933549
57.0658764274217 0.991005
64.977270106459 2.1512
75.0217222068763 1.14292
76.6910570305401 0.930507
79.0208046261874 1.26983
96.9482518644538 31.138
108.074594672855 1.37917
124.97995767118 36.1161
125.748237852264 1.16482
126.940240879424 1.10903
135.084279119266 1.70794
142.935581691691 100.0
143.045837929215 2.07684
143.224392905909 0.933572
144.932681731883 1.13854
153.010663902005 32.7498
154.027442460222 1.11475
154.313399339061 0.880206
154.969544476867 2.23321
155.071688981326 0.851217
158.967104043333 1.11577
161.006494499605 1.23452
170.967741252788 55.8887
171.10112095989 1.01812
174.910968465631 1.20179
191.987774519797 0.960584
198.997280893681 22.4314
201.726046230424 1.12582
202.944052599776 2.12625
215.024632702433 1.7501
227.927022905443 1.43626
228.962989413571 1.6522
230.967287641291 2.78246
244.849063781442 0.970335
249.535252782905 1.24388
305.059902244301 1.37751
306.063416848508 1.24394
320.928118489514 1.02847
357.827068965155 1.16635

>collision 40.0
46.9945694905915 23.0365
55.7632669274534 1.95838
61.0082670277281 1.26667
63.0236842269036 2.41514
64.9794958316303 2.71659
70.0626276394139 2.00123
78.9408641842939 3.08002
78.963386334154 2.71597
96.9495512545533 100.0
97.1879604059352 1.35227
97.22736018006 0.841598
97.268405331661 0.816316
97.3630805242606 0.858705
97.7438328081387 0.834368
110.970118853604 0.894568
114.960434729211 1.14738
124.978577262417 6.18811
126.939538603617 1.30773
128.916716425827 1.62189
136.058627962306 1.15738
142.937053119925 54.9451
143.673565022942 1.00212
150.087326813644 1.08741
153.006945239671 1.84664
166.843059379297 0.838057
174.905070386381 1.39664
179.974749761515 0.952784
184.854545856202 1.81688
188.839646271195 0.967124

