>compound DIURON
>formula C9H10Cl2N2O
>parentmass 233.023859610691
>charge 1

>ms1peaks
46.0650697495577 0.992736
72.0444260298416 1.66896
232.036803251704 3.74823
233.023638155547 100.0
233.163657669338 1.28939
233.204329935914 0.767125
233.300221524737 0.6857
233.419778785129 0.514782
233.486075695797 0.661409

>collision 10.0
46.0657464893761 24.4391
72.0449416157676 43.2736
72.1212482416928 0.816954
137.004282147299 0.6204
150.94722203307 0.527805
187.969614617782 0.626847
228.959344507811 2.80361
232.03890744995 9.02905
233.023859610691 100.0
233.163023026861 1.32387
233.201825936108 0.816606
233.257050108139 0.684094
233.309010269904 0.520118
233.344602240348 0.512843
233.394117433152 0.596044
233.534508933619 0.6726
233.657408395314 0.811196
233.714633269084 0.587229
233.753529872463 0.509007

>collision 20.0
44.0488176847226 0.850643
46.0651743147496 42.1188
46.1133343628788 0.645205
46.1278714555959 0.753932
72.0435361600468 100.0
72.1210796760383 1.74256
72.1443691574789 0.991984
97.9948086755327 0.657154
98.9850174029977 0.555785
129.987181303873 0.515264
150.944304019884 2.75041
159.969966064823 3.35911
186.978975082527 1.42483
187.966426356983 1.75808
215.01082124478 0.713777
228.957928039339 0.882137
232.03264620817 1.15938
233.021544102259 4.61615

>collision 40.0
31.0406032011018 1.0502
44.0502679657602 1.37709
46.0654191781623 21.6975
56.0126134846298 2.6965
58.9897781800116 0.724332
71.0591534424311 1.98357
72.04450529204 100.0
72.1230867635885 1.89835
72.1478505319928 0.936096
72.2276849548695 0.51977
72.2642153375318 0.609583
90.4878918048943 0.763331
98.9883567968114 0.661454
108.983602515639 2.80585
118.919494267143 4.29606
123.990260639534 1.49515
125.003426623661 2.13821
132.962085569567 2.53933
144.957838032326 4.03669
145.962904092796 0.502353
146.959767533759 0.719446
150.930662585045 0.586268
152.016144263532 0.584028
159.971846274231 3.42062
186.983452311608 1.37706
199.987847507642 0.787093

