>compound Nimodipine
>formula C21H26N2O7
>parentmass 419.184803087752
>charge 1

>ms1peaks
301.085721795449 2.09574
343.131775398856 100.0
343.297829326383 1.54781
343.432449072304 0.656229
343.526600580494 0.587173
343.61016199641 0.611455
343.685764001068 0.594293
343.758067025318 0.520913
344.145506214493 0.526894
359.127288974287 5.01352
418.177080444464 0.815515
419.184803087752 65.1493
419.367937195063 0.928962
419.775326796356 0.551996

>collision 10.0
257.091706181779 0.561739
301.080706017051 8.64615
343.127568607551 100.0
343.29479050485 1.48953
343.351747601946 0.779317
343.527935405751 0.510543
359.122041009698 13.3737
418.17068431567 0.75515
419.17894281357 4.53342

>collision 20.0
183.103538889065 0.523301
209.083351908362 0.560358
210.087905068088 0.830723
226.089314302597 0.921363
253.076795676577 1.25504
254.085731982694 1.65253
255.088715722361 4.01306
257.0919924336 3.44747
283.075095024343 3.54355
284.080981567279 2.52945
301.083532885658 81.8683
301.23826170912 1.19297
301.294632279781 0.531393
301.553523494325 0.512435
317.081159387849 0.602441
318.081732706704 1.17294
343.130784352368 100.0
343.378583334112 0.750241
343.419856786093 0.509347
343.598745000961 0.704523
343.788584967703 0.515446
343.901930611546 0.575388
345.107538820894 0.587861
359.125899434092 26.3126
376.124582565177 1.99218
377.127853550195 0.593006
418.162422271522 0.631181

>collision 40.0
43.0550344827662 1.22324
59.0498761653506 5.83167
67.0192493214978 7.16654
118.041661059462 0.650989
126.055254823104 0.889005
130.037968980735 0.564113
140.062444630219 0.5648
150.019287233834 2.82713
150.053920569261 1.62123
151.063970383292 1.19382
152.068138026605 0.986462
167.075400042901 1.32738
168.079778709711 18.513
169.081481229392 0.899005
170.065599411918 0.572884
171.102360672146 1.75719
174.057717651889 1.19123
176.03593061336 3.43472
180.080907767272 1.44615
181.08915235809 3.37632
182.098440434569 8.14091
183.105038599747 12.0906
184.084851228804 0.699534
186.057755283963 0.560548
189.067384010751 0.564744
195.069780565017 0.662964
196.076773094516 2.11391
198.094398780261 2.08343
199.102797144976 0.838182
200.038768572791 1.91221
207.068713285378 1.16584
208.07449321627 2.48181
209.084832964138 11.5937
210.091574131174 22.1038
211.099742159883 6.06696
212.073404024792 7.44899
214.086900719588 1.13207
215.098603785153 0.896547
217.064791341152 1.30443
221.067689780137 0.60895
222.067437619827 0.667647
223.089724960269 2.5787
225.074282994479 1.81471
226.088153340005 19.9403
227.093536334188 6.00185
228.077866031297 1.18907
235.066513354932 1.37853
236.070850677704 1.96996
237.078921105623 4.29673
238.076881885538 1.33563
239.076686795625 2.48913
240.088749113776 6.19848
241.07357475177 0.843883
242.079834467938 4.60927
243.093124034113 0.857571
253.074718319774 24.3796
253.256856459565 0.532242
254.082717399237 46.9685
254.605832262383 0.514792
255.0900878582 100.0
255.284587025464 0.997745
255.42626837443 0.864335
255.495499935067 0.688484
255.614464015285 0.615488
255.718555580206 0.960821
256.091926882794 3.88384
256.158778548731 0.557241
257.093288075022 4.012
266.075974863798 0.9405
267.077002469534 2.70411
269.055627568176 1.01886
270.075118514952 1.48752
271.08124051531 2.31555
272.086818818419 2.70575
273.087113245712 1.65943
283.073879348195 15.8209
284.080137217439 29.638
299.066929288664 2.68899
301.084363960335 75.1566
301.23726600266 1.02446
301.287944508831 0.725868
301.601062665761 0.740361
302.013211147146 0.536966
317.079698665879 1.97247
318.082970782448 3.81101
319.080519412284 1.19423
343.132695539555 0.945032
359.123324671604 1.37146

