>compound BEBEERINE
>formula C36H38N2O6
>parentmass 595.281757477646
>charge 1

>ms1peaks
595.280853326965 100.0
595.492784026619 2.49713
595.568782252322 1.10869
595.693614657593 0.726936
595.79304385089 0.707484
595.880070714997 0.712676
596.012080053227 0.686545
596.127048159858 0.63254

>collision 10.0
595.281757477646 100.0
595.493632197465 2.5311
595.573613397357 1.09307
595.787905348482 0.658257
595.855447375857 0.598487
596.015641286889 0.631767
596.106938453393 0.59411

>collision 20.0
298.137504130356 0.766905
552.23113603989 0.66675
564.231149762955 1.46849
595.274507705167 100.0
595.487664411623 2.31792
595.571019179312 1.11908
595.684424543938 0.635371
595.791091349779 0.59059
595.864474616507 0.538237
596.026841564087 0.554512
596.278484625401 1.22661

>collision 40.0
44.0487396546561 6.91215
58.0643455036918 1.53937
107.047009519282 1.5282
121.063773067985 1.03507
137.057494819215 0.717044
144.078070891586 0.914262
145.069439930454 1.40454
146.084166680194 0.811109
147.07701566439 1.45841
158.072241682154 0.637045
159.07762534175 1.3763
160.074745693546 1.18639
161.081586997453 0.911742
162.090138262318 1.86812
173.080572369962 1.0466
174.089091345328 9.25857
175.09474905914 2.83015
176.104458179049 5.49789
177.079019972453 0.901502
178.082536236235 1.08979
188.105061146882 1.09739
189.097835581281 0.680508
190.085821835669 3.21768
191.090973758492 9.67847
192.097924143174 2.83812
205.107508188596 0.574571
206.078010967729 1.06658
207.07991000736 0.517696
208.093702104142 1.19364
229.084330545114 0.793636
235.083451312337 0.612701
236.112647767913 0.668975
238.092451276841 0.53071
239.085543923614 0.537643
240.075468107113 1.48462
241.083080814675 1.31521
243.0997358492 0.673188
250.094939005166 0.592355
251.087579461735 0.55175
252.096820964037 1.23844
253.084320547305 3.92581
254.088845491708 2.37816
255.100268924302 2.11994
257.114745218958 0.96908
264.09307169546 0.709639
265.090721746134 1.87352
266.105767286252 3.30434
267.10032736976 5.92889
268.107742351741 1.02377
269.105622856403 1.36903
277.083367017215 0.637668
278.101139168295 0.696769
279.102063879168 3.4496
280.107230392943 1.69812
281.102597275208 2.56248
282.101890056987 1.62496
283.118156895069 1.60036
284.126677392007 4.50871
291.101101247453 0.528355
293.114013857856 1.82419
294.113306785709 0.591146
295.117925981753 4.2328
296.125310152639 2.49376
297.134489853273 41.2366
297.287945976064 0.629392
298.142194220488 47.345
298.294243175114 0.811229
299.11540810712 0.811761
308.12342045559 1.03775
310.141608798318 3.06545
339.166702547734 0.93317
345.14403593355 0.629766
357.142659624001 1.0773
371.129430405044 1.017
372.135312186282 0.526053
373.135713648329 0.707915
375.127299538482 0.714915
383.128624826789 0.631039
385.145965490387 1.74881
386.17171912149 14.5214
387.158277500918 1.69493
389.139044853179 0.789131
396.142044359172 0.61739
397.152093264905 1.42028
398.151595546955 3.932
399.156405630249 1.74146
400.168697660836 2.14557
401.151338019902 0.769364
403.156693432929 0.814464
409.143555348878 0.614494
411.158858423843 1.35137
412.166965723648 1.94128
413.168085271612 0.71532
414.162972146476 0.809486
415.157556851921 0.585478
423.158437807732 0.705909
424.164615117716 1.56906
426.168891319829 0.953559
428.184347987983 2.49196
429.189204488048 1.30411
430.195367974554 1.43242
442.195319345404 2.22205
443.182139561772 0.52313
444.177884175978 0.512451
446.189533756442 0.533172
457.202596564315 0.741066
458.184980223016 1.98463
472.182487512103 0.600153
473.206173400381 0.998925
489.213112084636 1.07526
501.17394008656 0.751625
503.181044600432 0.760509
505.186241111153 0.629425
506.175204209717 1.19028
507.179051359201 1.17777
509.195903473434 1.51457
518.17986642851 2.17057
520.200925640523 1.60558
521.195450573297 15.7107
522.200407424486 0.600614
523.209050213761 1.10952
532.209400285703 2.44031
533.194625715019 14.725
534.204547600273 1.07469
535.208672509957 4.55202
536.20790834982 0.947536
537.212281498075 0.731228
538.221993653593 0.522163
547.213620904696 0.78159
548.207286409572 2.32985
549.218104530077 2.52661
550.221857048541 1.06871
552.238731963483 23.2439
553.225958166893 0.638548
562.230799848021 0.500642
563.248284849135 2.51909
564.237796342327 46.804
565.230263545212 1.13632
566.254259644337 2.15674
594.273106899237 0.584843
595.280609122767 100.0
595.566924932656 0.980181
595.695315194503 0.795355
595.795115718496 0.725293
595.860806114688 0.702156
596.113545417346 0.739051

