>compound SINOMENINE
>formula C19H23NO4
>parentmass 330.168536109765
>charge 1

>ms1peaks
330.168570353839 100.0
330.330186919056 5.51243
330.398702804355 2.41399
330.509275222157 1.15232
330.554568220099 1.2734
330.614907809113 0.86088
330.687553095558 0.791065
330.729734400686 0.796842
330.780114096881 0.743161
330.85969395101 0.651071
330.963512269706 0.581997

>collision 10.0
58.0657839128902 0.519212
330.168536109765 100.0
330.330818843989 5.64406
330.400079228017 2.42951
330.509637791673 1.16737
330.554771501922 1.30718
330.616144723103 0.85943
330.686342147193 0.789902
330.729454595221 0.783033
330.769682137454 0.755771
330.861406234282 0.642245
330.9016148924 0.612708
330.957397611915 0.59708

>collision 20.0
44.0498044660519 3.50468
58.0652851243875 4.96953
137.058244270441 1.03052
151.073496768465 1.27349
181.062979476895 1.78746
193.106121973357 0.659202
195.078306930775 0.918562
207.047405249068 0.998258
209.057534021617 1.62517
213.088845705121 2.37357
223.073224079868 3.7072
239.069236493143 4.5594
241.084217591479 2.60913
245.114805096226 0.609144
255.099612026022 2.08539
270.146483782595 0.673361
271.095095451129 0.51944
273.109546824695 0.630616
330.165250579253 100.0
330.330481524638 5.14059
330.397814480498 2.21284
330.509302708627 0.929229
330.553968860401 1.0989
330.628956849962 0.680257
330.729434182027 0.635098
330.81261052594 0.561837
330.86546679907 0.527249

>collision 40.0
30.0340242431987 0.784921
41.0391609173443 0.571679
42.0348061159236 0.688272
43.018646240244 1.31417
43.0420045279024 1.23724
44.0503035447247 100.0
44.111610346882 2.65772
44.1287601408446 1.13822
45.0342677134244 2.25711
55.0183638465408 1.09217
56.0504367235982 2.01276
57.0340867528349 2.50936
58.0658016394714 78.8013
58.1352944645476 1.79277
58.1579378204709 0.722883
59.0496740990484 2.68504
60.0816744495272 1.42445
61.0291707106049 0.516937
68.026116402572 0.641673
71.0499588944605 1.20236
77.0387177557613 0.786646
83.0493257367561 1.65418
85.0289719794878 0.635817
91.0544529135047 9.30475
93.070027741985 3.14055
94.0474568449492 0.703881
95.0498041625315 0.647077
96.0809870645676 2.78082
99.0440969960057 0.718071
103.054551192944 0.913631
108.058092951181 0.965308
111.043705144544 1.0996
115.054045514831 2.17418
119.048872322117 2.39247
122.036011903849 1.3896
123.080431747184 13.3442
127.054151880978 0.925318
128.062010856652 0.639263
129.070213056398 0.711356
131.048922314264 0.953852
132.079663373535 0.600871
135.103386057645 0.695843
137.059564605738 17.7583
139.054324728946 0.839158
140.061665586817 1.86217
141.069463520687 2.13653
142.078996779685 0.674057
143.049253324757 1.1375
144.057707778038 0.984568
145.064965162982 0.920165
150.090996482161 8.4839
151.070628203949 7.57537
152.062034123917 12.1263
153.069688693181 43.9961
153.180891182101 0.8455
154.076431028203 0.871197
155.080296846184 2.38681
157.065598853053 1.21221
159.078159282858 1.33626
160.070704136434 0.64711
161.06018386162 2.16892
164.082968953986 0.929055
165.069704401683 13.0089
166.077207153094 1.42287
167.084810985634 7.55021
168.057207702654 17.8702
169.065792264653 2.18064
170.076238896224 1.89785
171.079076866511 1.42538
172.051562988847 2.20639
173.06023751793 1.79299
174.06862016624 0.933844
175.075170470996 1.47914
176.065393049215 0.692484
177.069933834212 5.59147
178.082208172048 7.00606
179.082002567543 10.031
180.057217945034 8.42344
181.064850695038 93.1992
181.185486141116 2.07801
181.225353269983 0.938536
182.074863502135 4.4076
183.077579249131 5.9089
184.055133756126 1.20641
185.09162523128 2.49864
186.066578649664 0.804569
187.075255534659 8.41509
188.083329436894 0.631474
189.072266610497 1.59326
190.079832013201 0.788117
191.084356194539 2.09885
192.068900325316 2.07969
193.064997934914 8.82906
193.104308694475 3.8699
194.074149759434 1.66435
195.080184734635 29.5619
195.205488610283 0.541077
196.056371224127 7.5417
197.073933250174 3.48097
198.068535290919 9.12663
199.075527257477 4.52185
200.080663159526 0.52096
201.077033582363 1.37429
205.064796643937 1.94417
206.072946183864 1.66111
207.045325093038 74.0752
207.173068335975 1.66405
207.214307970384 0.855178
207.249534170985 0.552232
207.27949861119 0.505852
208.053391266314 5.70513
209.060130902592 21.5092
210.073435125122 3.26908
211.075601026079 24.8945
211.205047096088 0.50627
212.082384847275 2.94971
213.090779859574 15.2463
214.074203181279 1.26784
215.079380604829 1.88938
216.084027984343 0.945702
217.068195471423 0.8122
218.073931759066 0.656914
219.081186819749 0.884885
221.068213686476 1.54363
222.07000683636 0.947302
223.075413914437 29.5419
224.075583343386 5.65173
225.085019677098 3.99903
226.069565631035 3.89047
227.078637852862 5.37035
228.093318868172 0.89911
229.107015869193 1.66962
230.098282507267 2.97301
231.101355927637 1.27074
234.069053123251 0.956662
235.075132820932 2.33753
236.084138605735 0.857629
237.089082182502 1.65149
238.099959212517 0.684553
239.071292451572 29.6384
239.205136633399 0.564573
240.089966379528 2.6182
241.08618793791 13.1983
242.09986348405 2.25188
245.117192269553 4.2072
249.090136443657 0.820221
251.072450303845 1.37915
252.079679431652 0.968578
254.099974485263 1.12213
255.101163612612 3.52207
256.081523010926 1.13102
257.109230160866 1.11966
258.089547340327 0.663093
266.099363698828 0.672228
267.101764902489 1.05925
269.086745540703 1.0647
270.145114859353 1.07578
271.102052934521 0.519438
273.112157224788 0.692334
281.116693555154 0.536404
300.121443009541 0.550489
330.170384491883 8.36483

