>compound METHYLTHIOURACIL
>formula C5H6N2OS
>parentmass 143.025959529
>charge 1

>ms1peaks
84.044199871275 0.812231
101.095588438754 0.590783
102.00649821392 1.5081
126.000985168605 0.545176
142.036761964328 0.833027
143.027795729176 100.0
143.133936381021 1.60134
143.168548588874 0.741022
143.248980058417 0.505928

>collision 10.0
42.0339845406391 1.05821
59.9902010744462 0.946786
84.0442992298722 13.4138
85.968890030315 0.627018
125.999726800963 14.7148
143.025959529 100.0
143.134057502027 1.68099
143.169680657987 0.795287

>collision 20.0
39.024037023084 0.99672
41.0405406513955 2.61491
42.0346589468486 27.0062
43.0190096245961 2.87055
44.014598986795 1.20439
56.0488842892538 0.587256
59.9906240104151 26.842
60.0418458282928 0.513129
67.0193117622228 3.31042
68.0129369380634 0.603982
69.0091107869814 2.4409
71.9904536520707 2.40699
84.0449498867098 100.0
84.1286001601053 1.4378
84.1584946999268 0.615396
84.2041068642829 0.599887
84.3091773789557 0.547577
84.359197753594 0.555915
84.412866553163 0.504975
84.9788548128335 0.602945
85.9699215895897 23.6256
88.022969544938 1.08668
101.006020292359 3.16891
109.039977395145 2.22633
125.016834662781 0.831274
126.000885511605 66.5837
126.101900975675 1.01169
126.142772102557 0.555971
126.375465960479 0.632353
143.027473195714 39.0835
143.134883629426 0.514594

>collision 40.0
28.0185693042269 0.794512
39.0233290724312 7.97382
41.0411067668569 2.39515
42.034845156916 34.7227
42.0958987132488 0.726413
43.0199606322524 2.1505
44.0144311002641 8.27997
44.0506041747792 1.48102
44.074257436024 0.500825
44.9804849044742 2.068
54.0334099755323 2.84877
56.049576879644 1.17585
57.9755037670093 1.9375
59.9909333661133 100.0
60.0611340640638 1.88509
60.0808079374847 0.932845
60.226630009991 0.530978
60.3222775048115 0.640005
66.0353754806827 1.6808
67.0178883243705 11.6226
68.013272631881 1.79576
69.009062264899 12.4952
69.9749089571013 1.28371
70.9952112315144 1.57568
71.9907802617538 37.9124
84.0440482723757 9.16056
84.9764661053651 0.752668
85.969606625203 45.9641
86.0430243281859 0.675641
98.00584076489 0.789091
126.001037604781 1.27414

