>compound PHENOLPHTHALEIN
>formula C20H14O4
>parentmass 319.094795818834
>charge 1

>ms1peaks
225.055515346379 3.76381
240.986808494816 2.15943
319.098083361704 100.0
319.258982977171 1.76423
319.310856327031 0.830337
319.386459917749 0.616207
319.436429050757 0.585221
319.486130085651 0.554283
319.60624882986 0.599541

>collision 10.0
162.972217879612 1.65804
225.053151882607 30.2304
240.986400604445 1.63329
319.094795818834 100.0
319.256365633199 1.48372
319.309503827042 0.823294
319.391721595198 0.511073

>collision 20.0
105.034098474156 1.23982
141.070567288289 1.28759
153.069315273295 0.543132
162.973678968433 2.31646
169.065727879975 0.678956
197.060362465573 2.3426
225.055137144448 100.0
225.189028205592 1.54699
225.236048777946 0.760837
225.294136957984 0.596336
225.357036079625 0.576415
319.097085138962 15.3096

>collision 40.0
55.0190389234309 0.736614
65.0393658091429 1.66155
77.0388744180522 28.0096
84.959329697888 11.607
93.032651587196 2.72302
105.033429255235 56.3275
105.129215835595 1.07518
115.054068350054 25.1104
119.013509753605 2.31239
121.027915899452 9.71784
129.036861588679 0.70765
141.069469077515 93.6044
141.176575530285 1.4104
141.225494935662 0.598698
141.304924462757 0.594356
141.39281834397 0.538012
151.053771598473 26.6391
151.137631120797 0.601758
152.062087435864 19.0025
153.068337209126 10.8177
155.051072137326 0.534337
168.057782490731 5.31436
169.064159612865 31.7794
179.049856054078 11.003
181.064709717625 2.7715
183.043447243898 3.37087
197.059051961951 69.1231
197.187242487529 0.954065
197.232924561256 0.592629
197.545164665659 0.584599
198.063491253957 0.718869
202.077033729108 1.1976
207.044938870311 3.11345
225.054319058228 100.0
225.186147896809 1.19189
225.240689324577 0.79128
225.360671717209 0.821136
225.458461831397 0.519254
225.595850007538 0.791747
226.076783074958 3.34193
227.086590468289 1.24843
229.099265863811 0.528363
244.093295889682 0.526033
245.097368550181 0.698983
255.082396012621 5.24129
256.081168589649 0.786097
271.075251029155 1.47731
273.090226563731 0.606504
283.071262343539 0.787166
284.080149258287 1.87297

