>compound PREDNISOLONE ACETATE
>formula C23H30O6
>parentmass 403.215141263978
>charge 1

>ms1peaks
147.081872060977 1.12681
265.160001501414 1.00674
279.175234296542 1.58996
289.162012360526 2.12849
307.170323436759 6.36137
325.181927706263 8.28847
349.181604926094 0.834083
367.193291616296 5.31914
385.20478212871 33.6755
403.215141263978 100.0
403.523870178899 0.723621
403.586581435283 0.570675
403.675088815262 0.789696
403.748699650829 0.612135
403.793659692793 0.53746
403.935632594009 0.620384
404.155002215563 0.642512

>collision 10.0
43.0182524193244 1.85499
85.0631260318159 0.799282
93.068915241981 0.779716
97.0666648532172 0.592784
101.021917262143 3.70746
107.083641123529 0.850916
121.064299245282 2.21553
123.080600382068 0.579111
125.055719786723 0.525248
131.086909482751 0.559941
135.080400268075 2.46092
135.114115168589 0.551847
139.072282611535 0.824652
145.09938505536 1.49593
147.079797925603 15.9585
149.095688156644 1.11922
159.077175284425 0.799009
161.093676789038 2.58436
163.074694679552 0.6028
165.088368509576 1.42168
171.079914232604 4.40502
173.09504371523 5.24459
185.092559922182 1.67019
187.109882329609 0.969127
197.093536211791 1.58734
199.109326485043 2.25413
209.091810967473 0.885855
211.109759446003 1.58547
213.123954192318 0.904484
221.093545960823 0.95789
223.11102233811 6.4564
225.128122224532 2.07376
227.139672300591 0.736102
235.113865859456 1.03632
237.127338213453 6.14276
239.140979406169 4.02741
247.117245214619 1.05119
249.128312690611 1.28104
251.137265528123 1.04643
261.130080385027 0.923195
263.141805991952 2.80384
265.157248432885 6.16924
267.173048852116 1.19634
277.160132381801 0.633848
279.171148433981 14.2154
281.151050372239 0.660015
283.170230708375 2.14298
285.183371791046 1.12519
289.156917012143 20.628
297.183429933139 2.65983
307.168418694493 42.7404
325.178434427515 32.0911
343.186677328977 0.96097
349.176615111156 4.03687
367.189325551607 19.4511
385.199194135254 100.0
385.380374046989 1.45909
385.435443061834 0.839503
385.571128730035 0.675517
385.642712961592 0.614055
385.807116981695 0.653713
386.020047408513 0.651915
403.208416104051 17.1129

>collision 20.0
43.0191606309446 23.826
43.0617491502848 0.556919
55.0200661162271 0.658612
55.0557292083078 0.509947
61.0276602018143 0.684077
67.0536671169777 1.05914
69.0348932421892 0.786238
69.0699862700848 2.74058
73.0298634836483 4.46047
79.05300524403 0.690348
81.0720646108264 3.23512
83.0488824117122 1.07328
85.0676803373164 2.50722
87.046643420645 1.36826
91.0553982986562 2.58378
93.0686114511117 2.3216
93.7112026496916 0.638747
97.0638093675769 2.40368
99.0449324432582 2.46023
99.0793536493112 2.01803
101.024006791616 16.7883
101.056747457702 4.80895
103.039420321519 4.29713
105.069243032764 3.4161
107.048697529901 0.901653
107.087342233064 3.00897
109.065092072377 2.89193
109.097213777566 0.95253
111.045595540362 0.692118
111.080757264894 1.21957
113.063171007038 0.72496
115.075575192763 1.29865
117.067032561159 1.21293
119.04786722663 1.6764
119.085622917997 6.00648
121.064634923987 22.8194
123.08199827614 2.80765
125.057064309014 2.7708
128.068074207593 0.608699
131.086786546209 2.83388
133.075431586174 4.65903
135.082332335244 19.6868
137.097076080142 0.675075
139.07703630502 5.666
143.086369479078 1.83376
145.097132771525 2.53599
147.080817595494 100.0
147.188926943344 1.33052
147.22214166541 0.652638
147.260775847303 0.60182
147.377222381586 0.739438
147.527953666101 0.525151
147.640112256 0.529122
149.096216073211 4.29779
151.07552739947 2.82773
153.086153648855 1.23899
155.086705435399 1.35819
157.097832179801 3.03385
159.079581219505 5.06464
159.112836253413 1.86797
160.08655460756 0.540042
161.09782424816 13.2092
163.07492792307 4.25025
164.074603417505 0.66935
165.091118567528 9.6757
165.152196274869 0.684293
167.103051394379 0.70068
168.088215923262 0.5009
171.081086884806 34.3532
171.197673868865 0.58397
173.096291694379 32.8436
173.210627005817 0.604371
173.270483246231 0.539196
173.535534242248 0.516251
175.112272772799 2.49373
177.089400322119 2.616
177.12490214157 0.793187
179.101494976897 2.33492
181.092288753194 1.52356
183.087248168542 0.990887
185.09238006851 8.7205
187.110507969113 3.83589
189.098929015809 1.38051
191.10336107995 1.78381
192.095730308481 0.537298
195.08420178735 2.06853
196.089010084587 0.672075
197.09606856628 6.58391
199.112788271868 12.7614
200.10794103343 0.6091
201.087149467579 0.641645
201.130764032603 0.692537
203.108519628345 0.978285
205.097148057103 0.653731
207.112149239925 1.67559
209.097916477749 6.2525
210.101886577207 1.05028
211.110387297525 10.9143
212.116897183433 0.658522
213.127573600388 5.59973
215.114419771263 1.18803
217.123263615406 1.58206
219.114539794796 1.56872
221.096874006772 4.89008
222.099989699088 0.923096
222.146116143721 0.508937
223.113731142101 26.1174
223.251008455579 0.961558
223.377653868312 0.713492
223.430983331732 0.595662
223.748035805417 0.508653
224.122483947309 1.04563
225.126197645607 12.9628
226.140382995706 2.89791
227.135270714865 3.14411
228.115240139025 0.883843
229.154206969886 1.07228
232.097343278883 0.639106
233.100273662909 1.0581
234.107424316269 1.71857
235.114886171429 7.50687
237.12757821944 27.3668
237.754981495059 0.501515
238.125104998781 1.03529
239.144479447463 31.6463
239.284569334734 0.567366
241.155737692365 2.3534
245.101883010322 0.640749
247.113364408858 8.58283
248.122367312601 0.828019
249.128056068807 6.7572
250.131855053907 1.06572
251.139298446279 3.85562
253.127721871788 1.34216
255.141707131693 0.811098
259.108730232991 1.63538
260.118214036322 2.30582
261.135537037078 6.16032
262.131968591302 0.526938
263.143716132525 14.2356
264.156403386433 4.08394
265.158710074655 33.8034
265.301703323467 0.602009
265.71401151692 0.517135
266.166733216551 5.63955
267.169077134897 1.98588
269.118389604477 0.945764
269.193637693134 0.750671
271.150147832335 1.39225
274.13311922725 5.31949
276.149746028989 1.09629
277.163208247457 2.75557
278.157552803818 0.651634
279.173029014128 24.4074
281.149605561244 0.961679
283.172390720427 3.54522
283.235085758034 0.629387
285.189277647659 5.03417
289.160260327979 62.1492
289.309182091893 0.857985
289.431860870429 0.638776
289.643032487869 0.536865
289.759512188387 0.581861
290.069836573996 0.736861
290.817141884806 0.570058
292.138354519581 2.02135
295.164831613854 1.02903
297.190489130824 3.62511
307.170290554788 62.3076
307.31760052352 1.07243
307.377890834719 0.706188
307.662432893614 0.938937
307.758449013823 0.53054
307.814393353399 0.584167
308.164584533732 0.775318
325.183679926625 23.4004
339.193363980266 0.777123
343.192418215471 3.00023
349.184005862847 9.02775
357.197184095465 0.619626
367.194976762385 7.36754
385.202896043307 47.1698
385.414610383131 0.729085
385.582820169342 0.740352
385.77766183277 0.572744
386.003638793541 0.647377

>collision 40.0
41.0405925362723 1.44436
43.0184578409171 42.1616
43.0531048067243 2.87759
55.0189788079525 2.79627
55.0556695342675 2.83817
57.0360669061653 1.00626
61.0277108030023 0.620142
65.0377273353342 0.543567
67.0552652119762 1.50678
69.0327100275764 1.10457
69.0739620878448 1.16589
77.0385887251709 4.96704
79.0554990823706 3.57773
81.0710174325956 6.14021
83.0481030643933 2.30601
85.0687180164885 0.884582
91.0546357582924 14.9982
93.070663646322 8.27407
94.0393467327619 0.547923
95.046897087462 2.04689
95.0851793620607 4.42414
97.0660592662488 1.89302
99.0422283282279 0.579246
99.0786642034592 0.553913
101.022453729276 3.77253
101.059063037997 1.59503
103.050908005806 1.7086
105.029650179102 0.643489
105.070076835059 12.6422
107.047068584453 2.58586
107.087192300385 8.99991
109.065223010425 2.47947
109.097159921211 0.71792
111.081500873305 1.0843
115.054705156196 2.60288
116.064038238639 0.949382
117.069855565846 3.96863
119.046480892345 1.00596
119.085931136333 19.1787
121.065294657965 55.3192
121.1664721967 0.787121
123.078809697934 0.89744
125.055850459689 0.807117
128.06052580475 6.40722
129.071493602734 5.28431
130.080805197977 1.66171
131.083818954055 8.01016
132.05755431947 2.20634
133.064696746341 5.22927
133.104161322307 2.70612
135.080152975438 15.6177
137.05647316807 1.04365
137.093479197905 0.826298
139.0786715447 2.56361
141.072749802678 3.13644
142.079856342878 1.17855
143.086325564038 6.55106
144.056705438715 1.23418
144.088942024346 0.850963
145.082531741843 9.01909
146.080304496778 1.43558
147.080041127234 100.0
147.190905888312 1.41494
147.262215337697 0.764109
147.338887351025 0.840926
147.383284240835 0.624957
147.482636057431 0.706924
147.847055269948 0.679654
148.075901042439 0.505756
149.093857378297 1.72024
151.067409967561 0.814605
153.069873812615 2.78743
154.069684570315 1.00288
155.085325713673 6.04167
156.091432695776 2.13945
156.130166493266 0.572198
157.100922334644 3.897
158.073504723174 7.30964
159.081862191114 10.1177
161.095715721105 8.06739
163.075994959144 1.18845
165.080480811161 2.5035
166.079307646295 0.923051
167.088585684215 1.74376
168.090925554505 0.531988
169.102949915603 2.58294
170.075543540181 1.34897
171.080873166213 40.5343
171.194892674216 0.702029
171.393216736488 0.587711
172.004377861451 0.525913
172.084278569286 1.26328
172.922459245061 0.519855
173.096331120982 26.8191
173.206286188144 0.547721
175.111014855455 1.49207
177.08635730236 1.72227
179.089245934793 4.82451
180.092354795107 1.85461
181.059809397327 1.19295
181.099964138369 1.48565
182.07140802413 1.90309
183.083261851386 2.83633
184.088019380364 4.52471
185.097202317064 6.05777
187.112403791269 4.03476
189.082012813927 0.629913
190.075747244912 1.18863
191.084399735292 1.93556
192.095296556148 1.52683
193.104731897184 1.18361
194.108956162383 2.59855
195.087854291852 5.85817
196.088525163117 4.51972
196.142832371063 0.533257
197.096987022415 10.3283
198.099646063848 1.28152
199.111399221193 5.96277
199.185572933655 0.541109
201.106058248968 0.694748
202.072377460558 0.560992
203.091889225856 1.09576
204.101681477439 0.782238
205.104414946228 4.5457
206.104714627594 1.94113
207.093424057967 1.25059
208.089282466311 8.75646
209.096867706551 10.7078
210.10116171699 7.08952
211.112652651816 4.95487
212.119467105597 1.11718
213.127943801636 2.66536
215.089759444933 0.987133
216.09380367018 1.35502
217.104772824709 1.34497
218.1138579036 1.94192
219.105188437789 1.34448
220.084673329327 1.72189
221.096924585755 8.84051
222.102782212428 8.85908
223.112547312725 20.2453
223.930019812997 0.501756
224.120881573463 3.84084
225.131221663015 2.60125
226.134474693785 1.9218
227.139410336735 1.58146
229.100744674721 0.57642
230.107814124471 2.1061
231.111316378581 3.04548
232.084126735086 1.56749
233.113677524299 2.1294
234.10541688345 2.95754
235.112113768597 3.13996
236.124121274175 0.793994
237.126856413648 11.5772
238.138803370123 1.42174
239.142391407153 11.7051
241.155006954923 0.911771
243.110621705575 0.910772
245.11124665588 2.34241
246.104809238208 2.73099
247.123612066217 2.63446
248.119386013369 3.26673
249.129756666304 4.15931
250.142842654228 1.30559
251.145087708601 9.61767
255.110852707546 0.930149
256.125182089938 1.64706
259.11354419648 6.62302
260.121987875571 4.2187
261.127645011301 3.23238
262.132256119877 0.604556
263.147558417638 1.19587
264.145958405931 2.09776
265.159832531749 5.0693
265.213890848317 0.850318
266.165206243075 1.35527
267.158736119347 1.13459
271.155047600397 0.785222
273.130366890644 1.80708
274.135887606156 4.39334
276.146174009249 0.810571
277.152644749163 0.773367
279.16853990664 1.97334
283.18097189866 0.710744
287.14768126778 0.582209
289.161349564159 5.01662
290.164709965898 0.671769
294.159385879488 1.44108
307.164532160012 0.975869
325.179455123359 0.544473
385.20175039749 0.894923

