>compound VINCAMINE
>formula C21H26N2O3
>parentmass 355.201510656075
>charge 1

>ms1peaks
337.196636104073 1.48938
355.20587519965 100.0
355.36875769904 5.65113
355.449969747263 2.54441
355.604164178605 1.4186
355.671191753025 1.04551
355.783322370977 0.971757
355.826500760405 0.905566
355.88186352301 0.826046
355.960097935409 0.755173
356.010284279597 0.719854
356.092481289155 0.648658

>collision 10.0
294.149756197637 0.509135
308.163761485151 0.599097
337.191500853037 10.6748
355.201510656075 100.0
355.36922372429 5.76227
355.450297097065 2.80287
355.555359338301 1.31894
355.601927957253 1.51178
355.66798870965 0.966266
355.739143623009 0.92895
355.783324515426 0.926671
355.825107051969 0.863437
355.870114332081 0.773306
355.918877771183 0.752344
355.96231313807 0.698602
356.002140168988 0.672528
356.044756794987 0.622985
356.107671532453 0.578986

>collision 20.0
144.082529529913 3.35447
152.108761948542 0.809142
194.119515255155 0.715016
212.131171826723 3.65556
250.161472765488 0.577515
267.129319712053 0.503726
268.136846973532 2.10803
277.173294624347 0.742955
280.137368036064 5.49175
294.153337790939 6.90644
295.184465268097 2.93203
306.153187646797 0.592081
308.167347852526 8.48761
310.184599399984 1.71128
337.193786443244 87.4071
337.355301326883 4.23738
337.422429726234 1.83091
337.538853256072 0.779676
337.583797711319 0.869795
337.636868541396 0.628218
337.679358008127 0.580888
337.759842508561 0.576245
337.805835985105 0.540971
338.185623351712 0.68089
355.204764121807 100.0
355.369529920611 4.96334
355.440733455387 2.16593
355.557624691088 0.973042
355.60485930994 1.06758
355.658633936796 0.778153
355.738484264724 0.722232
355.784182327191 0.696694
355.845444346089 0.659696
355.964945065097 0.582373
356.045730885852 0.511522

>collision 40.0
30.0347329430852 0.689508
41.040366889986 0.571815
42.0354055194893 1.0093
44.0510561067045 11.9897
45.0348836095705 0.610553
55.0192922398721 0.605599
55.0556531458841 2.03211
56.051116002354 4.35456
58.0667216784025 1.59593
59.01456095874 0.712517
67.0556618698536 3.53423
68.0511281165684 1.77533
69.0662664742813 0.542274
70.066802127768 11.3945
77.0396319741066 1.146
79.0557428793888 2.52914
80.051583010684 0.869148
81.0709679109099 1.61062
82.0668024172737 1.03382
83.0508298399343 7.19271
84.0822302238406 1.96886
91.0558295374027 4.29259
93.0712629656769 4.50308
94.0668959250058 1.19058
95.0868760809762 7.18294
96.0822213213974 1.7948
98.0980526619804 2.03227
103.055537259199 0.703491
105.071395822005 3.79411
106.067157353249 1.25009
107.086950211866 4.41148
108.08236849471 2.38829
109.082881191627 1.01798
110.098063746889 9.99711
111.105894485438 2.15214
112.113808588225 2.67004
115.05513212076 1.6834
117.070998582541 5.52905
118.066624645565 0.976437
119.08402537131 1.10552
120.082499562471 1.24662
121.067227493674 2.21633
122.061923497867 2.29153
122.096918735913 2.41473
123.084121847122 4.54526
124.113254218994 9.74791
127.055876283074 1.49549
128.059813038119 0.78866
129.071262123439 1.4235
130.066934516869 5.21734
131.075986318871 1.25584
132.082151316743 2.16616
133.067166071385 1.54365
134.098280866761 9.02482
135.083371776615 3.09652
136.089028713221 1.20618
138.127058926419 1.00571
142.068258273894 0.559763
143.075329192576 3.82732
144.083046432729 93.7025
144.191162042511 2.74086
144.227642118571 1.1181
145.084423117787 0.712272
146.097724493109 1.47151
148.086448280633 0.629525
150.094268361332 1.13953
151.077137714508 1.36481
152.109118243406 28.6739
152.220086309885 0.576086
154.081127087481 1.30217
155.076220164859 0.829517
156.082599205042 4.21103
157.090517143286 1.18459
158.09806961914 4.6292
160.109469700366 0.965094
162.093378181166 4.38845
164.109169058026 1.04294
165.084869538941 0.855856
166.078092893359 0.511606
167.075558284323 1.8885
168.08310894529 3.24031
169.088841062224 1.63545
170.090568054407 4.20225
171.094943624299 1.22173
172.11100396898 1.82713
174.093812350404 0.787471
178.078996389518 0.768389
179.086677829597 1.09199
180.084566044015 4.92451
181.091606193731 3.98887
182.098152620837 4.0621
183.102097017164 1.06207
184.102388691465 1.71616
185.112566851724 0.535769
186.100119493731 0.941642
191.077841123339 1.57857
192.089040730237 2.3619
193.094765361931 3.13788
194.111214357215 5.56368
195.105647960125 2.30756
196.111145756435 2.68781
197.112334193197 1.14
198.125243190291 1.85586
202.089250915248 0.816214
204.084921932104 3.93886
205.091594631814 5.31891
206.099866177891 9.02471
207.10983981766 4.85207
208.11470442793 12.8736
209.121654366395 5.38961
210.129332478606 3.25668
211.127661525845 0.582063
212.13094554789 13.4516
216.100646047176 0.730078
217.092462532277 1.97511
218.10004375603 4.11717
219.106543615205 7.6795
220.114920686622 11.6221
221.122105029934 6.56628
222.130648324753 11.7382
223.134180657597 2.60729
224.142757780518 7.69663
225.141266841201 1.00142
226.12428478072 0.649796
230.102238851804 0.520661
231.107871052094 1.23191
232.114590089736 3.04717
233.11758988246 2.62602
234.130823112881 20.2728
235.137305773129 4.85503
236.145081416404 6.20176
237.137646307447 3.05367
238.103888705812 2.96594
239.097430595225 7.03872
239.148685349236 1.63259
240.105590353643 1.37929
245.128788035118 0.675563
246.13077930549 2.46006
247.126561248438 2.11595
248.144198891196 11.0431
249.148118930917 6.88114
250.150991994021 5.65373
251.098053827709 3.79052
251.15631260218 0.993718
252.106964785817 6.95718
253.113431322175 6.28045
253.167487676259 2.53402
254.121742494939 1.53031
260.146345549321 1.48982
261.146233305221 0.667873
262.13076703533 2.98961
263.149643236972 0.671995
264.106379914513 15.1152
265.113919637275 27.2645
265.258811577209 0.553171
266.122854110799 19.7418
267.129579489481 19.5816
268.137242088501 21.3799
274.125532636933 0.536839
275.122696404188 1.32994
276.127692665192 2.92649
277.172760059616 7.35057
278.123696364747 11.6728
279.129494869603 25.0229
279.278263784485 0.53377
280.137946106325 100.0
280.286769962513 3.23225
280.33883732493 1.3615
280.447565674377 0.640721
280.492062422046 0.674972
280.530892835398 0.543965
280.575596024148 0.529511
280.614866464241 0.522584
280.652286224669 0.546479
280.693008676782 0.516257
281.143571257359 1.58388
282.153218946691 2.68438
290.121895838055 4.0499
291.129428301043 4.35781
292.137055867663 13.4991
293.143693676423 7.76542
294.153683958189 89.1012
294.306406448545 2.58183
294.356610504899 1.07305
294.402410903768 0.646873
294.47479626698 0.527999
294.516768320282 0.532382
295.184477241995 8.85508
305.166704212513 1.48892
306.153215832737 2.4429
307.149028837871 13.5885
308.166581738678 40.7505
308.319261927683 0.851128
309.164557664594 2.22483
310.183876234892 0.947155
320.16890214135 2.32573
326.178678924115 0.695212
337.1961095097 34.7496
337.359657074954 0.662854

