>compound CHRYSIN DIMETHYL ETHER
>formula C17H14O4
>parentmass 283.098424501969
>charge 1

>ms1peaks
283.100733918114 100.0
283.251016133186 2.05736
283.303250434142 0.975287
283.438773882925 0.511617

>collision 10.0
239.070780535695 0.773721
268.074328917112 1.97398
283.098424501969 100.0
283.251104194655 2.17955
283.301765894481 1.01586

>collision 20.0
225.057552466159 0.584075
238.064900821761 1.11559
239.072865639585 5.45344
267.068700622223 1.81545
268.076023439991 21.414
283.099968300786 100.0
283.250207534807 1.95172
283.302121008061 0.884192
283.354843690726 0.590424

>collision 40.0
65.0404752184739 0.759016
68.9980182657724 3.22607
77.0396036923272 1.1552
80.02725824723 0.8104
81.0354323730003 1.42686
93.0354147917094 1.11323
95.0143067639995 3.09883
103.055448880632 3.00986
105.035455897186 3.09786
108.022203690055 10.4583
109.028865802545 1.19509
110.038063171433 1.23111
115.054277303492 0.74979
120.020782191716 0.828458
123.009461577636 3.01233
129.034730310913 6.58981
136.016507399623 6.50049
137.024605703943 16.5202
138.033428590653 3.99946
141.07144261419 2.13763
147.043672885182 0.668698
153.07074272966 2.82239
154.078036548462 1.37554
155.08308465039 0.656605
165.072042498554 1.33959
166.028028647414 2.77159
169.067372381884 0.753703
171.078596736251 0.603238
181.065940593073 2.36168
182.074339205361 0.54365
183.08352354498 0.652673
192.058356020952 0.628602
197.062264669642 0.822176
210.06975320345 8.30766
211.079116944381 3.14298
212.086039398046 0.53025
223.076708911091 0.901597
225.057833732075 21.1655
237.057413862897 1.41088
238.065621884721 14.5488
239.073455774673 100.0
239.210615866428 1.61439
239.257192065394 0.759131
239.300662489857 0.6345
239.348270930948 0.608709
240.081556624567 4.06705
252.044873337529 0.974312
267.068821345756 18.8839
268.076436329494 15.0403

