>compound KINETIN
>formula C10H9N5O
>parentmass 216.08769487109
>charge 1

>ms1peaks
81.0351071145009 1.18011
137.003878388574 1.0067
148.063452116346 1.35282
176.010869455475 3.01058
176.512049216591 0.784952
177.009317793905 1.24075
216.089944789626 100.0
216.224052016866 3.60558
216.269499337636 1.52456
216.332789202231 0.598799
216.366874210697 0.548544
216.402643112169 0.597799

>collision 10.0
53.0395998793894 0.702634
81.03428269977 36.2082
81.116792409955 1.0398
97.995587546799 1.18257
136.061545254654 0.677291
137.001948799916 2.10978
138.000076308605 0.613771
148.062066574484 23.9757
148.173117697664 0.530367
173.069570686278 0.943756
188.09326588745 2.69557
216.08769487109 100.0
216.221827219493 3.62787
216.265428253717 1.65528
216.333413564993 0.585699
216.400601824098 0.614472

>collision 20.0
53.0401084417308 4.07231
81.0342188237476 100.0
81.1169695621243 4.41839
81.1426668173866 1.66189
81.1669437350701 0.741718
81.2051696303396 0.509599
81.2261436789443 0.642602
97.9964108191912 0.995572
136.062889105646 1.54673
148.063619855979 12.6696
173.071465818742 1.52589
188.095293396926 3.4899
216.090583567328 5.06644

>collision 40.0
51.0245162172887 1.09471
53.0402406843236 69.1204
53.1071624751386 2.02733
53.1270301712282 0.847841
58.9893789372603 1.25735
81.0352957295267 100.0
81.1171571209574 3.63903
81.1433504464142 1.29238
81.2261163843388 0.524057
92.0266083987432 0.695534
94.0415162923073 0.664304
119.037165867702 4.76417
121.052187112766 1.00292
136.063438565764 0.866821
148.063285037379 1.55927

