>compound GUVACINE
>formula C6H9NO2
>parentmass 128.070452934058
>charge 1

>ms1peaks
128.069050520551 100.0
128.173493605394 4.29627
128.206206659629 1.84037
128.258827898166 0.629535
128.283841823676 0.591192
128.310719445611 0.66598

>collision 10.0
30.034075300641 9.41973
99.0441370815034 0.732086
110.059529289043 0.842944
128.070452934058 100.0
128.173983503489 2.87933
128.20589113107 1.15741

>collision 20.0
30.0338034774763 100.0
30.0837673957625 1.9101
30.0979636010584 0.778876
30.1090251675882 0.510114
41.0383192209481 0.722329
42.0345403877613 0.585405
43.0182381386936 0.729876
43.0560389796038 0.989992
45.0352805783319 1.06762
53.0390449462527 20.6545
55.01667563566 1.33083
55.0544554391742 1.31033
56.0500166877015 3.15532
65.0372194226805 0.856378
67.0492152299076 0.550853
71.0491627046361 0.57154
81.032611120641 9.61876
82.064851753463 0.63288
99.04314443402 9.23013
110.058129627659 2.73146
128.068735777404 61.0294
128.1733495601 1.09962

>collision 40.0
29.0067346786106 0.718927
29.0389883815176 0.551423
30.0342252480292 100.0
30.0707161484566 2.14038
30.0843227380192 2.17803
30.1009330757019 0.916655
30.1388245060345 0.607797
39.0240136503398 1.89186
41.0399510366731 5.38307
42.0343723818019 5.65787
43.0195513271419 6.78971
43.0450380269732 3.65381
44.9976961759527 1.83779
45.0340317631555 15.8617
45.0699059900613 0.630597
51.0234352218197 1.88771
53.0396468781898 36.9726
53.1628503203131 0.557455
54.0398785826598 1.20124
55.0186001794138 4.03445
55.0584172797351 1.45342
56.0510802565085 8.78557
57.0371545347065 0.673034
65.040815481531 2.2928
67.04247774846 10.0287
68.0508953562473 3.99671
68.9993092155726 0.551855
71.053607830368 0.988157
80.0507856892524 2.20027
82.0651608239896 5.44277
123.706988351296 0.580899

