>compound 5-NITRO-2-PHENYLPROPYLAMINOBENZOIC ACID [NPPB]
>formula C16H16N2O4
>parentmass 301.117952066295
>charge 1

>ms1peaks
91.0546536729338 1.71046
117.068988684559 0.560516
283.10640381034 2.05852
300.189892860197 0.700481
301.118022268042 100.0
301.269502227169 1.67704
301.336641184291 0.856514
301.436050673936 0.640199
301.499687877322 0.520792
301.541887123228 0.505269
301.664952192387 0.52906
301.755391654521 0.501779
301.910616154127 0.543804

>collision 10.0
91.0543387333835 22.7816
117.069376489494 6.32372
119.085668904248 3.46794
165.028415744793 0.62468
175.049516744937 0.996928
179.044591455758 1.03771
183.040253337041 1.89537
265.095869595678 1.73005
283.107580030611 25.3547
284.11376152158 1.47111
300.190847209208 0.526079
301.117952066295 100.0
301.273464191155 1.64931
301.322188023821 0.794758
301.420192098284 0.59878
301.480535303099 0.505333
301.530890672293 0.544074
301.621273803915 0.556125

>collision 20.0
65.0383065391803 0.940551
91.0532031256921 100.0
91.1405389834755 1.85057
91.1671976104639 0.775978
117.067742918781 12.6676
119.083467320794 3.39731
165.026376133857 2.33449
166.035629819147 1.57315
175.047331982137 3.39924
179.042323754071 2.87978
183.037830445529 2.4145
205.058946865756 0.782805
219.09872311582 0.709692
237.110360283814 0.561789
265.094527406657 2.83716
283.10369224198 10.9962
284.110713925738 3.4138
301.114247054103 4.91485

>collision 40.0
41.0391119664168 0.51352
65.0389793315936 4.17314
91.0541672499115 100.0
91.1415724974108 1.76219
91.1699875771566 0.823152
115.053482922043 0.52333
117.070942920934 1.80069
119.035209770778 1.14305
129.055729121042 0.544383
131.036546839486 1.44034
133.052466620622 0.578714
148.026532372201 0.516165
161.033213339831 0.724163
165.02895755539 0.610328
166.037221386713 0.860379

