>compound D-Ribose 5-phosphate
>formula C5H11O8P
>parentmass 253.00831413164
>charge 1

>ms1peaks
119.010203214871 1.14041
120.968217457442 1.15687
234.998131622685 1.17682
252.206930542598 0.950012
253.008276971546 100.0
253.125703780816 2.1679
253.195314537903 0.935223
253.251633317292 0.610536
253.357952241313 0.713662
253.473761887614 0.683985
253.568800840272 0.660491
253.718807830711 0.575981
282.71880783071 1.0e-13

>collision 10.0
41.4800327395627 0.605602
115.086310688243 0.568151
119.010500781347 16.3972
119.068898360209 0.527327
120.965870682831 37.8666
121.06658079246 0.568605
143.060322429346 0.953205
173.034754785543 1.07525
192.985389004 1.12234
206.114619649931 0.520469
212.292977049493 0.50917
216.987588801094 3.65852
234.997643919083 15.0578
253.00831413164 100.0
253.150871862636 1.78209
253.329049012151 1.1495
253.413132396265 0.701385
253.591536756301 0.582288
253.669085308061 0.54535
253.807757733807 0.606552
282.80775773381 1.0e-13

>collision 20.0
69.141712719882 3.32918
119.010570424444 80.0503
120.965774620923 100.0
121.324820459629 2.42564
138.087452018245 2.36209
162.971742002825 6.4089
173.039949841135 3.75977
174.975082157211 5.51613
234.99591376928 8.44672
235.127284410793 2.50184
252.150159929741 5.41781
253.00849470657 17.9091
282.00849470657 1.0e-13

>collision 40.0
47.4422622992869 100.0
74.0946849332285 79.9204
133.105357073102 95.0958
162.1053570731 1.0e-13

