>compound MONENSIN
>formula C36H62O11
>parentmass 693.419714918923
>charge 1

>ms1peaks
693.420638639068 100.0
693.646719626438 4.26488
693.747327968921 1.7188
693.976166608035 0.918047
694.057716076615 0.811118
694.119988678855 0.804226
694.170329974742 0.783591
694.277629733423 0.740081
723.27762973342 1.0e-13

>collision 10.0
675.409617722063 0.712938
693.419714918923 100.0
693.642014215544 4.31247
693.746551443752 1.77513
693.97674536977 0.913682
694.038272805148 0.777146
694.104515080977 0.74948
694.19706469071 0.73362
694.283858409907 0.734542
723.28385840991 1.0e-13

>collision 20.0
675.404080400185 3.2639
693.413439499006 100.0
693.641148712324 4.0594
693.740546767365 1.76253
693.974712519071 0.855029
694.035950410264 0.746491
694.16393007811 0.685308
694.221641658833 0.677039
694.276740255522 0.673204
694.4176925952 1.2693
723.4176925952 1.0e-13

>collision 40.0
461.289692925747 3.04695
479.300626421491 1.66019
501.32104036928 1.00335
581.384571939765 0.79501
599.393023144341 0.588504
617.404840599261 0.531547
657.399759838439 1.23607
675.411938744155 42.226
675.636055876534 1.05492
675.717319840634 0.509533
676.4135210259 0.599249
693.422416331274 100.0
693.639568268493 3.64399
693.737655731077 1.56131
693.896425370633 0.862949
694.038324603229 0.814633
694.25140364555 0.750813
723.25140364555 1.0e-13

