>compound METARAMINOL
>formula C9H13NO2
>parentmass 168.100345337393
>charge 1

>ms1peaks
150.091478972729 24.5952
150.202328912656 0.744245
168.100345337393 100.0
168.219060004765 4.78657
168.258120644346 2.13756
168.315900906201 0.770279
168.345759662551 0.697333
168.377122624582 0.833063
168.42664378046 0.506557

>collision 10.0
56.0500126129978 0.799791
81.069742709024 0.509152
105.069683129475 3.74907
109.064597251598 1.39243
133.064313371707 6.30018
150.089382702049 100.0
150.201937964132 5.22505
150.239824365892 2.02768
150.321663719458 0.733165
150.35130751879 0.918309
151.075680066983 0.919713
168.101458461525 3.41473

>collision 20.0
42.0341973024555 7.23156
43.0182500261394 3.42247
55.0180374096655 3.84277
56.0496633711116 16.3063
57.0335941860916 1.38123
57.0543932035699 0.557465
77.0382637670151 3.82367
79.0537855098867 10.733
81.0694197305073 10.371
91.0534511399009 3.46487
94.041746964453 0.947417
95.048529884261 2.39059
103.053402809466 5.74351
105.068980676759 100.0
105.163703142937 3.35747
105.191811324566 1.39056
105.239375529863 0.50268
107.048961532462 3.12187
108.078549028589 0.64298
109.063647966754 14.5265
115.053090172217 4.65682
117.055734693058 1.11388
122.058841133901 1.0659
122.093393311728 0.689126
123.079382143261 0.774391
131.048261716019 1.49156
132.078091762712 1.36467
133.063622915342 49.919
133.169408822734 1.17559
133.202030664661 0.542372
134.05901212472 1.10983
135.066459830731 5.01779
150.090116512599 76.882
150.201915935964 2.26072
150.237127743068 0.948741

>collision 40.0
39.0238363035859 1.89643
41.0391313474522 2.56225
42.0345388453607 19.8355
43.018510119811 14.9709
44.0501291336999 1.37373
51.0237408007727 9.09322
53.0389468839612 2.66508
55.0183842608622 6.40559
55.0522828462875 0.565856
56.0501345716413 6.60347
57.0343340870735 0.752603
57.0576511586084 1.4092
63.0234447610935 0.842868
65.0390755363215 11.0771
66.0468119165512 3.00455
67.0476522272093 0.580656
77.0390226821478 100.0
77.1193309854304 2.66316
77.1438548501285 1.06026
78.0460831772343 0.830128
79.0545578068562 55.2165
79.136115052187 1.18036
80.0521892800893 1.33124
81.0698093892209 3.13751
89.0387963117092 4.97434
90.0467857249442 2.32033
91.0541648907173 6.73601
92.0497945682943 2.00209
93.0359331586238 1.23601
94.0415549979923 13.9016
95.0495997033996 0.627186
102.045941962872 0.788952
103.054246906318 29.7291
103.14721777085 0.51091
104.061497397768 0.867856
105.069889887279 19.6648
106.065151932265 3.65424
107.049300368644 18.9172
108.057280653145 0.848611
109.062640382809 1.17978
115.054043351728 12.8929
116.051081419894 1.47104
117.057381328164 1.87066
118.061822710113 3.16618
120.044398924906 4.71435
131.048997087696 4.58778
132.057348655294 1.01631
133.059637156724 0.707184
134.06010118285 7.77805
135.066626281035 1.02249

