>compound MIDODRINE
>formula C12H18N2O4
>parentmass 255.134490632508
>charge 1

>ms1peaks
180.102005640201 4.50064
237.121713099792 100.0
237.260331868559 5.07431
237.313007657247 2.1359
237.411895176375 0.836301
237.449730828579 0.972389
237.492011717079 0.602039
237.561684091771 0.570288
237.597022781714 0.583382
237.632913173594 0.54626
255.134490632508 17.2919

>collision 10.0
85.0405595577624 0.56686
133.052540100554 0.848736
148.075286133207 2.10796
151.07511196416 1.31007
160.075633449436 0.832631
161.083560734928 0.724042
165.081192420403 0.657966
180.100656826562 92.0069
180.221948212895 3.82813
180.263698529158 1.71057
180.324534703634 0.615819
180.354900611765 0.556444
180.386561910205 0.624221
192.101974571164 8.68077
220.096492812273 0.621197
237.12173074158 100.0
237.260846885889 4.56559
237.31155529828 1.85833
237.411644982995 0.710111
237.449682232365 0.796333
237.515554234965 0.525634

>collision 20.0
117.056265013111 1.30235
133.051106606386 6.24049
135.078971787755 1.02855
136.050820167649 1.16642
148.074207795074 18.9138
149.081999768223 0.952575
151.073864054595 11.0421
160.074014297248 1.86833
161.08182969538 3.22085
163.073627837148 0.77401
165.077636924098 4.78588
177.077825632094 0.542498
180.098854236414 100.0
180.221967852242 4.56975
180.262343022992 2.13486
180.353485933196 0.647509
180.384682947091 0.79033
192.100064362487 8.35068
237.120950730139 3.38695

>collision 40.0
30.0344050067787 1.14463
43.0414035748245 0.558273
55.0188986808118 11.0086
65.0395967504617 1.15143
67.0543109434473 0.85228
77.039270487711 8.80938
78.0467724573153 1.41642
79.053748099311 6.62184
80.0544273458084 1.25945
83.0133686953343 0.73862
89.0393034455316 1.52657
90.0469202798327 1.81446
91.0547858218672 19.3874
92.059815249878 0.50967
93.0703227066342 3.73786
94.062777924412 1.34501
95.049841115605 1.43864
103.054650549052 7.5835
104.050010899334 5.57217
105.060591119251 27.8423
105.151238392781 0.575745
106.065274077338 3.0969
107.049832309802 1.9024
108.056983440456 5.16798
109.065076188668 0.884272
116.049805416644 15.1023
117.057669853346 42.2367
117.156502126367 0.814987
118.060121050602 5.99096
119.049559295892 5.96103
120.062842377615 2.67868
121.065018119133 14.9069
122.060543051849 21.1525
123.063954659206 8.65291
130.063281149439 0.595702
131.052917588093 0.514153
132.045287244238 5.27022
133.052630711912 100.0
133.157922701816 2.55991
133.191328973819 1.09371
133.269906216451 0.54538
133.295852730453 0.500921
134.06026671433 16.5797
135.078460649891 3.42462
136.052688040658 21.1017
137.060759121862 1.31405
138.067684507372 14.9823
145.054101532437 0.745945
146.060217842354 2.25868
147.06386453279 1.58638
148.072965086746 54.1915
148.158172180553 1.39826
148.187938415895 1.13159
148.223299834235 0.554304
149.083091268853 11.9236
150.055263638728 21.0622
151.075201298978 16.5911
153.090970044788 0.573383
160.07520859451 8.05582
161.074334213959 1.16479
162.054979983021 1.04086
164.070580206762 2.36311
165.078512844735 36.4627
165.192863595717 0.637606
176.070791895639 1.79545
180.102101870763 4.57871

