>compound OXOTREMORINE
>formula C12H18N2O
>parentmass 207.148090049577
>charge 1

>ms1peaks
122.096996936304 1.66493
136.076198767132 1.16193
207.14855886363 100.0
207.2780763883 5.74929
207.331683182307 2.47537
207.419660108073 1.17904
207.454992543735 1.3515
207.50649917639 0.812605
207.559071984325 0.752522
207.593821595171 0.770945
207.624821863451 0.693268
207.667510810589 0.623891
207.69804714691 0.608674
207.72791556164 0.564088
207.763022596748 0.538065

>collision 10.0
70.0659449330739 0.942124
72.0816464636339 2.71056
80.0503172864474 0.83869
84.0816236174502 0.57079
91.0550335720695 0.552144
96.0814918975645 1.18018
98.0606905135491 2.00927
108.081453078543 5.01669
110.096816613869 0.622262
122.095647747065 54.3111
122.197333750013 2.63464
122.229065500509 1.01942
124.112502517246 2.30167
136.075065933533 48.1442
136.181557216791 2.12778
136.216851714867 0.906366
138.091762485772 5.86291
207.148090049577 100.0
207.279109046899 5.35822
207.32657126104 2.17373
207.420122141346 0.870478
207.455166365318 1.04454
207.503224178652 0.608005
207.560000699369 0.545888
207.593831055651 0.55883
207.629152702291 0.53324

>collision 20.0
41.0393480796303 0.64794
53.0392546563619 0.855434
55.0184575311615 0.83817
55.0547258976014 2.85573
67.0542205373231 1.06566
68.049692182471 1.36869
69.0338951989158 1.61634
70.0288783176321 0.663181
70.0654404438067 6.55058
72.0811616981464 3.04525
79.0543101957129 1.27668
80.0497371451904 13.5295
81.0697073171908 3.03999
82.0647332512097 0.514458
84.0807891260117 5.28393
91.0542145465664 9.67745
92.0492808070386 2.22885
93.0579853738548 5.41481
94.0650428697164 3.16071
95.085238710113 0.981916
96.0805822211076 3.30186
98.0598270966413 5.23384
106.06463863903 2.89328
107.072468962875 0.986812
108.0796894603 36.932
108.175342789971 1.26945
108.204991541866 0.578619
110.095823687719 2.73585
118.064451781648 1.97076
120.08000794425 1.74386
122.095301241787 50.4969
122.197067117683 2.1013
122.227933996202 0.826586
124.110750989312 2.58947
134.05923581001 0.877835
136.073353669701 100.0
136.180952961003 4.98262
136.215535640834 2.19092
136.246643085709 0.988355
136.295613350832 0.652844
136.322305358033 0.865694
138.09054437953 4.84571
189.137376768495 0.631788
207.147939967897 5.64483

>collision 40.0
30.0342162286562 1.11288
39.02410356238 3.26649
41.0398154882902 40.1689
41.0823413470128 0.746462
41.0988812588765 0.957759
42.03503543135 5.18801
43.0549201645829 1.54437
51.0242289658321 1.31244
53.0398138361024 23.0002
54.0350575605977 5.96807
55.0188693601604 3.30246
55.0553605858154 12.9211
56.0138717868788 0.916428
56.0506917584766 2.14728
65.0396950205761 16.3969
66.0448117950694 2.90249
67.0529486047417 9.90346
68.050512357942 14.941
69.0347030736701 35.4793
69.109921527052 0.852889
70.029909781225 2.94028
70.0660781368884 20.0261
72.0815409036812 2.75075
77.0395516002208 11.8184
78.0347559585031 5.96134
79.0551534410618 22.0437
80.050486041282 100.0
80.1325383664135 3.40181
80.1573744328023 1.36832
80.1816831890498 0.584211
81.0705602879272 22.0065
82.0297552944298 0.795191
82.0660851717026 2.27464
84.081732684457 24.5099
84.1658970395197 0.510639
91.055182502043 55.06
91.1416841737452 1.3705
91.1701684292659 0.557706
92.0503511723958 14.3455
93.0583143599484 53.8238
93.1456693805157 1.42932
93.1744109692222 0.586172
94.065755696011 7.84306
95.081967337507 0.599702
96.0815031217385 2.32701
98.0607495838412 1.02905
106.065827212942 20.349
107.073467729671 3.62329
108.081404395148 25.95
108.176619513139 0.51874
110.096756477362 2.55499
117.058018534122 5.53382
118.065416788665 2.64847
120.081260341797 2.54077
122.096881232494 5.40682
134.060489053406 0.556605
136.076224393099 8.1086

