>compound MCI-186
>formula C10H10N2O
>parentmass 175.086318868192
>charge 1

>ms1peaks
175.086627003154 100.0
175.206438559035 2.84384
175.246068662958 1.17964
175.30491599094 0.515968

>collision 10.0
106.064958261488 0.634407
130.065410175102 0.660121
133.075795863867 2.00242
134.060147375505 0.538804
135.054597415379 0.692277
147.091145430434 1.2555
175.086318868192 100.0
175.206914612319 3.12407
175.245676179813 1.277
175.303785198517 0.503562

>collision 20.0
30.0337195274832 1.04191
41.0390854680582 0.66384
42.0342294052924 4.42961
44.0500772827748 11.9255
54.0341009217666 4.34362
56.0496710987142 2.23043
65.0387321227577 13.6226
77.0383731102661 4.26517
79.0539574726488 4.95299
82.0348887148746 6.68579
84.0438913452509 2.35967
91.053501681694 1.07661
92.0489160179722 7.16974
93.0330454713954 10.1151
94.0614652183707 1.77164
97.0380378223293 0.57759
103.053746870138 2.22753
104.048392856222 4.48206
105.033604399355 1.28324
105.06734226085 0.738037
106.064148742838 20.3668
107.058195472757 2.32035
115.052797389661 0.73872
116.049042823022 1.70041
117.056557147803 5.07797
118.063879694742 8.46357
119.058939704518 0.987179
120.07953585738 3.38871
130.063611109991 21.8312
131.068620031559 0.931377
132.068716802956 9.41968
133.074612088016 35.6998
133.17883959025 0.609189
134.058432412104 6.93729
135.053846861781 12.5973
145.073335183216 1.35097
146.082375657949 1.33023
147.090146482297 15.0034
158.058235662563 2.50153
160.061567439987 0.805922
175.084686180446 100.0
175.205266088477 1.86024
175.24487407202 0.850445

>collision 40.0
39.0239139363194 12.5124
41.0376870337296 1.63073
42.0348909929821 18.0583
43.0192825922687 0.751317
43.0425326926296 0.94614
44.0135017455602 0.584464
44.05039195321 35.5943
44.111771607776 0.670278
51.0239522616285 15.5616
53.0390427824706 0.606639
54.0347936175174 21.0591
55.01758018486 0.511952
56.0511506753066 1.75104
63.023629575746 0.695589
65.0393136352797 84.9692
65.1129732958299 1.63472
65.1356472594973 0.681769
66.0458021216385 1.86373
67.0298103596657 3.42317
77.0391223926406 100.0
77.1192895565958 1.95671
77.143447166605 0.891099
78.04530109315 3.02314
79.0547858927813 16.789
80.0499885873498 5.22344
82.0469712814994 3.40735
84.0448486123484 7.47104
89.0386940495448 4.30964
90.046377394668 2.8309
91.0537571210383 4.80761
92.0498326606463 18.1237
93.0574256676988 3.74746
94.0609876181024 1.92299
99.0549398334093 0.570948
101.03851056806 0.509495
102.046117813984 1.56234
103.054675091119 11.4138
104.049657075159 8.45041
105.048428935992 1.51138
106.065103398653 11.6504
107.060464781341 3.1092
115.053428742907 2.7624
116.051319704391 1.46927
117.057160426586 6.03452
118.064424934186 3.24308
120.080521302018 1.3991
128.047663113429 1.43117
130.064857716977 8.55476
131.060214326902 5.54711
132.068187815897 4.98097
133.075669558438 3.57559
135.055477369992 1.28826
145.075713947089 2.16452
146.083154284801 0.812285

