>compound CELECOXIB
>formula C17H14F3N3O2S
>parentmass 382.085272460365
>charge 1

>ms1peaks
381.122080626875 0.513283
381.299202386886 35.5662
382.085272460365 100.0
382.302292358075 6.34235
382.43956219431 0.957272
382.664558843226 0.897029
382.859808055835 0.600612
382.96502080493 0.853994

>collision 10.0
362.074734749781 1.01336
381.298779037195 29.3422
382.085404361442 100.0
382.302993839837 5.87912
382.470921628391 0.634135
382.556704198996 0.711181
382.654996459267 0.713566
382.769325641025 0.626635
382.932986137474 0.69574

>collision 20.0
287.075152932801 0.564019
300.08469472987 3.32929
301.090741941356 0.971452
302.098781696124 2.10199
303.107965495478 3.26913
362.07516458163 11.3167
381.294877909544 10.0599
382.081584283661 100.0
382.287565659517 2.09234
382.405123715041 0.649367
382.479467645294 0.604452
382.589627549402 0.535558
382.820901162527 0.552392

>collision 40.0
38.9620527132459 0.501574
44.8096342569162 0.503373
48.7190416628619 0.573814
58.0689354124173 0.875276
63.9604521510743 0.646748
63.9827901637891 0.939386
65.0395881823474 2.0262
75.0221684218796 5.99973
79.9805215306937 3.91594
80.0621081316192 0.523632
81.0272327493474 1.07253
84.0424311130303 0.948475
88.0213304242637 1.35058
90.048342032525 2.33338
91.0561825068564 8.62469
94.037887989287 0.611735
108.045221688605 1.01934
109.025514034356 0.625125
114.023509055326 0.776305
115.054502001255 4.80763
116.064071643999 5.94597
117.068641000357 6.95431
118.067796736351 4.28133
128.065236637855 0.539097
130.060767178636 2.89045
131.073620479983 3.60894
133.044274943603 1.33152
138.983736994304 2.32234
139.026040502408 1.47224
140.045963169357 2.20173
141.051496291409 0.674066
142.069039098862 1.49622
142.113839128766 1.14504
146.031170583801 0.583702
148.045701464955 0.786182
149.047363737825 0.887571
151.050486652134 0.946651
153.050158727685 3.19699
156.01307880023 2.7513
160.053648223832 0.953124
165.041412505097 7.49991
166.041219501715 1.24697
171.043898506516 0.514727
172.039750344462 1.15094
178.074171817677 0.548567
180.064675610263 3.31573
184.037201801037 4.00551
185.041546542165 2.37183
186.047342741062 0.917049
187.044553052254 2.00505
190.064271431297 0.927681
191.068026306723 4.28729
192.077818716124 2.57847
193.087259211509 2.61829
194.095231282118 0.611735
200.047783218881 1.39256
202.063468929562 0.698955
203.070235845192 0.967005
204.084247411993 2.08208
205.087748902261 1.99584
206.09491139591 6.75187
207.102059747791 18.3037
207.194473122014 0.519796
208.062009959773 1.10143
208.111215015018 2.69984
209.092609618932 0.95182
210.087850612791 0.707156
212.894186457791 0.52437
214.980002025243 0.579216
215.078150752429 0.974617
216.074853195952 1.8185
218.086943368968 2.40707
221.017044772969 3.35674
222.865099515563 0.637397
226.064171109956 0.52579
229.080720228487 1.45773
230.080939550901 0.72363
231.093003421612 3.93031
231.167421731995 0.665865
232.097782707097 5.18022
233.108069953711 15.5621
233.187561614083 0.721775
234.062935712711 0.689865
235.085234849811 1.04079
236.085962740244 2.86947
238.06402671432 0.789604
240.056941650934 1.77303
241.080975554652 1.02233
242.074791725207 1.50133
243.088257871108 1.47147
245.055301808962 0.524022
247.069055152423 2.27055
248.096013618755 0.652326
250.099510620645 1.12486
251.040802102516 0.534864
251.083504219584 0.561814
252.079228805838 1.05525
253.077837335781 0.546136
254.094173379256 1.83316
255.081330215424 3.58793
256.081095869036 0.656287
260.074984273279 0.814574
261.08427823986 9.1737
261.424428086728 0.654389
262.093558488848 8.47201
263.100768429429 13.4754
263.414638658501 0.53728
266.035579612364 1.34648
267.074158337086 24.2226
267.208538066561 0.69877
268.164074146818 0.626005
269.089634880901 0.703267
272.060809151645 1.30031
273.065182979426 1.634
274.082598621464 1.51479
275.08480454285 5.50307
279.091428183838 1.29337
280.074954490378 4.18264
281.089409176022 46.6361
281.241629492898 1.02122
281.351859878382 0.575839
281.773305463646 0.681256
282.096920861901 59.7321
282.346461615715 0.511424
282.474446754827 1.14908
282.550873147877 0.924882
282.637575749061 0.615953
283.10368378229 19.4993
283.19784504531 1.03977
283.639484940487 0.834399
283.762756460799 0.929075
284.436841754319 0.685234
284.547009335337 0.586637
284.920765888618 0.787303
285.089677735116 2.01975
286.074684378526 4.23504
287.078273934212 12.0382
287.463530757665 0.5084
287.605782867175 0.53728
287.662454401725 0.776831
289.097507299126 1.88736
290.117117632519 0.529198
297.083093517256 1.51165
299.105426683224 2.27268
300.089723936855 33.1772
300.236706098742 0.747054
300.517545306304 0.563038
300.728989642287 0.564151
300.847254492279 0.550125
301.096085838084 36.9626
301.255235034601 1.24051
301.620007767841 1.38973
302.104020014023 22.6047
302.264014096741 0.598659
302.398807007987 0.589369
302.564387881536 1.02748
303.110621610848 15.7117
303.846474336657 0.597051
310.064063537304 1.5345
311.069712184246 1.21889
312.066676589941 1.06301
313.099872495349 1.10732
314.169219682659 1.10326
317.091269272656 1.94467
335.073327513581 0.540775
342.070295985883 5.7475
347.061752848153 0.724669
362.078678186701 100.0
362.257829716478 1.56155
362.325177799186 0.987982
362.462864024713 0.60302
362.632267120614 0.850782
362.781038103901 0.52962
362.849474554193 0.750338
363.072215870992 0.886582
363.204687352308 0.682832
363.471907698908 0.574281
364.946875707656 0.500879
382.083476264715 14.1643
382.55126290452 0.563632
382.709309864569 0.527468

