>compound BATYL ALCOHOL
>formula C21H44O3
>parentmass 345.336883837621
>charge 1

>ms1peaks
57.0335784088252 2.908
57.068726307343 2.2818
66.5744686625725 0.727397
75.0449615368561 10.6246
85.1015696995849 1.31644
89.4559499253157 0.867122
92.555868025465 0.658214
93.0544761871293 14.3074
119.581015204053 0.660397
184.718749022805 0.669444
264.249163049305 0.642283
267.174433271388 1.40045
305.63944269069 0.952284
345.054710911609 0.628664
345.219805381015 1.33787
345.336883837621 100.0
345.514294212532 1.14882
345.580425630591 1.0918
345.694450815745 1.51002
345.7550002529 0.986455
345.924879547998 1.04058
346.056330301606 1.01744
346.264072965287 0.858853

>collision 10.0
44.1104572362562 1.77076
45.0335790541543 9.02557
57.0332987619924 38.6301
57.0703662578596 22.7434
57.5352540806677 1.84251
71.0854172691802 10.499
72.0882059478139 3.82368
75.043600695452 81.6598
75.2752902639744 1.99538
83.083081097992 3.47049
85.1005195075095 18.2009
93.052991970874 100.0
93.1450201327388 1.84818
93.2082478451408 2.22799
97.1010178848712 1.87544
99.1148617015197 9.22833
127.142807647178 1.96407
155.040877595648 2.06211
178.925105970216 4.01837
183.208673472715 4.58713
188.933571110612 4.1065
265.994676126755 1.76045
266.650603738577 2.41517
267.685253429283 2.19588
327.31533749892 2.19263
344.351249158086 2.57161
345.211039868905 9.39195
345.330562361624 29.4853

>collision 20.0
43.0547837499578 23.1389
45.034849072228 14.0061
48.210418010163 2.41052
57.033509617085 100.0
57.07092362967 58.5419
57.2717763381932 2.66542
59.0470942079668 2.38133
71.0867683139645 37.5852
71.1328558200011 2.65081
75.0442058763446 54.5724
75.0845084169995 4.47865
85.10138468212 28.1436
93.0569066638141 49.4667
97.1015256650187 9.29823
129.109818375892 3.17697
144.945330241233 5.72834
189.148510244718 3.40231
230.728091248765 2.70375
302.186190812891 2.88238
310.760813768481 3.11812
345.173090850582 3.29508
345.227338089642 2.49453

>collision 40.0
41.0388601092149 11.5474
43.0548062445693 64.1894
45.0340919262465 39.8463
55.0592883332276 5.46587
57.0358210312592 65.0864
57.0708329094824 100.0
71.083940122768 32.4502
71.2667509536913 3.04948
85.1008237572731 5.99699
118.979093341766 4.07571
129.104954378573 10.1044
160.988176574565 3.28115

