>compound &#38;alpha;-MANGOSTIN
>formula C24H26O6
>parentmass 411.182734443349
>charge 1

>ms1peaks
355.119557790315 13.5197
410.169036251786 0.898194
411.182734443349 100.0
411.362914270115 1.64607
411.41714839823 0.875837
411.494977979187 0.708674
411.607813033666 0.782044
411.729333476326 0.532445
411.847118276729 0.607992
412.026992354593 0.502528

>collision 10.0
299.058178113962 0.788862
337.108102106187 1.53977
355.120439760994 100.0
355.286207717238 1.60074
355.346691072956 0.894174
355.426611117627 0.603965
355.576792421983 0.645347
355.763619368952 0.535147
355.956342958204 0.508106
356.11612252031 0.627092
410.169542762149 1.32948
411.183813697686 69.1674
411.36545233372 1.08595
411.437032342764 0.731625
411.525011567689 0.554248

>collision 20.0
271.059927458535 0.668901
284.029866217558 0.585103
297.040183373446 0.572032
299.053511028689 4.14022
322.084401048718 0.701135
337.106615952163 5.5502
355.116556918449 100.0
355.28644012928 1.65082
355.339756526426 0.88982
355.39656261718 0.607373
355.458475243724 0.565058
355.753513481892 0.518401
356.126102492917 0.531883
411.178320955503 5.14611

>collision 40.0
55.0176402615574 0.624665
165.019508774638 1.6451
174.064345917892 0.523856
200.047559214037 0.715337
201.054509474451 0.683657
214.025444381927 0.542891
215.072724217934 0.643711
216.075456285908 0.578789
217.048274076401 0.899895
225.055083558564 1.37001
225.098855569197 0.518966
227.044633639973 0.582117
228.044094247553 3.95671
229.050647412808 0.997604
235.076857590681 0.637201
239.034911564074 0.960502
241.05033287584 1.45
242.059236217648 0.601376
243.066499659886 8.1531
244.075843531346 1.67811
245.045478392445 0.879832
248.086896645937 0.70171
249.094904494333 0.659119
253.050476326956 1.37648
254.061082827538 1.38368
255.038054493232 2.18279
256.039898995839 7.44818
257.046619350565 5.83995
265.063831748485 0.807917
269.048524380439 1.50527
270.058693549513 1.50577
271.062144597179 31.2921
272.070385171085 20.6196
277.08812935388 5.74678
279.066889768881 2.11408
281.048913249115 2.06209
282.054900053995 4.72111
283.05081880655 1.63097
284.03284998739 60.1946
285.041378522613 14.3163
286.050044057674 1.28091
287.061632305214 1.41819
291.09990762235 0.854934
293.048657899052 7.69707
294.087966180604 2.91261
295.083787445309 1.46621
296.070167813394 0.554102
297.041645926466 40.9126
297.195157042122 0.716106
297.254098596977 0.572718
298.051226452892 1.2554
299.057176965971 100.0
299.213668103798 1.54557
299.260186578669 0.684449
299.315003745704 0.5909
299.483256262852 0.574445
299.693802123766 0.580388
299.87279893441 0.52958
300.062059442265 1.22837
304.072975140533 2.59344
305.083525500571 3.20274
307.06121675216 26.1885
307.192617492592 0.589987
308.068454305121 2.76046
309.101565627886 1.20469
311.057008365838 12.945
312.067296508955 1.38777
313.07524948709 2.48106
319.098932805395 6.18393
321.080338691415 1.96126
322.085394230429 23.6064
323.091801432976 3.09948
325.072569608701 21.1861
337.11019130993 30.8397
337.273716191023 0.525601
339.088445092319 1.41849
340.099410563009 1.91709
355.120545897933 35.4866

