>compound EVOXINE
>formula C18H21NO6
>parentmass 348.146334102101
>charge 1

>ms1peaks
330.13415300998 1.52516
348.146334102101 100.0
348.311402603237 1.94642
348.37266516473 0.962192
348.46473747255 0.569352
348.522815182471 0.541989
348.684361509725 0.520076

>collision 10.0
227.058980077289 0.581403
231.054547537105 0.762524
246.077738360214 1.67967
258.078236779031 1.36644
330.135363127761 11.9451
348.146769719632 100.0
348.312028514294 2.17882
348.375148932087 0.912189
348.578212692705 0.528663
348.714103415945 0.501687

>collision 20.0
85.0652295773163 0.590862
199.061488136806 0.994577
216.062901174796 2.13016
227.056106808169 11.6277
228.063748600906 0.910787
230.043048977278 0.810934
231.051315516056 15.0678
243.051863103191 4.00533
244.05910540519 10.3002
245.067728988505 3.08788
246.075049992847 25.6601
258.074984457403 20.6161
280.095979099078 1.14965
312.121333608261 5.27318
330.132595187496 100.0
330.294772375207 1.85392
330.358941816475 0.869157
330.66961840344 0.502565
348.143090190616 76.1821
348.309260589971 1.21873
348.369146539868 0.636128

>collision 40.0
41.039785981075 0.872342
43.0185076897611 0.881495
55.055470949346 0.675485
57.0705915518098 1.57545
59.0501787217983 5.14637
67.0543436977091 0.907617
85.06462304855 0.531305
128.05059604657 0.830606
156.044133011135 2.98962
157.05273930451 0.55611
160.03919698883 0.66443
170.060685728604 0.591519
172.040716215978 0.692783
173.047736624067 0.656408
184.039956727633 10.6938
185.04734429973 1.52706
186.054670373565 1.71922
187.061714813193 0.936062
188.038484978246 2.96552
199.063562306957 20.035
200.054596203438 1.48281
201.042454800446 6.03499
202.0499025263 4.65363
212.034746279214 0.514743
213.04287763249 5.4873
214.05005319912 1.0564
215.058041753886 1.42977
216.041044816042 19.9039
226.051811438553 0.739717
227.058479466974 20.3046
228.032280842328 7.954
229.038730385546 3.64541
230.046738764565 5.35697
231.053674274765 100.0
231.189636421045 1.90397
231.23793750432 0.895673
231.403903694173 0.507711
231.50745498601 0.519841
242.04572831268 5.84859
243.053738615187 32.4261
243.190588454596 0.540228
244.061363349096 18.3441
245.069813399165 0.500011
246.077427684453 11.6026
254.08116973298 1.63615
258.076860964557 11.8832
272.067497344391 0.524237

