>compound Diosmetin
>formula C16H12O6
>parentmass 301.069298335702
>charge 1

>ms1peaks
286.046280777564 0.812879
301.070870691394 100.0
301.225026655585 1.84826
301.272787606975 0.993784
301.329803705763 0.561946
301.391076997875 0.548625
301.466867133998 0.520718

>collision 10.0
258.049596535152 0.860243
286.046105759327 2.58468
301.069298335702 100.0
301.223951667132 1.73959
301.274445629542 0.816493
301.366223258573 0.524333
301.437819367579 0.519474

>collision 20.0
258.052757816518 4.88536
286.048028208423 28.0722
301.071365886572 100.0
301.225793543954 1.68036
301.278388821585 0.866391
301.327050547959 0.606618

>collision 40.0
153.017162840852 8.67732
184.049817848087 0.529083
201.053290475159 0.897419
203.031438775696 1.0476
229.047763870305 12.0904
257.04277142426 4.8488
258.050577903973 100.0
258.196884046261 1.63106
258.239228390724 0.854188
258.311847174168 0.50308
258.355068762017 0.525783
286.04512820388 33.2404

