>compound L-Aspartic Acid
>formula C4H7NO4
>parentmass 134.04467390872
>charge 1

>ms1peaks
43.0193023444178 1.21304
45.0318948997892 0.762908
46.0284419952547 1.99716
70.0297224225148 1.46805
74.0245595983213 7.47023
88.0395849170047 20.0841
116.03501779326 13.4326
134.044835177442 100.0
134.22434825683 0.614948
134.324159450535 0.524048
134.406082375514 0.514028

>collision 10.0
28.0166791247359 2.57486
43.0188592080207 7.56652
46.0293552266446 22.1249
70.0291169741433 16.367
74.0239378299984 100.0
87.1005352562404 1.03791
88.0394140486248 63.9776
88.2494898959791 0.897205
116.034433593671 16.2593
134.04467390872 12.5848

>collision 20.0
28.0197158913595 1.77222
37.0270929162104 1.26418
39.1645433474516 0.958666
43.0186393067362 32.0511
44.0495464560008 2.08308
46.0288654276237 31.0266
61.0282445070374 1.32476
70.0307030703206 32.4395
72.0479961518096 1.26474
74.0239846892194 100.0
88.04052777503 14.0143
88.1016216112441 1.2115

>collision 40.0
28.0163704418134 11.2171
42.0361361422013 10.1933
43.0188264451613 100.0
44.9977825579414 19.755
46.0275413189963 66.5674
55.0152338953686 9.00419
59.0694224163405 6.9997

