>compound FRAXETIN
>formula C10H8O5
>parentmass 209.046300517383
>charge 1

>ms1peaks
191.105863381675 1.50063
208.0353991078 0.51157
208.13458059392 24.8387
209.046041081981 100.0
209.135409631654 6.14379
209.212575717971 1.09846
209.26354612537 0.605821
209.300408152513 0.556997
209.513982991002 0.68587
209.688531955009 0.585899

>collision 10.0
130.160901880994 0.650862
149.020294781102 1.48251
153.054988426304 0.582512
160.091158520064 1.75363
161.087363297197 0.819049
163.039617270365 2.55902
165.093112303766 2.04414
166.09622806443 0.537991
176.083149375106 0.604071
181.052953357144 1.26573
191.108398503575 11.0415
192.113801936674 2.30991
194.020464137763 1.16738
208.13455127631 14.207
209.046300517383 100.0
209.131782763165 5.99378
209.218809815741 0.973951
209.286705265812 0.596302
209.321578489925 0.655176
209.354498278627 0.586027
209.410990263492 0.546655
209.614844801052 0.733411
209.682127660985 0.662455
209.745254033842 0.528632

>collision 20.0
39.0235471230068 0.607827
43.0169046757895 0.795883
54.0473121207063 0.670249
65.0389417140818 0.77269
77.036061693811 2.65634
79.0541879956497 1.55528
82.0406215186238 2.4952
83.0075170723066 0.516262
91.0553495268146 0.837808
92.0276279072531 0.693558
93.0320007566263 1.68309
103.053519035499 0.734629
107.048436378891 9.4413
110.036396161414 1.84783
115.054446543156 0.77897
117.033590363579 1.71435
117.066130004424 1.39735
119.084558732722 0.500829
120.017970043464 0.867029
121.029975598365 4.38226
128.061785934639 0.621078
129.071457997583 1.28511
130.086944495484 0.517379
130.16133460893 0.665743
131.084845037009 0.540901
133.05375209535 0.659116
135.043173616927 14.4081
136.086979321558 0.572037
137.05920896404 0.565982
138.028718752932 2.22898
144.054511190932 1.03901
145.064886158533 2.61641
147.078228182023 1.33424
148.074923142141 0.723378
149.022220655917 47.2449
149.118797776824 0.911563
149.599797096234 0.508489
150.054186047229 1.23964
150.232427599744 0.502493
153.05372778836 15.0548
159.082213699323 1.06829
160.086890064365 15.0174
161.085070992676 2.53285
163.037684207672 25.1358
163.143871711544 0.510813
163.202421918548 0.558921
164.084125582645 1.11145
165.088637835164 4.4477
166.027609927527 8.094
176.083186194888 5.76228
177.017135610371 3.04355
177.080938367106 0.726715
179.098938674894 1.15517
181.047857743395 10.4793
191.104884339699 15.4731
192.108354878035 4.34814
194.019917284376 48.7853
194.899722455038 0.500917
208.129945307321 1.36287
209.043456243322 100.0
209.180510327989 1.13106
209.339058890319 0.635482
209.412671997457 0.776138
209.544809833735 0.529631
209.79051037892 0.549248

>collision 40.0
39.0242910549803 18.9503
41.0394142900404 2.08497
43.0196949037075 0.755466
51.0239772877969 3.83274
52.0340443192258 0.691286
53.0027348438202 4.4106
53.0404263588129 4.82618
54.0478636448926 40.4828
54.1163765428856 0.964507
54.7460912252369 0.718053
55.0161234209748 1.49567
55.0576229655791 1.64786
63.0246853749884 6.57937
64.032941182975 23.7856
64.5992527373384 0.68078
64.8616166739736 0.9243
65.0397525664291 43.2122
65.1157325127066 1.00541
65.7714420352 0.738262
66.0142083724588 1.02757
66.0452125864281 1.62507
68.9987722513822 12.0543
72.811216266294 0.98582
74.0960549184074 1.15196
75.0229939620591 2.96137
76.0289028861956 1.43869
77.0390789135852 31.4596
78.0481214739811 1.65695
79.0551319914842 12.7048
80.0569497964823 0.918883
81.0334839169762 32.7892
82.0420564830952 100.0
82.126951225646 1.78113
82.1510428843952 1.04307
82.1803873827488 0.66722
82.9093645012567 0.77892
83.2227230950264 0.694622
89.0378872265639 4.6198
91.0552301029205 13.7959
91.1447098587376 0.667041
92.0265143486379 65.6887
92.0984447764666 0.969307
92.1159045411931 1.13364
92.2650745072923 0.710103
92.8983836030978 0.681349
93.0353349389516 11.4407
94.0437715425074 1.31894
95.0146339758992 1.51334
95.0501472450685 1.44005
97.0610734217625 1.24447
103.019631122348 1.91777
103.054025043816 3.68851
104.021814269123 1.30578
104.054612379462 1.1835
105.029951364472 1.70873
105.068950951655 7.68115
106.072646559108 1.68492
106.367192454976 0.868371
107.048740361573 24.116
107.105500487233 1.33357
109.028078013428 8.4624
109.057546273271 1.8037
110.036038786993 65.7713
110.091695936033 1.83702
110.133098363475 1.15151
110.44954576523 0.735523
110.517927767512 0.720064
110.691566078583 0.691446
115.053947385797 7.93582
116.06268602477 3.0523
117.070148613274 12.391
118.063880025003 2.4439
119.05734548057 2.37658
120.020592247316 38.0763
120.117411223027 0.714187
120.271082887172 0.750108
120.850164988064 0.685516
121.028514125094 21.983
121.113823987282 1.26871
124.049428362977 1.46875
128.054269770441 2.25408
129.072589564348 2.0379
130.074504453588 2.25887
131.048308340547 1.60571
131.08404045755 1.30236
132.051647575739 2.12238
133.064460008191 4.16897
134.076152185039 1.25423
135.043803554927 13.8113
137.022054123845 3.29001
138.032085574519 32.7038
144.05795003772 4.81798
145.065725492421 13.7743
145.157286184062 0.78434
146.073209963786 2.23808
146.670645821679 0.867139
147.076286365211 1.09093
148.016293142313 13.2164
148.075824264851 1.26715
149.02279797248 15.3692
149.05850780291 4.02265
151.04355872584 1.08587
153.054491517122 12.0617
157.351445408992 0.942994
159.084911344836 3.40916
160.085939024812 1.79693
161.063871808491 4.10335
166.02765944407 56.5942
175.075805687159 0.746481
177.016016944283 0.786188
194.018376758732 12.0408

