>compound Pinocembrin
>formula C15H12O4
>parentmass 257.080801306086
>charge 1

>ms1peaks
79.0234673103745 0.631502
90.0545924992183 10.8475
134.95238136255 1.10811
153.016287256245 0.834039
178.944979625317 4.84078
218.041898199951 1.43935
256.101139295952 4.0836
256.175841967247 0.536317
256.253419556904 0.559265
256.957476847079 36.254
257.078882596771 100.0
257.223941804388 1.68941
257.258738007315 1.12881
257.322500334484 0.836414
257.387300824321 0.866187
257.439566317389 0.760614
257.603604293985 0.880896
257.742513350186 0.701479
257.91135510375 0.905422
257.992880605874 0.500348
258.059583428463 0.523366

>collision 10.0
44.0498526280039 3.15247
90.0543234838142 7.4733
91.0575003119462 0.629395
103.058305655186 0.559892
131.047517628428 5.69342
134.954893510194 11.0294
153.015978446466 11.7492
172.042523875273 1.25786
173.054865703462 0.899139
178.945412890632 36.345
179.071889018334 0.542457
212.964505988208 0.623106
256.099311397256 3.72778
256.957973068662 2.85101
257.080801306086 100.0
257.228981371873 1.37524
257.276496752875 0.924003
257.351356140849 0.773774
257.47803745816 0.633062
257.560247577294 0.579019
257.651866302573 0.658147
257.837545637388 0.514461
257.947413064383 0.608276

>collision 20.0
43.0184383268202 2.09269
44.0499102618957 7.8698
45.0540028260915 0.531045
55.9381890024853 0.5127
64.0096371504761 0.599337
69.0294425692553 0.580236
72.9334744450223 0.783477
77.0376900823552 0.651929
79.0530297123285 2.09688
89.0528323851987 0.538159
90.0533147772768 8.79967
91.0516367311577 2.99394
102.100595098954 2.3517
102.92487711252 0.845839
103.053255360096 6.35691
105.034305138995 1.15123
105.070741867085 0.821961
107.048829572118 3.34974
111.001811528558 0.708332
112.05525213316 0.734894
118.045010820184 0.50595
123.040729327465 0.598732
125.01482117777 0.982198
127.043756853385 0.670115
128.055357167215 0.582625
131.046395363075 52.5778
132.943108342046 2.83969
134.953328124139 72.1312
135.059474391791 1.24925
135.092888539629 0.869527
135.332425120434 0.598424
135.395245102904 0.65425
135.512308790078 0.521261
145.061551711416 1.20764
147.079554870701 1.43941
151.037702673512 3.3164
153.015017900346 100.0
153.094929038228 2.38654
153.126044103806 1.42302
153.160312813773 0.978438
153.190936622068 0.71672
153.255446216904 0.747891
153.473297715133 0.647326
153.775427330479 0.593603
154.017880434187 0.796495
155.017476244887 1.02775
172.041580644314 4.77774
173.057727717226 3.6812
178.942253359497 14.8648
179.032048831286 2.89495
215.069209910222 1.59948
229.07581030685 0.590311
239.074909055842 1.33592
256.067771760951 2.19129
256.118498745943 0.692614
257.077370243499 49.1969
257.197503115308 0.838013
257.377897852803 0.578366
257.796824740233 0.599507

>collision 40.0
34.9948015318722 1.10208
39.0225298169079 2.52989
41.0389705635893 9.08559
43.0250326917208 2.34981
43.0531334464532 0.640615
43.6327900481986 0.51129
44.0486981135029 10.4709
46.2004230705592 0.500656
51.0223540538507 1.24084
53.037728801212 0.6449
54.5584354177212 0.533807
55.0184249160412 2.83335
55.9337562820311 2.5326
56.9411297991533 7.01102
59.9885105863295 0.63529
60.0534523756716 1.44249
61.0108079796764 0.57602
62.0194296293721 1.3748
63.019091639442 0.601948
63.9990425584366 1.5636
67.0179381524999 14.2493
68.0493145210456 0.683567
68.9967211271607 18.446
69.0319064268004 11.146
69.0723603160435 0.785471
70.957693110494 0.579862
72.9375359730338 10.7974
75.019299760144 0.933787
77.0377360079692 23.125
79.0517124871475 12.5938
79.1361068317388 0.772284
79.9482521504098 0.840744
81.0309926289792 1.50428
83.0084036481778 2.44175
89.0358694908847 1.02166
90.0521266457384 1.18629
91.053776370994 6.671
93.0569721203847 0.608778
95.0462584047037 0.640236
97.026945271637 6.40608
98.029486858462 1.04212
98.0916834425331 1.22751
100.911240801728 1.84982
101.922661830006 6.37537
102.040522184072 1.69126
102.170221106494 0.579396
102.927017650211 10.5205
103.053902467159 69.2098
103.147311550878 1.30255
103.186148276823 0.606037
103.278329592094 0.583636
103.482939378964 0.632053
103.562325394337 0.524235
105.034663574084 1.30049
107.051850865216 1.95512
109.033062437076 1.04581
111.004660001575 2.70406
112.993263847405 1.0688
115.054070833733 0.727974
117.072022438347 0.933599
118.922989449118 2.19118
118.99817421385 0.863187
119.933463559059 1.88524
120.061307750279 0.796286
123.043929332823 1.95443
125.015382369365 7.0208
127.0371371124 0.903195
128.06335817991 0.707971
129.048913482736 0.59562
130.023772718032 2.88512
131.047828202074 11.041
132.941268010179 4.97742
133.034464184598 1.30568
134.954508170711 27.834
137.019865682759 1.09463
139.041318398684 0.767999
146.083741240915 0.849031
151.049919836532 0.539242
153.018114706963 100.0
153.132915268014 1.14784
153.164397686855 0.608721
153.198296212847 0.574935
153.385412074872 0.842224
153.473248288055 0.670122
153.762031191305 0.576532
153.821756560106 0.607287
155.020726628637 4.49318
161.002494092055 1.10586
163.885143577569 1.00087
173.00052412883 0.559035
173.052985628569 1.46942
179.029352383687 0.796675
180.006553866111 0.53424
195.022011975659 1.10357
239.066744345957 1.01469

