>compound PIOGLITAZONE
>formula C19H20N2O3S
>parentmass 357.127498787456
>charge 1

>ms1peaks
134.097457882771 0.812954
357.131247767127 100.0
357.298370861449 2.7937
357.356655808627 1.14283
357.405422521701 0.715927
357.484102005553 0.534176
357.5468002775 0.554271

>collision 10.0
134.09617234438 3.4215
357.127498787456 100.0
357.297479500083 3.05115
357.356402441467 1.24243
357.433901100479 0.572269
357.479706283581 0.528715
357.535362556907 0.610791

>collision 20.0
119.073905556488 1.68073
134.097595363508 38.274
134.202872545169 0.773543
135.105207169063 6.35523
241.148573992398 0.533033
357.131031323456 100.0
357.297231275579 2.54334
357.35697211442 1.05019
357.477134372396 0.537492
357.531147756552 0.558831

>collision 40.0
77.0387589890981 0.540591
79.0546855192213 1.16762
91.055062922124 0.570743
93.0593157265095 0.685713
106.06568734243 3.20417
107.073383369883 1.71088
118.065166805182 1.26149
119.073325839105 30.4235
119.172846541225 0.548994
120.081256605256 3.21977
121.088648262552 1.67943
134.096877712721 100.0
134.202938358658 2.45823
134.235647711078 1.01437
135.104349222458 13.2346

