>compound SIBUTRAMINE
>formula C17H26ClN
>parentmass 280.182273267836
>charge 1

>ms1peaks
46.0661193804404 0.70705
125.015527444492 1.88571
139.031159041402 2.02027
153.046789074838 0.823869
280.181985962958 100.0
280.331655693393 5.38657
280.392120842418 2.32451
280.496719784301 0.965829
280.538164886658 1.11081
280.596890340287 0.726177
280.659447256977 0.665733
280.699927755751 0.667232
280.749619701087 0.623731
280.821218394767 0.551507
280.852090048109 0.530996

>collision 10.0
46.06626011163 15.7342
55.0549510936645 0.765435
69.0705481339452 0.532894
81.070800153663 0.549689
83.0861801322703 2.44096
95.086129524879 1.43696
97.1017761984942 8.09328
103.054580487786 0.512511
109.101614900679 5.48045
123.117415580851 0.965434
125.016003940408 36.7221
125.117396859283 1.13007
139.031451055048 43.6702
139.139068817856 1.43762
139.172992913057 0.581975
151.031316508906 1.31759
153.047220484047 17.4447
165.047038795728 1.94978
167.062572212026 0.793801
179.062741710347 5.98838
235.125851289519 0.730553
280.182273267836 100.0
280.33301236878 4.64001
280.389169518273 1.85207
280.495283619405 0.710259
280.538637997382 0.808688
280.595108349748 0.560332
280.662581783385 0.534394
280.700040872006 0.527642
280.741841237788 0.520985

>collision 20.0
46.0655472631065 11.7519
55.0545074025717 4.10474
57.0701070824214 0.786585
67.0541855682495 2.23128
69.069736240386 2.67724
81.0694643896632 1.40205
83.0851106117021 2.80328
89.037930968651 0.6132
95.084717296408 0.714291
97.1004084381042 7.11371
103.053256476284 1.90417
109.100159213923 5.86931
115.053024699082 0.603782
123.115553862547 1.07349
125.012635914895 100.0
125.116483544764 4.91269
125.147786185233 2.01011
125.1806169663 0.811059
125.225547600628 0.588815
125.252315808774 0.740913
139.029507495177 46.631
139.13815596972 1.69006
139.170499816293 0.696539
151.02925392548 5.22958
153.045030155982 13.4418
165.044848331254 3.89104
167.059947678276 0.571618
179.060426456545 7.6766
280.180312382325 1.54311

>collision 40.0
41.0395279206723 2.5231
43.055149093973 0.724408
46.0660406394432 5.07039
55.0551317636203 8.52863
57.0707765588864 0.52602
67.0548249172573 2.37545
69.0704966810229 2.57488
77.0390897114757 1.9377
81.070394948138 1.55421
89.0391323257675 5.39561
90.0469850890034 1.29622
98.9998783724138 2.36347
103.05463935015 13.628
104.062435995286 0.659987
109.101436266478 0.640158
115.054439485536 4.19996
116.062300567793 5.16955
125.01403116663 100.0
125.116867787378 4.78479
125.14925557222 1.87588
125.179744850367 0.871158
125.226223372333 0.642001
125.252914552354 0.757673
129.069890268185 1.57928
130.077749297139 1.90078
139.031096758588 7.57897
151.030834779301 2.20982
153.046635904222 0.573433
165.046399136736 0.623432

