>compound Nobiletin
>formula C21H22O8
>parentmass 403.139708584587
>charge 1

>ms1peaks
373.092133948214 0.808725
403.139708584587 100.0
403.318783633929 2.02719
403.379647605268 0.945212
403.432399332951 0.657659
403.567360446791 0.503508
403.732423540339 0.521212
404.136224713145 0.657183

>collision 10.0
373.093361848778 2.89794
388.117326584061 1.71967
403.141780795647 100.0
403.318129070217 2.25905
403.378899537799 0.983302
403.47376025938 0.650645
403.56206317747 0.567519
403.682520350751 0.54642
403.802262328394 0.528168

>collision 20.0
327.084823333655 1.1994
342.107890110461 1.53291
355.079563946824 2.51241
358.068629815777 0.56138
373.09053936383 39.1105
373.259844242585 0.579795
387.105650785359 0.548364
388.113927378785 17.6335
403.137693936846 100.0
403.318617752142 1.80439
403.377602807052 0.941684
403.449449563092 0.534158
403.533855304003 0.502147

>collision 40.0
68.9978664729963 0.572636
69.0333928252279 0.637137
99.044424483594 0.977936
127.039856621635 1.97956
137.023129017544 0.741533
162.067440486662 0.989633
163.075945003563 3.83048
165.047650878158 4.23238
168.006871408546 0.966498
183.028941893607 12.1246
193.014280203773 2.41824
211.024730321984 15.0616
231.065502856084 0.916294
244.075142907406 1.32993
246.091249254581 0.624895
256.075997773685 0.511106
257.081403618132 0.866627
258.05426605649 3.82469
259.061432747611 3.1025
272.068019340702 1.01358
273.078660085106 0.578495
274.087499528207 1.23602
284.068801683765 1.19168
286.084690811746 0.602569
297.059983330923 0.557406
299.092587167336 2.81203
301.072444219917 9.94484
302.078582867626 1.80603
311.057377282187 0.956086
312.066310906551 4.58024
313.07175927218 4.79357
315.052304282476 3.9404
325.045054077023 0.831818
327.087715788308 15.555
328.061201340084 0.992767
329.066591331274 6.08003
330.07531238324 14.3537
339.061686564868 0.77833
340.060905373967 0.606734
341.092119276644 0.651455
343.059849576734 3.34726
344.090405346521 0.620813
345.098420973492 7.68428
353.070880416196 1.0901
355.08378320673 5.81441
357.065375517661 3.73652
358.070443557194 14.1735
359.11228635296 0.659422
369.099559248321 0.559605
373.094435221486 100.0
373.264258297623 1.63528
373.317150176083 0.825474
373.400552949127 0.630926
373.560654429741 0.575349
374.097465737898 0.71601
387.109203963772 1.4438
388.117146015206 0.590423

