>compound Tangeritin
>formula C20H20O7
>parentmass 373.126727330191
>charge 1

>ms1peaks
343.083882267801 0.787038
373.13104499968 100.0
373.301325667552 2.29532
373.36358990924 1.01364
373.479154351168 0.538089
373.541396907293 0.54655
373.654544070449 0.521166
374.12812605259 0.503345

>collision 10.0
343.079294472236 3.46331
358.10260508087 2.5338
373.126727330191 100.0
373.29919511441 2.61898
373.361135996855 1.18086
373.537743196801 0.542906

>collision 20.0
297.077248374482 1.79589
300.063352323899 0.50594
312.100295290101 2.12122
325.07192546845 3.7805
328.058344415383 0.75885
329.102495907461 0.627125
343.083213664428 55.6545
343.24610826155 0.990307
343.301460902452 0.521861
358.106258708819 25.6948
373.130204575909 100.0
373.300998226678 2.2139
373.361723432072 1.03845
373.489474971641 0.502652
373.604320073684 0.520403

>collision 40.0
68.9978409639618 1.03666
69.0340584649839 1.13826
99.0443384945269 1.94359
127.039672618354 2.76168
132.056863511233 0.915981
133.065311254262 3.80933
135.044379249549 6.80635
137.023215704447 1.33717
139.002195318623 0.574857
165.019106973224 2.89566
168.006514300537 3.17878
181.014600691759 0.56768
183.029496627694 18.1035
193.01398481542 3.23026
201.056239292383 1.12089
211.024570741571 21.072
214.063791473363 1.757
216.079571880298 1.10102
226.063416287974 0.571272
227.071172277971 1.8469
228.042496696103 3.45572
229.05102019924 3.27161
239.071281217019 0.650121
242.058755505795 1.54302
243.065615523354 1.14332
244.074245405223 1.79072
254.059379246228 1.52089
256.072733552351 0.781591
257.047237650122 0.586398
267.065867860254 0.601549
268.074563788883 0.61887
269.082901172768 3.77198
271.061390968552 15.2487
272.06891387451 2.53139
282.055168544914 4.90568
283.062740867544 5.73674
284.067576362565 0.652667
285.043799797594 4.86551
287.092774318378 0.5281
297.077813657146 17.7265
299.057397618038 7.15356
300.064611991435 20.7502
311.087979368678 0.902924
313.06800494123 1.93628
314.082409535363 0.64775
315.088174162894 9.39038
323.057721861575 1.62232
325.073086726466 6.57435
327.070811669484 0.882561
328.059430601277 16.1949
329.105901567129 0.806888
339.088892937727 0.672837
343.083520989792 100.0
343.246115719182 1.76634
343.308177551773 0.907078
343.545564150191 0.510821

