>compound IBMX
>formula C10H14N4O2
>parentmass 223.119369808794
>charge 1

>ms1peaks
144.989491547235 0.735319
167.058626835139 1.35085
183.997139751583 1.1999
223.120464971032 100.0
223.256141645231 1.60623
223.302105112212 0.750033

>collision 10.0
110.034899750953 1.56944
144.491000441287 0.543623
144.988413715199 1.25913
167.056397919741 27.9095
223.119369808794 100.0
223.25576514093 1.54874
223.301026840702 0.760369

>collision 20.0
41.0408372597438 0.647128
57.0713730120596 3.34845
105.982358723351 0.885517
110.036074817032 24.9057
136.015899884997 1.08609
149.048797960212 0.607464
167.057849798583 100.0
167.174452243997 1.63488
167.211440607785 0.852235
167.252079262752 0.543548
223.12129036672 10.2048

>collision 40.0
28.0189924652755 0.620212
41.0395195608621 3.54365
55.0299832252102 28.9578
57.0706387761479 2.53712
67.0299887714559 0.507494
81.008321513614 1.20367
82.0404713884604 17.5182
83.0242409301954 4.56689
108.019077045083 0.529651
110.034855300058 100.0
110.131483540646 1.58496
110.164660194552 0.810107
135.029546215275 0.526653
136.013894733265 4.79449
149.044690210439 1.53029

