>compound TRIADIMEFON
>formula C14H16ClN3O2
>parentmass 294.100304438376
>charge 1

>ms1peaks
69.0694367651425 1.10395
197.073492871954 2.27565
225.066788934941 1.71899
254.028262738225 0.510609
254.523494015164 0.743395
294.100304438376 100.0
294.252994359572 1.6445
294.307956473807 0.948734
294.464879070302 0.524363
294.664693139861 0.516243
294.782438601325 0.511532

>collision 10.0
41.0395939735633 0.906892
57.0697350478602 5.68317
69.0699721560133 16.3129
79.0212270018775 0.957463
129.008655943354 2.28449
141.009100031914 3.04408
155.025778181911 1.40608
197.070915863202 44.2854
197.197249415753 0.674175
225.065695666377 26.8009
294.098108915077 100.0
294.252466435087 1.52025
294.299373336572 0.864457
294.405711342622 0.515131
294.457268271434 0.534827

>collision 20.0
41.0395276659379 8.44955
57.0703626594021 28.3305
67.0548117002303 0.588178
69.0699898917095 100.0
69.1467116210002 1.69409
69.1698144839112 0.759761
70.0778007242765 2.11056
77.0378679893745 0.613768
79.0204530545032 0.851594
98.9979367746907 0.70277
103.029941774575 1.01838
110.99869406727 0.586846
126.994019298022 3.79372
129.009207434041 10.4671
141.009035163985 14.6629
155.024317716067 6.8347
161.096222375308 0.823056
190.096618963656 0.566381
197.071252763498 57.3871
197.195064023488 0.7928
225.065893566012 6.30639
294.099915533719 3.23043

>collision 40.0
29.038548699259 0.51249
39.0231313592115 1.60366
41.0393564475312 88.1009
41.0984851062669 1.34866
41.1167914256366 0.65511
42.0466373730675 3.21642
43.0184418567157 1.55638
55.0550249772607 14.8753
57.0704533368115 100.0
57.1397683275658 1.53594
57.1604607971817 0.633528
65.0392775578383 1.68453
67.0545505203486 4.04389
69.0701009075322 71.1471
69.1461252751749 1.05718
70.0780496916631 22.0956
72.9842091963801 1.36101
75.0223633701232 2.93208
77.0386437255729 9.34116
91.0530639618236 4.49278
93.0325379260669 4.58995
94.040936649258 2.91759
98.9991678744786 28.9416
102.929234191521 0.628176
110.033630519411 0.822106
110.999468807209 25.9646
113.015100417582 9.31514
119.084767430867 0.66973
120.054187452094 1.06378
125.017099349552 0.691866
126.993970873842 24.5721
129.00963851628 10.4341
137.012194527634 0.517676
141.010298319701 13.4622
147.078580084556 0.892741
155.025542312582 5.05167

