>compound Ceftriaxone
>formula C18H18N8O7S3
>parentmass 555.051671912622
>charge 1

>ms1peaks
167.028169012359 0.543407
241.040938298108 1.05661
324.05703719497 2.36423
352.054444667279 0.727763
368.049979042027 0.592742
396.042704359295 14.3673
555.053653978446 100.0
555.258217949991 1.82505
555.394007918765 0.837642
555.500009738585 0.634896
555.62736379204 0.76319
555.757040401288 0.67889
555.866666265441 0.711773
556.049038739764 1.2386

>collision 10.0
107.062138953403 0.695456
112.019740630909 2.8447
124.020324812958 0.715282
125.003717466056 0.688789
126.011945313085 1.12214
139.030835671238 3.14489
140.017977690608 0.773854
152.015951316972 3.80505
156.022610035573 2.66373
167.02706409139 7.63769
184.012388092317 0.782075
197.046453455432 0.629263
201.044980167362 1.97136
210.01717223678 0.700021
211.028712271023 0.773251
212.035997791787 0.73948
213.041034649994 0.768035
215.987170889187 0.610611
223.025116603572 0.653997
232.06225597927 0.625816
241.037660790802 12.7965
244.062200982619 0.852269
245.0482641208 0.60567
249.024612490347 1.2856
253.036870313874 0.578717
264.037746054187 0.505325
265.021095935206 0.517291
276.036190296046 0.83513
277.035842421237 6.37429
278.028172883502 0.892148
292.031603096864 0.621601
293.038705796766 2.42156
296.060675471281 1.33237
308.060079848144 1.2718
321.031031944451 0.54731
324.056941917416 31.8125
352.052714691649 8.37175
365.020686317203 1.17682
368.045478631869 6.15459
396.041252313132 100.0
396.214366771422 1.55579
396.276005802316 0.937456
396.400805761261 0.693173
396.516843451435 0.647322
396.64486597491 0.647555
396.753189645261 0.578781
397.012806883833 0.767361
555.051671912622 68.245
555.34596578569 0.74243
555.519115663921 0.75175
555.657409804481 0.577614
556.007244463713 0.738254

>collision 20.0
53.0422503809419 0.591205
80.0513352721782 2.26678
85.0089691250497 1.51908
94.0630055504762 0.532409
95.061115533695 0.53339
97.0136605427304 1.38631
107.060382339267 4.8556
108.05480531692 1.07938
109.076469871022 2.92546
111.016253277704 1.37353
112.02146185754 16.786
113.024133941103 0.595166
124.023050512715 3.61732
125.005433439923 9.30296
126.011465610185 13.0875
127.024770032458 0.73056
135.054779608989 0.623206
139.033082159025 25.0377
140.01850004276 9.81899
141.00186427296 3.65855
141.048259378039 6.47336
151.035762929851 1.06657
152.01702362959 26.6899
152.120535989315 0.53724
153.013971174698 0.992129
156.023928672729 31.4256
156.135386630699 0.50532
158.027076457329 3.12338
166.032381605869 1.607
167.027002141451 89.4823
167.140653829387 1.25912
167.174552810137 0.673252
167.22270494241 0.592091
167.295858622709 0.577951
167.417437026161 0.74474
167.54649932836 0.538892
168.026548891867 1.39284
170.029878123471 1.36248
179.010779920711 0.583329
180.009675426223 2.58004
181.01798498108 5.13584
182.024615532971 5.64085
183.03385253879 1.786
184.016891001018 5.56835
193.017487855014 2.15195
195.031025258915 0.73854
196.043982734602 0.682201
197.050536261274 5.54329
199.057671525184 0.73597
200.033576642137 0.682047
201.043225087489 14.7158
202.025944378967 1.19294
209.015867821549 2.16265
210.016871396162 5.4595
211.028796858444 12.9722
212.033563537013 6.80603
213.044510624042 4.60506
215.038229607489 0.606383
215.992955299679 4.22743
217.054852714033 2.37917
218.056534323903 0.608025
219.06435921092 0.782441
222.012634460645 1.23406
230.042664879654 1.04314
231.056215053337 1.74568
232.0644237054 5.56497
233.052957582985 0.984041
234.011873923872 0.643395
235.005378161624 0.696672
236.009637435427 0.764527
237.036188205557 0.836891
240.030032009958 0.697141
241.039498999192 51.2671
241.17430503187 0.815029
241.275380878064 0.513853
241.429255571463 0.517942
241.781387615576 0.530448
243.058180560959 2.51903
244.062724426258 11.9257
245.049284005076 6.97826
247.017692632151 1.34739
248.021327347448 0.918219
249.028548198673 10.038
250.032949090952 1.38021
252.008274464237 1.26683
253.036405299203 1.96376
259.017597789392 0.576001
260.055470991494 2.50013
261.021952471579 0.746469
262.015849483571 0.777209
262.07324749846 0.826085
263.056266329791 1.55731
264.037818082703 2.2074
265.020792214585 4.46524
265.080248023642 0.645242
274.0245918763 0.96868
275.015618943398 1.29523
276.037382971388 6.96568
277.036618252063 32.5656
277.167802956459 0.67154
277.232889588625 0.520764
278.030590481444 3.74665
279.036699126337 0.980127
283.038923974284 3.10877
288.055378988291 0.68738
290.071695371376 1.28499
291.065439587655 0.592624
292.029461865482 2.19136
293.041274608416 15.862
294.029883722412 0.524918
296.063580892609 4.63919
306.044053327133 1.36892
307.029304461323 0.581736
308.062101019939 5.27027
310.039898682471 0.560573
321.03404612535 2.58064
324.058950051304 100.0
324.29365567752 0.898922
324.50793251604 0.609641
324.645464032972 0.750357
324.799640658823 0.575341
324.928266181505 0.5731
325.054248315491 1.00537
325.306427636471 0.528624
347.016133491257 2.30421
350.034846258247 0.597238
352.055341862221 12.9492
365.024153151252 2.57056
368.049226311197 17.8945
396.044275916961 56.2045
396.202602753382 0.764117
396.28433102 0.511419
396.443106331163 0.505831
396.689170671541 0.621025
554.311188595221 0.747015
555.050773068744 3.93915

>collision 40.0
41.0378671997848 0.903036
42.0340837161894 0.746629
44.980674859357 2.42909
45.0345439735105 1.31252
52.0160183099941 0.51587
53.0385472945917 2.78584
60.0437478200571 1.23617
65.0351690251051 0.576094
66.0334038130843 1.03096
68.0484651071809 1.40522
70.9996565442528 0.504324
71.9887214466956 0.991662
78.0334151553457 2.13552
80.0490175453163 16.29
81.0322565000986 0.56425
82.0657969761758 0.559628
82.9890451740497 1.0369
85.0107593256659 17.0921
86.00613470978 1.7529
89.0044529688267 0.941173
92.0480114690411 3.85207
93.056025447993 2.76536
94.0512600087845 0.952451
95.0601680324823 2.59703
97.0100713697814 17.4064
98.0047934894467 3.1776
99.0070613822756 2.97243
100.011483355322 0.754657
101.009914341974 0.809964
105.044301492936 1.26521
106.046282116014 1.93865
107.058851614448 16.7609
108.049606237195 3.10084
109.074862854224 1.37759
110.059967681285 1.52155
111.012884231765 6.98718
112.02100988427 49.2123
112.098389325439 0.734712
113.028020535158 2.25385
114.001708226726 5.87504
119.059213066658 0.659512
121.039409167973 0.957097
122.005383558319 1.62386
122.059332415191 1.69882
123.001593868881 0.520324
123.063610385148 1.26848
123.108578057065 0.554618
124.020469208739 22.7218
125.003491170675 100.0
125.136581595856 0.876711
125.158777086657 0.551457
125.19995462215 0.555728
125.268031010622 0.697804
125.410235377225 0.610672
126.011313488914 69.8381
126.137000282475 0.770546
127.020352059948 3.71176
128.030008144852 1.88048
128.997306371343 0.873728
129.035517401912 1.8055
133.036647557191 2.67392
134.001329718819 0.668754
134.04590898598 2.38101
135.054132659037 0.829503
135.995282003027 1.04497
137.015861489195 0.993634
138.013455849127 2.3473
139.031095358522 36.7172
139.136169776529 0.658115
140.015899784652 72.4223
140.123107994165 1.28343
140.163645926384 0.618038
140.207545833842 0.56127
140.326198936679 0.542145
140.541996296666 0.62617
140.998397900197 27.8428
141.04556438068 9.95214
141.129214145795 0.567823
142.02275843184 0.629435
142.974653486863 0.843572
149.01299553305 1.5092
150.013930721884 1.30117
151.03337021452 2.62688
152.014689905039 31.6746
152.119495049902 0.695225
153.02161158589 7.66449
155.017054523916 1.33372
156.021438952265 46.7016
156.134410109242 0.706914
156.203313861842 0.64436
156.976002147021 0.575762
158.029170140382 1.46445
163.030469317973 1.81291
165.012013466192 1.45662
166.027865106648 12.9777
166.483148020182 0.53389
167.026001591481 96.0097
167.178324673958 0.891073
167.277805464304 0.536839
167.410935005533 0.693049
167.573180346089 0.691885
168.015159180354 2.53287
170.026036890232 1.5322
174.070474111746 0.770803
175.021418268578 1.37341
176.024091810903 1.37357
178.039717623784 1.70403
179.001087670671 3.48761
180.009121075157 5.79726
181.016033007208 21.4745
181.171203164464 0.559071
182.025021756696 9.11272
182.370465899501 0.612643
183.032139118615 2.9035
184.016978740558 1.94359
185.078988647031 0.553011
186.084225279428 1.04104
188.029387462237 0.904028
189.032566149664 1.46676
190.038047872457 2.69972
191.027243301597 2.52637
192.029861443029 0.906378
193.015703901114 4.08805
195.003754280231 1.15041
196.01693336166 0.755948
197.0480039428 12.2019
200.031193883819 1.91443
200.086423532509 0.921873
201.04207240078 7.11779
202.03084727181 1.81708
203.03565194409 4.34538
204.043474210424 1.04356
205.049493458438 2.47113
207.001013185851 1.29127
208.002767017248 1.3224
209.011239141397 12.9545
210.016165471064 6.29894
211.026340423908 25.295
211.155572734676 0.593675
212.024721302755 0.879484
213.043205622069 1.75764
214.028277001659 0.558381
215.032280152244 0.627332
216.027616420398 2.24354
217.051043121366 6.26068
218.050425730573 3.15103
219.065448580308 1.51198
220.012919035386 0.580631
221.019456323848 0.694427
222.009735501236 1.61042
223.022985784088 0.640478
224.055687179116 0.848528
224.988224954423 1.44537
225.993354182182 3.17299
227.003425267904 1.6161
227.985337856324 0.625057
229.04420693729 0.984492
230.046518703408 2.2835
231.05280396611 3.96614
232.062484925567 11.3406
233.051156426733 2.56587
234.021408403782 1.48689
234.999085917483 4.26381
236.015347444986 1.33321
237.018879547831 1.3149
238.033413327848 0.543788
241.036925082018 7.23092
242.059194948996 0.562198
243.052938629183 1.68083
244.062241660963 20.0579
245.047489313279 15.0094
247.00681415378 2.93866
248.017040074423 1.65546
248.056307675479 0.713822
249.024060380352 13.3538
250.023204106444 3.37771
251.061082344693 0.566132
258.045676156939 0.73538
259.04545977326 1.28941
260.058442913097 4.5871
261.020617803592 0.736314
262.024028616383 1.35514
263.054638077833 0.942336
264.030378223995 1.81496
265.017557388325 1.30418
266.032013784072 1.05224
267.036586095509 1.25908
274.019002247327 1.95361
275.015659806144 1.00032
276.026324448669 1.29735
277.023122575606 8.87131
278.020849683375 1.17781
279.033329215128 0.624262
283.033416848283 0.839289
288.052429927588 1.5146
293.034024720664 1.41208
297.043260817692 0.502563
306.036195845543 0.781788
324.06329852261 0.827741

