>compound BENDIOCARB
>formula C11H13NO4
>parentmass 224.092558831503
>charge 1

>ms1peaks
53.03796264918 0.550229
59.0497998198951 1.98392
79.0193141113008 0.854354
109.030475034272 4.34012
145.985347960697 1.06486
167.071079764642 41.3748
167.191132166018 1.03498
167.273841173606 0.587957
167.352709354114 0.85862
167.474738705847 0.527069
184.991593789506 1.97822
224.092558831503 100.0
224.223399346576 1.6743
224.26258701821 0.881226
224.35217290278 0.613136
224.51011364351 0.84523
224.5954142736 0.960036
224.733680441952 0.682921
225.022176618398 0.719076

>collision 10.0
58.0275485917815 0.544918
59.0499063103008 9.09936
74.473104209658 0.558003
81.0355187725307 1.31667
106.980237138328 1.99352
109.029272440614 59.7183
109.509964805769 0.523856
139.071341130968 0.694894
145.989369353033 1.79578
166.065113202472 0.678436
167.071569676952 100.0
167.189511705184 1.39445
167.227810214451 0.743528
167.264007273208 0.657577
167.311974470942 0.753626
167.851207948287 0.568923
224.091045755245 1.48398

>collision 20.0
26.4330477875958 0.569446
59.0501294745169 16.1169
61.007450521505 0.818722
81.032627713558 18.2911
87.0013614374172 0.685983
99.0466843154131 0.594747
106.978612134959 3.37205
109.027589988709 100.0
109.100934928161 1.78307
109.126702335615 1.22617
109.151536136248 0.855601
109.256095952526 1.4063
109.328902184764 0.520206
109.407947171232 0.585146
109.514262181597 0.596885
109.772866818152 0.665824
121.065250625193 0.710733
127.037902679016 0.90517
139.025629838003 0.647624
148.040543290593 0.552276
166.061375630491 0.666857
167.06622324406 4.44863
167.577775673076 0.5433
202.077950137191 0.534578
213.965756049388 0.662844

>collision 40.0
31.0163863774002 1.70376
51.0258320712207 3.1019
53.0403092552634 19.7634
57.9328773140043 1.22965
59.0501852621754 23.5828
61.0121283546365 2.2667
65.0425949554602 0.990516
67.0556941010033 1.26978
78.0546899935219 1.26669
81.0337057251133 100.0
81.0953542929049 1.91088
81.195841500409 1.24373
81.3585555318066 0.854078
81.7076881738818 0.822351
91.0515091331091 1.15955
104.934856170421 0.79381
109.028610204549 29.1159
109.080680994562 1.04177
110.104629729093 0.775005
135.946362448287 1.04229
151.041333571878 1.52363

