>compound NEOPINE
>formula C18H21NO3
>parentmass 300.161145653842
>charge 1

>ms1peaks
199.076784299246 0.519607
243.104003939588 0.696034
300.160809174587 100.0
300.31461605102 5.40006
300.380829475352 2.3553
300.48476566916 1.0256
300.528963804263 1.13818
300.578380428416 0.749589
300.654394282943 0.701517
300.695055936862 0.704297
300.733605043725 0.644824
300.779160242672 0.596205
300.821219201551 0.577466
300.904856241115 0.52146

>collision 10.0
44.0509238787143 0.60764
58.0666570830888 0.928907
183.082344551265 1.30844
199.077628766548 2.81814
225.093321098201 0.507253
243.104523321908 5.39136
300.161145653842 100.0
300.315132958758 5.36413
300.381488307973 2.37948
300.485321987791 0.999355
300.52914492297 1.13973
300.576972305522 0.745382
300.65610404996 0.667536
300.694975347706 0.689225
300.736976440626 0.647355
300.818314504509 0.564724
300.86155286091 0.54726

>collision 20.0
44.0504860955321 10.172
58.0660807433676 12.9164
141.069854292391 0.531163
165.069487686187 1.24766
169.064620328702 0.505258
171.080074487653 1.42756
183.080453583973 18.9822
187.075675475269 0.527866
193.064680753683 5.98402
199.075355839485 45.0038
199.204465446677 1.56189
199.24367822778 0.619905
201.090913972334 1.08113
211.075234763244 5.33709
215.106499511758 3.33529
225.090943475039 7.279
237.090724413953 1.08114
241.086291487607 1.55
243.101625452401 47.4295
243.244263223633 1.55111
243.290981988992 0.691667
257.117679290153 0.673126
269.116712447792 1.09533
282.148637235534 1.15542
300.157551188805 100.0
300.316093802795 4.57045
300.372893496298 1.7976
300.485939489674 0.680916
300.527094233698 0.730948
300.617872448984 0.52104

>collision 40.0
30.0346520154192 0.565845
43.0432229480443 0.909526
44.0509969606417 50.4977
44.1123069091927 1.26572
44.1308815238625 0.531205
55.0193357012879 2.43968
56.0507794617514 2.09272
58.0667044311364 41.6645
58.1362122526773 1.0031
115.055287872822 5.31007
127.055424984693 1.67557
128.063114054075 14.0839
129.071263277663 1.41308
137.060916620074 0.937279
141.07135239134 26.8937
141.178525330002 0.525402
143.086443202316 2.24775
144.058513768238 1.02411
152.063138578138 2.17194
153.071369878489 11.9307
154.078833114448 2.07616
155.086906350626 14.0091
156.058447835026 7.80143
157.067568481225 0.632981
158.074113155436 0.976932
159.077226260852 1.05046
161.060715193111 1.37925
165.071378064077 39.797
165.186872685982 0.79735
166.078874447543 1.322
167.086598641143 1.38501
168.058613178679 2.5117
169.066636745388 4.41987
170.074397636222 0.58161
171.082178876022 60.4498
171.200442712315 1.39904
171.236990163241 0.641549
172.067327359125 0.956847
173.094085301195 0.510258
174.069460083993 0.665748
178.078816227305 0.640603
179.086703126497 1.05166
181.066594269836 6.63775
182.073996916403 2.9745
183.082118453937 28.5597
183.203640132519 0.59169
184.05491400202 3.04706
185.064027917153 1.28608
186.068144760294 1.19263
187.077713259567 2.49167
191.086402543224 1.26064
193.066664882689 10.7329
194.074524042866 4.05887
195.082738551093 1.18142
197.093551916848 1.8576
198.06971901326 2.49761
199.077692637307 100.0
199.204460193085 2.92899
199.245485162466 1.15068
199.286367009363 0.635016
199.376036180442 0.518571
200.084815719142 1.64265
201.092095910761 2.29365
207.082597656647 0.542651
209.082779444123 0.731361
210.069949183279 2.46175
211.077122284397 3.32617
212.085553625186 0.665456
213.09160535862 1.69148
215.108320327115 3.85375
219.083095507399 0.554272
223.07888386197 0.820499
225.093088250677 6.54248
228.087107801177 0.968237
237.093485315499 0.706894
239.0741350172 1.51333
241.088143696154 1.85067
243.103885379788 3.78575

