>compound BENZYLBUTYLPHTHALATE
>formula C19H20O4
>parentmass 313.143413551787
>charge 1

>ms1peaks
65.0383539485602 1.06159
73.0644835890141 0.543741
91.0539632981013 29.3852
91.139567272147 0.513678
149.022852573518 22.9413
205.085865225841 27.3685
239.068582014574 2.06252
312.165566252893 1.49535
312.359074608006 0.666562
313.143413551787 100.0
313.351172156327 1.01102
313.418614295909 0.844429
313.613473628914 0.572178
313.834593399371 0.753832
314.038766957837 0.668682
314.12901822962 0.522299

>collision 10.0
41.0367239590829 0.580766
57.0692787471204 0.679941
65.0396773533542 0.960451
73.065134297333 0.597768
91.0535340387858 100.0
91.142999934848 1.2753
91.1674434664958 0.940643
91.2180648616995 0.568828
91.2715648050716 0.725277
91.3005623777746 0.523657
91.3958750133054 0.575484
91.9475329320259 0.708979
149.021628641945 80.6794
149.135160110721 1.20678
149.161607011233 0.624389
149.303666807458 0.522768
205.08339177258 14.5511
234.957400818812 0.579987
313.141841442788 2.27917

>collision 20.0
57.0695363015323 1.62728
65.0388142630231 1.20705
91.054232022899 100.0
91.1421327583458 1.23928
91.184278824264 0.561382
91.362296362905 0.507161
149.022570583898 42.3114
149.128749830052 0.592474

>collision 40.0
39.0204153126296 0.600001
41.0381568513852 0.567128
65.0386661224432 8.94699
91.0543670473594 100.0
91.1405923251566 1.46484
91.1790550425884 0.819806
91.4074441466791 0.523505
93.0324176574884 2.2832
121.027507231722 3.89969
149.022974242772 13.0043

