>compound KOJIC ACID
>formula C6H6O4
>parentmass 143.033864226835
>charge 1

>ms1peaks
69.032425386564 1.04902
97.0265566086168 0.832573
101.094968058883 3.97114
101.122718949136 2.01007
101.170357847329 1.2123
101.21203487265 1.04763
101.268955125459 0.971481
101.326859464169 1.02418
101.392271496621 0.899937
101.425203214318 0.697801
101.457266993033 0.621493
101.523104105214 0.924988
101.565794283709 0.752571
101.601834968162 0.606594
101.728715943912 0.555416
102.005810827151 9.05053
126.101533521444 0.648348
142.028811926418 5.59614
143.033259761273 100.0
143.111638262461 2.08562
143.139342480678 1.86094
143.196852934459 0.888335
143.263090308248 0.517381
143.56193526284 0.538588

>collision 10.0
41.0383843608753 3.03919
43.0194296407462 2.70793
69.0334736061839 8.44815
71.0126704970487 0.703352
81.0324607035524 0.816157
83.0122193546501 1.68348
87.0089550934881 0.630441
97.0274335777396 7.3928
101.097598072546 0.63789
102.005457146635 1.45434
143.033864226835 100.0
143.141960749725 1.55761
143.180340249515 0.611799
143.373547729563 0.501913

>collision 20.0
27.0245521283593 1.06674
31.0166349517063 2.75767
39.0230715152491 5.64802
41.0385761130277 63.7897
41.0971557410173 1.58314
43.018474467302 20.9597
45.0343325686936 1.65056
45.4001783479782 0.914837
49.1432675708095 0.942925
51.0214406589749 1.90746
53.0031296510766 1.15744
53.0383629909 4.12404
55.0178952014004 23.2855
57.0337780839383 5.7856
59.0487329114205 2.19284
62.99039040582 1.88545
67.0188883208009 2.1745
68.3561393768618 1.78127
68.9959392460625 3.34264
69.0337069456773 100.0
69.109576781042 1.92751
69.1318396336383 0.994242
69.2505888513558 0.991143
71.0139263075688 7.05287
73.0341249789229 1.09954
79.0158108185412 4.21836
79.0309878577185 1.51564
80.0271207179444 1.23639
83.012512048749 4.44844
85.0271059544948 1.24368
86.033672198274 0.965604
95.0087472567804 1.50201
96.0180655112596 5.11565
97.0268881487832 40.7953
97.0803242056362 1.31187
98.0641836586588 1.56934
100.996744042502 1.78157
102.001102616341 1.79143
107.010989336075 1.64358
107.797202956249 0.966538
112.975197373805 0.936521
113.021500472914 19.5276
114.40635599725 1.07631
124.040957811071 1.20232
125.018485385644 2.4416
126.028146045329 2.62821
143.032887833288 74.5559
143.145007322115 1.56895
143.476837975651 0.971887
143.740998784323 1.16638

>collision 40.0
27.025664422163 8.76495
39.0240413716611 100.0
40.0334063527628 12.1097
41.0009109364445 8.45399
41.0397173953772 94.0455
42.0099684011238 8.95643
43.0211782029553 39.435
45.0348820963381 15.4701
47.0124379408122 26.8427
51.0233277201032 59.0767
52.0345681567818 14.841
53.0036782690398 10.6124
55.017260288806 30.6166
57.0320493601171 15.2349
59.015691614047 22.0911
66.0114794656288 6.01316
67.0182464421099 21.119
68.0278550651828 14.893
68.9976882008277 58.7224
69.0350721600929 22.9907
70.0658780792415 11.135
79.0176875546516 6.77387
81.0315422548147 13.9736
95.014319145032 16.3327
97.0295475960046 12.6964
98.0942311267724 7.13955
113.019753512508 66.9011

