>compound AZINPHOS METHYL
>formula C10H12N3O3PS2
>parentmass 318.014792205019
>charge 1

>ms1peaks
27.1980054194727 0.862986
31.8060729203276 0.863787
40.5752632085647 0.963026
42.7855682816528 0.972165
61.0108684817569 1.49825
63.4427098644459 0.870414
77.0402839613493 2.94464
80.285058845584 0.867731
94.3183727997134 0.906163
102.16820117557 1.0615
103.674188402543 0.884767
104.051515802834 4.09643
105.035172312218 3.72474
106.243399397678 0.889304
124.984334111509 7.15567
132.045590056422 46.6059
132.526511902227 1.4239
132.940217703453 0.885766
133.25328305335 0.901863
147.764774489908 1.06012
148.017000672799 1.3227
154.013621217317 1.1448
156.531247769214 0.918919
157.325214633359 0.87002
160.051213936741 94.7682
160.164264726676 2.61094
160.221264404069 0.971034
160.326981059353 1.4178
160.461591941255 0.864201
160.590006583132 1.21769
160.78052512953 1.00348
161.021716467681 1.26006
162.053443176249 1.6282
163.053480261345 0.932497
167.017618089427 1.5197
168.783203070893 0.903691
169.247004069371 0.862924
170.968892191359 11.4674
173.34358871897 0.97703
179.939321084219 1.23209
180.387750247097 0.863463
195.671876619081 0.884497
195.802019680793 0.869216
198.438636590148 0.955958
200.503624849574 0.927771
201.423180890856 0.866495
226.174669399989 0.863761
229.969094177894 1.01984
238.983151587956 1.00207
244.032142357207 1.96345
257.18249474767 1.01472
260.981386381217 36.0923
261.119771071076 0.931609
262.101866794716 0.915958
262.193350124957 0.926398
262.506682628012 0.920552
276.171717625195 0.92951
278.019528932546 1.72805
278.559620193991 2.01708
278.894869031029 2.28444
278.950023248804 1.56135
279.004030583749 2.48091
279.095527974198 8.05245
279.17295989402 1.2515
284.497337140489 1.07875
286.498490028735 0.906152
290.016309193915 1.31645
300.611501541142 0.864967
316.048763237171 0.925927
317.088199499961 7.06066
317.218994633958 6.17311
317.41731737937 0.970889
317.936884769026 1.59748
318.014792205019 100.0
318.226220191805 3.03345
318.305890481919 1.42691
318.357816084799 1.07971
318.484111706188 2.27582
318.573618774812 2.08662
318.644620729102 1.73214
318.709531021652 1.77618
318.887824845325 1.1457
318.990084335548 1.16585

>collision 10.0
61.0162254786098 1.1358
77.0383592459635 7.00292
79.0194154919693 0.90775
86.094590250911 1.52787
93.00831063277 0.619529
96.9183739247875 0.571353
100.074218531851 0.661782
100.245312326141 0.803184
102.03112501008 0.675415
104.050019327759 9.59682
104.077826268561 1.88632
105.032416854134 7.16379
123.59163634554 0.841761
124.980445734204 21.1878
132.043216969179 100.0
132.12692304384 1.86314
132.180827837746 1.31182
132.205442017206 0.851812
132.246761341427 0.943854
132.287141235737 0.698028
132.33435474941 0.723467
132.396858522873 0.547026
132.659548638291 0.691673
133.199487010067 0.655073
160.049171390972 29.911
160.165393433466 0.670998
160.399420771903 0.625401
162.971106561424 1.47226
167.019366464127 3.76082
170.904903529573 0.710082
170.972362758779 5.18105
172.003772377099 0.645751
182.98818219501 1.1842
210.146026018484 0.541602
225.974448152153 0.93874
238.089410707193 0.565765
239.09475619755 0.816156
240.004097872447 0.688022
250.958599011954 0.618034
256.142235576196 0.539465
260.978560924801 15.9384
271.02584679287 0.750157
271.993312140179 0.76564
279.003865569496 4.8234
286.978711520091 0.836911
301.021752039493 0.873514
317.097254594253 1.92478
317.167178183143 2.38205
318.015499702086 0.856515
318.069228633021 0.631889

>collision 20.0
30.1099744138811 0.846515
51.0221809351494 4.04334
58.0653709173942 1.31357
70.8265127000512 0.77953
77.0392865868933 36.4084
78.9940566318993 2.26393
79.0232911541223 2.80385
86.1038681952333 1.00672
97.9999381767507 1.51006
102.033174023865 2.87134
102.995468328757 0.751723
103.100997218918 1.18212
104.048679242386 19.4333
104.142233536936 0.745936
105.035236133125 20.3582
105.101746047304 0.915339
112.920389701655 1.10092
113.07101899621 0.897394
117.972849140895 1.10785
121.023369865685 1.257
124.983862101277 15.3654
125.682390026281 0.76176
132.043460484547 100.0
132.144028673311 1.49272
132.191459852949 1.15595
132.372158715174 1.11672
132.413989500636 0.862908
132.621262584108 0.753835
132.881637696672 0.883337
132.957265170567 0.761162
136.999705755827 1.76349
145.969948767229 1.13053
150.057132262024 2.34779
160.04886653074 2.1215
162.065699931754 0.911344
167.017017254975 4.8097
167.066246139545 1.69069
178.085702763246 1.69113
189.954271265535 0.95694
197.118877098263 1.63303
201.009905285199 0.825839
212.903583321771 1.09421
215.937649719071 1.70939
240.083084640656 2.02842
317.089775871509 0.775701
317.20988088615 1.14009

>collision 40.0
46.9952471863069 3.05104
51.0237428392181 5.06663
57.0695103813882 1.2334
75.0220989292785 1.40337
77.039298109836 100.0
77.1036679585013 1.53701
77.1209977670099 1.07903
77.1982789488209 0.962962
77.2715466730742 1.19803
77.6483709809015 1.1444
77.8049341038236 0.799922
78.0174440835699 1.48183
78.99347351339 3.32573
79.0246797769291 2.54977
84.9590092542018 1.0645
92.024149916722 0.812552
93.0397673458944 1.22334
93.9886661611325 2.57686
97.5409580761867 1.38007
102.034616895328 7.63926
103.089475517104 0.829382
104.048751470599 16.2705
105.033471994646 8.1779
115.035514932497 1.40166
116.040780053376 1.04866
124.980937929681 9.57951
127.619389275392 0.797959
132.043157157606 4.41419
132.971145312479 0.829569
134.898773512376 0.937805
136.000959042741 0.791119
138.027282943488 1.92486
138.555183208003 0.965723
142.932265734985 0.879767
151.993558540909 1.25636
162.051889280021 0.936785
227.005713448401 0.841551
287.094398923701 1.24868
292.956650744957 0.979298

