>compound ALACHLOR
>formula C14H20ClNO2
>parentmass 270.127432757648
>charge 1

>ms1peaks
45.0333916078266 0.75354
162.13064755957 1.54745
208.083605759011 0.780005
238.100559015811 17.4136
269.175828734642 1.71994
269.552822123982 0.610002
269.970777691733 0.724635
270.127432757648 100.0
270.339474492611 0.794771
270.405309724419 0.555268
270.520243085383 0.723105
270.609834137772 0.575561
270.778629575564 0.834929

>collision 10.0
45.0340170069612 6.71934
90.0084202123902 1.97017
91.0535020744984 0.546646
145.100360415538 1.22325
147.100973768722 0.706949
160.113347167617 0.623714
162.126300886436 22.5468
163.108771688889 1.39242
185.125077659591 0.563958
192.136299726848 0.558524
206.071456956544 0.862623
208.087887753946 1.3849
220.084599297745 2.69766
224.083220675297 4.15278
238.098002513761 100.0
238.233769382647 1.68887
238.26913231558 0.870325
238.335058274972 0.504919
238.414284750399 0.998557
238.533939218413 0.822969
238.685839632427 0.773034
238.767357113578 0.596744
238.918224363279 0.70099
241.26340217219 0.521778
252.155895520119 0.533671
269.169430591307 1.35328
270.122797481801 23.1142

>collision 20.0
43.0153868622652 1.15641
45.0348069428995 57.2403
45.0963544984577 1.04553
45.1142321004397 0.91812
45.1441215159235 0.91811
45.2348308884131 0.724702
48.9833029797714 1.42873
76.9781330159625 3.57203
84.0821625670357 1.00175
90.0111318745453 22.348
91.0537300991479 0.899124
92.0577536366986 1.6419
103.057691528776 1.4817
107.091285453696 0.735974
109.062275296145 0.963726
117.055240794582 1.81277
118.062201905438 1.5651
119.069988753148 0.788961
120.078875501055 0.825204
131.07066922237 0.966964
132.0802427123 1.2614
134.095129218532 1.76774
142.028451664986 0.75073
144.087129748589 1.22855
145.09903525055 2.80336
146.094960296503 4.84919
147.103695197055 8.08163
147.207258440673 0.669624
148.116360278002 1.14905
149.088791848572 2.37725
157.089895368931 1.21398
160.108015841041 2.10962
161.119868299824 5.24753
162.128263160133 100.0
162.238375992884 1.44384
162.280403119967 0.938523
162.457215245343 1.00108
163.111307740787 15.8462
163.206443482312 0.967205
163.237754067917 0.900847
172.108431234888 1.00442
173.084222847362 0.853798
174.090545455579 2.83496
174.13076285223 1.70474
179.045364184093 2.20654
180.051948436836 2.19915
182.06862653116 0.902761
184.110123558787 1.17185
185.123247157626 1.06038
202.118961974254 1.46687
206.071512097068 6.96945
208.092282567229 4.1434
210.068075638906 3.26727
220.086392285819 13.5878
220.197252255378 0.668636
221.317082050747 0.992081
224.080578153573 5.06719
238.0996255318 61.1171
238.200806173365 1.30594
238.287984199313 0.78356
238.436902341799 1.34089
238.627035497331 0.860203
239.113784084419 0.88677
239.424527679861 1.06626

>collision 40.0
38.2172413867287 2.01436
45.0340823867688 100.0
45.094363150495 2.07595
48.9841868048188 11.8874
65.0421302891654 1.41875
76.981258794807 6.91789
78.0440343059373 2.37643
90.0141214021876 8.6366
91.0547446056228 10.9424
93.0726914944087 2.43821
103.060082441512 1.89645
105.068868551061 11.0122
115.053352662221 4.19273
117.061808104025 4.57225
117.978001970091 1.45516
118.065116516912 8.79597
119.072970678877 6.41479
128.926661862764 1.41856
129.073150284329 2.25699
130.06594685549 10.453
131.074405802604 9.91772
132.079912595358 65.018
132.142019602636 2.57148
132.189024482987 1.45788
132.521697950311 1.57394
132.61874758546 1.94847
133.048425801013 2.29638
133.087400324457 4.38088
134.093470120279 4.59128
142.077327117182 1.61804
143.07402639533 4.41513
144.080344879913 6.41994
146.09740131915 19.1359
147.10305690344 86.8485
147.195079846757 2.15265
147.642467758996 1.60007
148.115537758197 2.03683
148.165349618917 1.38123
158.098880156054 4.44602
160.107150206054 1.84513
160.875453683089 2.20757
162.129967842323 28.2302
163.112720733006 7.48991
170.103109245358 3.71263
173.129153690161 1.38416

