>compound CARBOFURAN
>formula C12H15NO3
>parentmass 222.112881975957
>charge 1

>ms1peaks
123.044746035852 1.26011
165.091333983226 9.23708
222.112881975957 100.0
222.246071633338 1.6662
222.293713404957 0.912377
222.377922284298 0.560777
222.455276169539 0.58605
222.545044998203 0.528797
222.665852607812 0.515067

>collision 10.0
55.0540891806597 0.895257
119.084729682208 0.664408
123.043337412909 18.0459
137.059544902558 1.27997
147.079107511295 0.781126
165.089282248664 100.0
165.205782607238 1.59839
165.241706145195 0.836181
165.296268124311 0.522573
222.110096522052 17.8129

>collision 20.0
55.0554478467878 13.4805
58.0296117681981 2.10988
91.0557774671656 2.08357
95.050938996177 0.80765
109.030618654865 0.512579
111.045879178775 0.782775
119.084801245328 4.25213
123.044351778049 100.0
123.144375811444 1.5425
123.174265622121 0.699063
123.502271471284 0.51765
137.05931988362 8.22957
147.081564494943 3.16225
165.090942313794 37.1552
165.207361686086 0.566981

>collision 40.0
29.0392924149559 0.811384
39.0237714972971 3.15299
41.0391853639877 3.82053
51.0235763323968 4.87303
53.0387870528817 1.13482
55.0197824881246 3.26074
55.0552204149841 29.626
55.1076920919965 0.596929
55.12410175628 0.57793
58.0296324423691 8.23559
63.9985102524547 0.51615
65.0395230526593 7.46532
67.0556355571485 14.0963
77.0393886745564 36.3703
79.0559166604931 2.01347
81.0354054141046 1.2445
81.0682483709013 0.685565
91.054647716328 24.3763
93.0343393058014 2.08066
93.0681978855011 0.630763
95.0493705490492 14.773
103.053619809496 1.27336
104.065091414057 0.710985
105.033505362205 9.52511
107.05027790001 1.45708
109.030812369159 0.717877
110.034120060965 0.601688
111.045511834926 0.858041
115.053531483232 0.810765
117.068805719414 0.744262
119.048917042755 2.58484
119.084464343494 2.15892
123.043961873656 100.0
123.176538677825 0.886845
123.216433968342 0.615975
123.522493222837 0.554052
131.0483071249 0.568839
132.059168720883 1.22267
137.061445498943 1.87118
147.080315719011 0.578455

