>compound SIMAZINE
>formula C7H12ClN5
>parentmass 202.0848938553
>charge 1

>ms1peaks
124.083843506983 0.517634
202.0831251785 100.0
202.210981700721 1.63403
202.253098065548 0.811613
202.311011255944 0.512547

>collision 10.0
96.0545886559517 1.13942
104.001666278634 0.706665
124.086046997336 4.45781
132.031744642755 3.77549
166.10607487859 0.666389
174.05389767445 1.87208
202.0848938553 100.0
202.212517456759 1.70426
202.252251295227 0.817151
202.406030030182 0.547096

>collision 20.0
43.0301786947341 4.02317
61.97993072836 1.5554
68.025728055651 15.2733
71.0614439731731 26.0932
79.0075597153865 2.59176
90.0115668455912 1.00892
96.0559320953833 41.226
104.00144155988 35.7855
104.088697781029 0.608532
124.086673555606 78.5561
124.185748896513 0.975395
124.224001009483 0.529491
132.032009712772 78.2756
132.13395235502 1.25801
132.165489116005 0.613407
132.236752257827 0.5186
138.076905188972 2.24866
146.019659291527 0.858805
166.10933708172 13.1956
174.054890214653 16.7931
201.136527792018 0.644703
202.085484926707 100.0
202.252804987675 0.73713
202.376860125022 0.981902
202.504812948745 0.782706
202.698679614598 0.606105

>collision 40.0
29.0391414189033 0.973167
43.0295600656522 60.4551
43.0900434672466 0.978885
44.0491854433229 0.72089
61.9791758329047 29.3019
68.0242752155731 100.0
68.0989739668264 1.69298
68.1210586489057 0.860467
68.1521073017627 0.693852
71.060496792825 26.0482
79.0056405314579 4.12067
90.0116218039057 1.04826
96.0548808821415 13.5849
104.000000390027 47.5791
104.091790236116 0.756699
110.048444084613 0.714185
124.086614592953 1.46124
132.029136895476 3.30205

