>compound TEBUTHIURON
>formula C9H16N4OS
>parentmass 229.110094860693
>charge 1

>ms1peaks
172.090384620446 2.15221
229.112082389527 100.0
229.247441616834 2.63201
229.292701317194 1.05682
229.393250902471 0.506204

>collision 10.0
116.026486753747 0.868067
172.08871211685 46.3902
172.207505523255 0.893833
229.110094860693 100.0
229.246712906676 2.41409
229.292133896264 1.0128

>collision 20.0
57.0458045441253 0.610952
57.0704792048976 0.884412
62.006696844387 1.59995
89.0171044785153 4.03783
116.02810114497 9.53664
157.066773355003 2.39092
172.090632414061 100.0
172.209447932782 2.83697
172.248785843605 1.25552
172.310797630868 0.500146
229.111775683299 6.67202

>collision 40.0
29.0383139117907 0.568306
30.0339864525973 1.11076
41.0394850485339 9.19899
42.035059630923 4.37555
43.0298953441278 15.6501
44.0503137430577 4.41081
44.9803077403293 0.588805
46.9952951905777 1.66058
55.0550490656616 2.51671
56.0504553571217 1.77041
57.0455968597034 53.0347
57.0696772946463 46.4422
57.1373510536746 1.16619
57.1588826204056 0.633209
58.0293142168414 2.85767
58.0654747924626 0.558124
58.9956587499264 3.87609
59.9907578548534 4.03437
61.0106625617178 0.691864
62.0065131730528 83.4804
62.0781370485406 1.60418
62.1001506614535 0.608793
65.0391665645115 0.972784
67.0543592986717 1.77053
69.0699338930488 1.00161
73.0065491310699 0.779779
74.006308752447 56.2495
74.084334453653 1.06192
75.002251651996 1.90291
82.0652557621743 1.3945
83.0711341602643 0.625741
84.0810462616764 1.18448
84.9855435962743 1.4347
88.0209969581048 2.2057
89.01694156053 27.2585
99.0269620737059 0.521898
100.021356608325 0.800773
101.041474397813 3.97196
116.027316683818 100.0
116.125278641332 1.89799
116.155517708199 0.820139
124.085360770709 0.65802
129.034516220297 1.58183
141.047163619619 0.993721
142.042580885993 21.4373
156.058117077977 15.5024
157.066315742118 21.5778
172.088855727941 19.2341

