>compound PROMETON
>formula C10H19N5O
>parentmass 226.166042628662
>charge 1

>ms1peaks
184.120454250038 0.607902
226.166027830561 100.0
226.301120840745 5.43485
226.354637660862 2.37929
226.449182163845 0.952344
226.486179156482 1.13244
226.538606331956 0.678879
226.594659118778 0.62772
226.631666786837 0.638854
226.669620139141 0.590324

>collision 10.0
142.073395235985 2.39226
184.120636495102 7.54924
226.166042628662 100.0
226.301043042691 5.44301
226.356367068351 2.41015
226.449510963376 0.982826
226.486131918975 1.16847
226.528119467416 0.67928
226.596070621329 0.62496
226.630422914609 0.641921
226.672901607588 0.58939
226.739986916867 0.522444

>collision 20.0
43.0301046935089 0.650837
43.0551541711143 1.62378
57.0454662803695 2.48786
68.0250065044331 2.9542
75.055827393506 1.93164
86.0352319870483 9.25147
99.0666289530895 0.98746
100.050693981452 8.19837
110.07115433944 2.9793
142.070899357807 81.936
142.18058116731 3.29271
142.215180154817 1.55617
152.116937267633 1.72884
184.117041979859 100.0
184.242044046433 4.59766
184.281681388946 1.7825
184.318373746068 0.823981
184.374032359379 0.580983
184.406802708727 0.739428
226.16443138244 81.569
226.302297265766 3.40912
226.34884044702 1.28504
226.485343694384 0.509962

>collision 40.0
32.050072113843 0.752217
41.0400379911903 6.45417
43.0304918641607 34.1715
43.0543836274273 17.2176
43.0896224327945 1.23488
43.1104759440503 0.532478
57.0462253236014 79.8349
57.1149631653033 2.23213
57.1368664353729 0.882313
58.0301139175705 17.7713
61.0407054949058 0.68813
68.0257048318993 45.7857
68.1006982759057 1.02529
69.0096248080254 11.3764
74.0724593975939 0.51977
75.0565500904212 16.9521
82.0411279975964 10.9622
83.025245784559 8.50812
85.0525722288842 3.69113
86.0362173383264 100.0
86.1204552933492 3.02546
86.1482419996631 1.19398
99.0675216097935 9.32355
100.051704669481 68.3264
100.14347383115 1.72422
100.170937697717 0.752763
110.047682849733 3.42674
125.047138275858 0.558411
142.073407747567 55.5178
142.181846114725 1.12356
142.218152932957 0.551395

