>compound Omeprazole
>formula C17H19N3O3S
>parentmass 346.122246805231
>charge 1

>ms1peaks
136.075689429219 0.623446
149.071571495914 1.44731
151.099415118198 1.46516
168.100817630115 1.87364
180.047405275279 0.540114
198.058175954947 30.8784
346.122246805231 100.0
346.290840527054 1.02167

>collision 10.0
136.075683541307 2.22124
149.070341587307 7.68616
150.09156778586 0.587406
151.09871778124 14.3844
166.085462597415 0.723139
168.101369484815 10.3891
179.026390510354 1.83188
180.047051795149 2.69663
198.058220538602 100.0
198.187268542957 0.907809
328.110715396942 0.828977
346.121041636271 9.99087

>collision 20.0
108.080497703951 0.670921
120.081507411467 0.816354
121.088037986204 2.95948
122.096003951471 1.28115
136.075610473044 23.457
149.070696646527 16.4352
150.091175989193 7.41303
151.098946652209 63.5776
165.023538157424 0.662483
166.086562109845 1.4009
168.10150871567 17.9524
179.027051835712 7.33525
180.047367892277 21.1311
181.054626351989 2.59321
198.058182314675 100.0
328.111713178055 1.5428

>collision 40.0
77.0392696236881 0.691389
79.0543984393612 0.790025
93.0697241018674 1.41618
106.064389288168 2.30052
107.072260154633 0.61047
108.08088182465 7.02377
120.080697986879 7.67072
121.088605021961 20.5085
122.096199474401 8.15276
134.047096232848 3.41075
136.021896665884 0.825239
136.075622861227 100.0
136.183019271082 0.572242
148.020207587162 0.573817
149.070974360802 8.72449
150.091043448705 26.5479
151.09871101149 11.0287
152.016547145136 3.49774
165.023766861091 7.14356
166.03165126617 2.95443
166.085931434526 0.810289
168.100960522385 1.36916
179.026405690109 4.2908
180.0474149314 35.3824
181.054667604678 9.69903
198.057846124537 4.13925

