>compound METOLACHLOR
>formula C15H22ClNO2
>parentmass 284.140685486664
>charge 1

>ms1peaks
73.065450548481 0.529353
252.114226377398 11.9001
284.140371740679 100.0
284.288686656501 1.53313
284.341461157939 0.738892
284.394361414423 0.572554
284.556553110184 0.612064
284.776238396793 0.581381
284.911231602384 0.624563
285.127288550103 0.520076

>collision 10.0
45.0338556706273 0.506379
73.0662686554987 3.64002
176.142136997373 3.23912
212.082800577895 3.78512
252.113980441124 100.0
252.25617444098 1.46164
252.298533872188 0.834012
252.376042280396 0.731114
252.467524189714 0.548027
252.586430419212 0.545019
252.831004311561 0.640288
284.140685486664 46.5511

>collision 20.0
41.0383954775926 0.838879
45.0339085444524 2.04934
73.064565163022 11.1337
119.080426917559 0.589597
133.087041522159 0.709074
134.094901811375 0.981324
146.094023651052 0.94023
158.095731054694 0.78137
159.101257431753 0.632332
160.110102872142 0.920549
175.132886968859 0.658448
176.14136749382 21.4691
184.0512618072 1.66168
194.069523538388 1.07173
212.079710698371 5.63499
252.111697456514 100.0
252.255795718192 1.43625
252.3030534788 0.77764
252.368115674385 0.665094
252.483213945564 0.533507
252.649299012369 0.596338
252.793340158886 0.629375
284.139555140977 0.77727

>collision 40.0
39.0255283525681 1.74998
40.6897952223003 0.617103
41.0397493644844 26.0722
41.0826615115632 0.517013
43.0186221791078 0.740038
43.055031274188 6.28305
44.0489547688081 0.654192
45.0344080683881 48.4471
48.9847078574459 10.2824
53.0403459247533 1.31556
55.0531772319845 0.868713
57.0318475826793 0.821103
58.0387127807156 0.632014
58.0629789685454 0.519364
65.0359268302071 1.41321
68.0265802341485 2.10811
73.065909703949 15.8711
75.9979273072298 1.25977
76.977441529137 12.0515
77.0375083697279 5.17353
77.1089700931709 1.32189
79.0541846593095 4.19935
91.0150131572228 0.562371
91.0541457535496 28.4789
91.1126942941757 0.842176
91.1474059293672 0.639011
91.4013775000892 0.555541
91.9671314862232 0.542645
93.069336391746 6.72175
97.0653891277736 0.889331
103.053904047109 6.62867
104.060152347551 3.59816
105.071157851684 4.3965
106.063373889851 1.31323
107.008394415122 0.520392
107.073794056805 4.32481
107.878502277942 0.540318
108.081346418873 22.1107
109.063472748423 9.78255
115.051715355051 4.02974
116.062410879391 0.750557
117.06912508218 17.7133
118.066282690972 5.49368
118.117062281599 1.25465
118.262753561072 0.604774
119.07825165835 27.6354
119.165668330146 0.691216
119.771531907679 0.675812
120.080374697807 13.5402
120.281718484369 0.519878
121.657407471867 0.510482
122.055592623888 0.607249
125.012217803009 0.971511
129.067459214048 0.553115
130.064279625467 7.60551
131.074814303148 14.0772
132.080482931096 17.668
132.186268189624 0.563903
133.088433738436 44.0149
133.183225131217 0.617156
133.297798028724 0.530676
133.375440364287 0.55578
133.553095154786 0.831405
134.096285006662 75.342
134.176633116216 1.29836
134.205277020325 1.07598
134.232642892732 0.951824
134.262327691803 0.66655
134.306024362322 0.543275
134.336655091248 0.551562
134.382331254344 0.829835
134.690483208642 0.525347
134.843195496097 0.531191
134.955114300301 0.668073
135.00174449843 0.561915
135.083099163055 2.98949
135.605362387226 0.679498
136.111586927999 1.18486
137.091303377295 0.633442
137.945091616179 0.770304
141.074442821233 0.915195
142.070661437375 0.728292
143.074437365548 9.09558
144.082277281679 7.38055
145.086751569362 15.5595
146.095503166011 32.1729
146.171825253877 1.08276
146.766189022041 0.541195
147.104717145706 5.88829
148.111399076995 7.9541
148.663758290311 0.525784
156.082727095794 1.85416
157.092434044086 1.1451
158.095049319698 18.8717
159.104199883115 6.92444
160.11291942144 27.0078
160.328281933201 0.518814
161.117281215396 0.9804
162.086847079144 2.33282
166.041223036346 2.24805
173.11829955717 0.521085
174.126503007872 3.22335
175.139717383447 0.99235
176.142175188668 100.0
176.260476343363 1.12337
176.297452223817 0.853989
176.343380935878 1.08349
176.451217909718 0.70438
176.542313876584 0.6296
176.615207381101 0.854842
176.69517274035 0.600868
182.033438165092 0.696623
184.050677265728 16.1119
184.148468635948 0.715846
188.111293254716 0.933873
194.071243441387 3.84216
200.37951617373 0.575601
202.116452956999 1.39267
206.070450090506 0.885223
212.083862585878 2.1771
224.120734187577 1.48425
252.119768038104 6.58291
252.225225243836 0.54988

