>compound PROMETRYN
>formula C10H19N5S
>parentmass 242.144005660896
>charge 1

>ms1peaks
200.097271811784 0.660465
242.143725638278 100.0
242.282667217095 3.51998
242.331272823774 1.45235
242.379815166639 0.710569
242.473046612709 0.582427

>collision 10.0
158.050695448331 3.00442
200.097831797026 7.25218
242.144005660896 100.0
242.283370471093 3.83401
242.334372200932 1.60269
242.439346250542 0.609169
242.474459064251 0.617926

>collision 20.0
43.0298160211836 2.20022
43.0549082102343 2.26779
68.0246880784946 5.60995
85.0549617102712 2.80131
91.0323443733275 1.81623
110.069650897011 5.6937
116.026949903618 6.13523
152.114565556593 3.23992
158.048773034281 99.6569
158.163816286039 3.24751
158.198322363809 1.26777
200.095396023273 100.0
200.223437687382 2.86208
200.265833868247 1.21695
200.395011550428 0.517593
242.142172470083 95.9697
242.282495817784 2.80447
242.330172945573 1.09817
242.472583404072 0.517134

>collision 40.0
41.039878331673 4.88043
43.0303622524404 65.7086
43.052708368417 19.0555
43.0902903328048 1.95893
43.1095984114416 0.839564
49.0118936362715 1.01205
68.0255754887701 100.0
68.1005354158012 2.50754
68.124519530269 1.06024
74.0069997984613 22.6352
85.0520366583147 44.3787
85.1354167443763 0.956097
91.0332391669642 11.1201
110.047137140868 20.6449
112.062597770318 0.734135
116.028340837296 35.7853
116.125715221278 0.679917
143.026915912874 0.648182
158.050322552438 64.2697
158.16359023992 1.35524
158.200764207001 0.555377

