>compound ACETOCHLOR
>formula C14H20ClNO2
>parentmass 270.124894564298
>charge 1

>ms1peaks
59.0505337746688 1.75991
148.113269934961 2.13602
224.084388984158 22.3657
270.126672402641 100.0
270.2726308206 1.23889
270.351783478461 0.695825
270.43004222926 0.837848
270.473605744326 0.573971
270.523322271047 0.516031
270.587420871576 0.522344
270.79605417483 0.681738

>collision 10.0
31.0179196491402 2.6215
41.0386916445967 4.42672
59.0494469853518 29.152
90.0130775456478 1.41996
131.088898643198 1.07888
133.08970716062 1.00433
145.08311278053 0.771625
148.111267071338 34.9469
194.073852534885 1.19175
206.065238895605 0.593832
210.0657924601 3.75353
224.082652562689 100.0
224.259262510973 0.834597
224.42446087764 0.709975
224.655559585257 0.726995
224.952827354047 0.571113
270.124894564298 25.4996
270.322587686276 0.953678

>collision 20.0
31.0178716490849 5.36419
41.0395554060229 7.43216
46.129508989172 0.706806
47.6291381918602 0.568962
48.9837499591301 1.8157
59.0501835563344 45.1515
59.0995817699495 0.922132
59.1221476496783 0.780598
90.0093600293618 6.80792
117.05556802129 0.842349
118.060602646424 0.72988
119.083921433929 0.687835
120.083712105823 0.833218
129.06984315418 1.00312
131.084986568425 4.46448
132.078841369462 2.15828
133.089467759634 13.2069
146.094291569206 1.6285
147.10287492629 1.96606
148.111375765397 100.0
148.217250393143 1.85665
148.272162760651 0.980891
148.386469552963 1.01241
148.425572591766 0.792138
148.537133679744 0.81978
148.626901658422 0.651013
148.923443379721 0.557583
149.093608724389 7.29076
149.426868825547 0.718721
157.080238170585 0.720686
159.239724881328 0.500687
160.111057600371 1.25734
161.084787380492 0.742902
162.092056684906 0.870309
170.097979253985 0.825241
171.102731553006 0.759694
192.06358342531 1.70724
194.072518669007 2.98969
202.135586143886 0.60818
206.06932011332 3.22167
210.068519470667 1.68144
222.698749889825 0.529939
224.083078217162 32.1295
224.179621293464 0.639067
224.291708434089 0.71713
224.720656757069 0.763832
224.965626376498 0.541562
240.121356989479 0.655111

>collision 40.0
29.0387656536714 0.95423
31.0177417627438 16.621
41.0392415769317 13.7177
48.9850781463311 6.54873
59.0499757360516 22.5591
62.0156569641237 2.07676
79.0546557745219 2.08932
90.0130632520268 6.21617
90.289161079418 1.05344
91.0541089609906 7.82316
93.0534111518252 3.1622
103.058824736382 1.32171
105.073403518749 1.40544
107.074424555759 0.944758
108.077446676624 0.967518
115.051380539581 1.2658
117.06341098621 3.59178
120.080136631152 2.95049
128.06420698937 2.74422
130.070344548592 1.91769
131.080150151702 1.53407
132.081170135326 18.1687
132.367016172215 0.944211
132.663042557488 0.993577
133.089167166073 100.0
133.192330502032 2.14202
134.08766122765 1.7697
137.924276594075 1.09505
142.069409047309 1.03949
143.072321728586 3.18926
144.076196840808 2.96118
146.054863304145 1.37602
146.090867336132 2.76835
148.112789182481 29.6773
149.091264024333 1.58192
154.075035912362 0.954329
157.085782226705 1.74888
158.101119690701 1.02053
160.074131184602 2.29415
166.071214436796 1.20269
170.101846750558 1.02124
173.042732959294 1.23166
177.03719462428 1.77741
192.06365413386 1.80215
206.072941025083 2.45596
257.351558069917 1.07105

