>compound N-METHYLANTHRANILIC ACID
>formula C8H9NO2
>parentmass 152.069915827493
>charge 1

>ms1peaks
74.0972908950803 0.58643
106.065889802005 0.544149
134.059425776659 24.7819
152.069915827493 100.0
152.182305192335 1.69697
152.219753335864 0.808444

>collision 10.0
74.0972871964801 0.605012
77.0398322748606 0.948689
79.0549819438682 1.06478
91.055025319907 2.48311
93.0706712362164 0.691338
106.064789027878 4.35443
116.049393952577 4.43423
134.060039616759 100.0
134.165639285484 1.73101
134.200245614701 0.840407
152.070488503163 9.04559

>collision 20.0
51.0235234687065 1.29263
65.0392317569011 1.06919
73.0770711699665 0.610134
74.0956243911633 0.999396
77.0384975612668 22.4565
78.0458503243784 2.87477
79.0542196250777 26.3696
89.0377876612677 2.31667
91.053982435479 45.1859
91.141218535791 0.622336
92.0477372606739 0.556659
93.0632213654594 1.0238
104.048648089022 1.30137
105.033148046906 3.39371
106.064417971136 55.4666
106.157971108762 0.878628
107.047938072191 1.2765
116.048484385327 54.5738
116.147860442562 0.858492
132.043358460543 4.09171
134.058666433388 100.0
134.164793002469 1.52957
134.193925610693 0.863266
134.298869105112 0.506406
152.069483339308 2.26622

>collision 40.0
39.0236434811656 1.14696
41.0396469453165 0.720434
51.0237840950933 31.3601
51.0898020052857 0.528654
52.0260991482779 0.537839
63.0237733332756 2.56264
64.0305338328751 1.84477
65.0389794561486 9.6514
66.0470786638497 0.648251
77.0391367169184 100.0
77.1192719915202 2.10251
77.141980272696 0.811028
78.0466090303188 8.78926
79.0546740031228 9.03483
89.0387247075456 8.39655
90.0350898431613 0.696195
91.0506023465688 10.298
92.026168001261 0.596255
105.037746117778 0.543384
106.065833162576 2.63097
116.049158302574 3.59726

