>compound SUCCINYLSULFATHIAZOLE
>formula C13H13N3O5S2
>parentmass 356.036666255303
>charge 1

>ms1peaks
79.0226493239815 1.12111
108.042515789808 0.524007
192.064412342163 0.583335
256.023974926422 2.2128
276.499151624459 0.536322
277.007588429333 0.518588
277.985451941175 0.839773
315.511075683846 0.513446
316.015930905417 1.32713
316.514942458365 1.38518
317.007244194851 0.528696
338.029315614593 0.506936
355.122282133371 1.40988
356.036483558238 100.0
356.201150837037 1.66363
356.262506380466 0.863967
356.380677322333 0.677113
356.447186161606 0.556851
356.561599102926 0.739016
356.645875154338 0.661202
356.764953639612 0.518025
357.032659640253 0.56772

>collision 10.0
79.0224364391026 3.03907
81.0186438824405 0.81343
101.016575801456 1.29317
108.044212468672 1.75171
156.011567149598 1.90621
187.489051477863 0.582
192.064378043935 2.86977
256.025484725279 18.5807
338.025848707826 6.20884
355.119776836327 1.19558
356.036666255303 100.0
356.198075545542 1.51801
356.254848856403 0.987479
356.331131607753 0.811359
356.41084831735 0.637646
356.596321418569 0.71501
356.755611824831 0.54188
356.800118052337 0.563869

>collision 20.0
55.0180255251563 1.34269
65.0377749706365 0.610831
79.0211438838954 9.04171
81.0172822282282 2.12664
92.0511718119194 1.7827
93.0551817569052 1.5174
94.0630994644618 0.823216
99.0006082025944 1.45856
100.008665814394 15.1445
101.018283708797 16.343
108.043390134477 35.2339
108.138298355308 0.817893
110.058440048754 4.71388
120.079307663694 0.824818
132.041849849833 0.708533
136.071984725825 1.87668
140.017456582258 2.12859
146.058835025019 3.46093
155.504757019292 0.718141
156.009049886495 27.3985
156.503865740938 0.575056
162.961355674521 3.5446
164.066355081574 3.71879
174.055044258371 7.28483
176.066608341809 3.27008
186.987426492906 0.782446
187.486673600128 1.34304
188.491917653734 1.07273
190.044329335075 1.20539
192.063801590322 61.607
192.190419909498 0.660672
199.928955019385 1.89354
208.058238697707 1.81325
222.013590971836 0.694927
228.495186107637 0.719657
238.014086073751 3.76272
240.02712375873 2.13053
256.023322810248 100.0
256.162831390386 1.31798
256.223536314138 0.837727
256.323086262973 0.69428
256.650457399224 0.628848
256.883635578078 0.612916
257.030111971951 0.560049
272.043236461557 1.74922
274.064123789182 0.680046
277.994109755783 0.817019
293.959228507321 0.586273
310.025249265348 0.815173
327.075166054851 1.43973
330.0248613137 0.695639
338.02174426311 27.6785
355.11156148418 2.25156
356.032375572657 52.5111
356.195063467946 1.24222
356.259533098458 0.561801

>collision 40.0
28.184576206648 0.545033
39.025361973672 0.989364
43.0206548358778 1.48323
44.9785529621631 1.16944
55.0187523116313 26.4734
56.9667371872905 2.95461
57.9879092064172 2.36631
58.9982096063679 0.694015
61.0113573538903 0.776465
64.0011820547805 1.09731
65.0402925785647 32.3909
65.1134672233314 0.540846
66.0462696287674 0.528651
66.0735232714398 0.511649
66.983564017294 0.55851
71.9884352119307 0.615822
72.998225932373 1.89407
73.0301108022937 7.02094
77.0428283660726 1.4101
78.0479150437276 0.743111
79.02292570196 13.4543
79.0705354245891 0.549664
80.0484858298047 6.03696
81.0219483374121 3.72482
82.0675069106824 2.88458
83.0131317864613 0.646751
84.9771765330625 0.874451
91.0552214166555 3.62962
92.050130409676 46.6535
92.1375733635789 0.749022
93.0378284112871 13.212
93.10496048535 0.753836
93.1264763535347 0.671747
94.0637615455892 8.35413
99.0010100159649 1.78169
100.009189458056 37.0485
100.079317264551 0.62892
100.337606308629 0.668725
100.481714907737 0.52032
101.020222304283 55.5396
101.102414528595 1.23095
101.139852054625 0.644489
101.229614445212 0.891893
103.57603955936 0.515321
104.049591032912 7.00606
105.033627589006 1.16379
107.0487073256 1.02703
108.044319419354 100.0
108.137365816088 1.92202
108.172845133742 0.73412
108.218676306878 0.827452
108.249969773687 0.617952
108.400936067518 0.526174
108.456807317743 0.66641
108.61045497836 0.546126
109.020533843341 1.02052
109.696029966852 0.585529
110.060030510939 53.9109
110.155547862778 0.9844
110.250029675047 0.55884
110.362223444119 0.554418
110.633138246229 0.505305
110.974396883126 1.38179
111.97085869131 0.56594
116.047555285687 0.673951
117.056134107473 5.4347
118.065658220477 16.4614
118.159608462254 0.585341
119.074469466838 1.92969
120.037870009699 1.3902
120.083404615308 5.67812
120.937959643097 0.65268
122.058557148741 4.03035
128.045819064106 2.3717
130.060055052119 0.862031
132.044561965611 16.9354
133.045082946209 1.48291
134.058071842486 0.519943
136.07575626477 9.53228
136.971798055211 0.823146
137.955499250533 1.92307
137.985034360041 0.782882
138.918528273429 1.03302
139.963787630897 0.899418
140.017618856261 7.35452
140.960136041084 0.542956
143.975289936154 0.594853
146.059775884933 49.417
146.167781221905 0.742827
146.250930454423 0.635537
146.429120302044 0.697916
146.629755054229 0.599256
147.069119017884 0.877556
148.076725307079 0.801683
150.057529546217 0.865555
156.010254884432 14.4776
157.011145265143 1.01457
162.965662893966 0.818768
164.072553769147 6.48708
166.022582835771 1.26308
174.05478022968 9.73522
176.071893801357 0.689136
184.004660722742 1.2471
188.044701459843 0.716367
190.0377123382 0.778253
191.057207842026 0.762892
192.064943890409 22.7749
192.159387869867 0.938984
195.975326388915 0.98121
196.587160704826 0.58136
197.023531709306 0.733782
197.973740489791 0.737884
198.027274415387 1.10662
210.046065383052 1.1741
213.079357103498 0.502211
215.970703780428 1.02251
218.972381797488 0.816423
219.968533056677 1.12008
222.023198777747 0.54269
226.997152499181 1.27174
230.023064548052 0.726337
231.011902325719 0.724211
232.007267646854 1.25191
233.997914586464 1.21976
239.983092311809 0.548249
242.996879578219 0.555909
245.012499880579 0.606531
257.991412153637 0.604384
260.98731170129 0.70938
267.064004224195 1.21221
268.066746926293 1.42237
294.051751162231 1.20868
298.024127483073 0.882724
300.018981606302 0.525725
311.060254316658 1.29724
312.048192185416 1.10301
327.085286885122 1.76367

