>compound TELMISARTAN
>formula C33H30N4O2
>parentmass 515.244108832869
>charge 1

>ms1peaks
515.244108832869 100.0
515.520334189781 0.846992
515.892693685144 0.742057

>collision 10.0
305.173997573719 2.07248
515.241863481234 100.0
515.444189436926 1.60598
515.502823085484 0.804696
515.643208033404 0.559527
515.714097640352 0.517426
515.823564328354 0.618476
515.9804788099 0.694345
516.109796494964 0.581487

>collision 20.0
211.075966102929 2.78619
305.17669933284 11.8734
497.234929244342 3.18072
515.246071327428 100.0
515.444674313955 1.83915
515.521202097309 0.972194
515.627553591427 0.664581
515.71664512672 0.663811
515.823370124231 0.617578
515.904513150648 0.595972
516.039044941972 0.587287
516.11678023603 0.523039

>collision 40.0
152.060462229486 1.12178
155.083817164898 0.891296
165.067331490443 1.78556
167.083726553485 0.779538
183.078561162129 1.11399
193.062663405522 6.1864
211.073256536132 54.364
211.20316711409 0.902316
275.127902158226 1.20324
276.13477173644 35.8729
276.283079915143 0.524209
289.141523220412 6.37975
303.157129169747 3.74159
305.173670570271 48.2325
305.329954499549 0.721382
317.174761680953 3.57192
467.185318782228 1.97236
485.194615636743 0.875961
497.230855767094 100.0
497.424360413856 1.56811
497.504082784594 0.861239
497.622500934402 0.581659
497.668203154804 0.556732
497.784360568587 0.60588
497.870352545381 0.608941
497.941460401831 0.574621
498.010900028624 0.510129
498.230092939728 1.24787
515.24115924357 49.4239
515.444956080815 0.777898

