>compound 4-HYDROXY-6-METHYLPYRAN-2-ONE
>formula C6H6O3
>parentmass 127.03863104181
>charge 1

>ms1peaks
43.0200473585608 0.527198
68.9941374475328 1.06507
106.478341325487 0.557823
127.039200971594 100.0
127.142691477589 1.40423
127.172980190787 0.775249
127.259805786824 0.572258
127.34885760327 0.663837
127.40448513739 0.673533
127.429537436638 0.502335
127.470643190263 0.603501

>collision 10.0
43.0186226696262 5.51699
43.0480395797587 0.63644
53.0376168974284 2.11989
57.033087433611 0.623434
65.039044219332 0.943051
67.0196791989426 1.15401
68.9990791453637 1.76571
71.0498960675538 3.06637
81.0328786339454 1.47531
85.0296213260865 0.981188
87.007318012992 1.24004
99.043869025658 8.64929
109.028887177748 3.184
127.03863104181 100.0
127.142148795226 1.77883
127.169808597202 0.904279
127.229573415821 0.658213
127.485741853652 0.759972

>collision 20.0
28.0584611880443 0.951337
39.0240827089723 13.7529
39.5519986689746 0.945987
41.0391784563647 1.95941
43.0189556936941 100.0
43.0552088467878 7.37091
43.0778967155139 2.50691
43.0987044436419 1.18092
43.3353644610186 0.666095
43.4125932903811 0.697743
53.0387363176717 19.1568
57.0327583156585 1.70871
62.0225359598058 1.13933
65.0402576822232 25.3821
67.0195822547786 21.2916
68.998308740862 57.8671
69.0729879215266 0.68288
69.1232906341844 0.77692
69.4554511243368 0.906283
69.948750258874 0.952698
71.0506209389329 23.9095
71.1112860016519 0.773735
81.0328803187186 6.28834
85.0296377026634 9.36996
87.0078420045715 25.6499
87.0744355270994 0.661474
99.0440508847368 19.1707
99.3735725119515 0.651975
109.028969896807 22.0591
115.993953627553 1.09879
127.039873216965 72.4143
127.123628272422 1.4567
127.207965680697 0.684654
127.280583488283 0.7021
127.338561604123 0.661687

>collision 40.0
38.0190701373063 1.6556
39.0241477086964 38.1481
39.061911406946 1.07287
41.0026074642311 18.6774
41.0408112293672 2.95187
43.01858188295 47.0305
44.9972206812968 11.3773
51.0226763367014 4.29244
53.039900471698 22.0382
55.0182527213013 1.40233
61.0325049293007 1.45093
63.0226965420614 1.12208
65.0392946148795 5.05927
67.0177998177599 7.01151
68.9974277183448 100.0
69.072754826226 1.80361
69.9108958086803 1.08772
71.0471280807749 2.8361
81.0282767300013 2.0273
87.009767397119 2.81181
91.0195328343197 2.93531

