>compound COMPACTIN
>formula C23H34O5
>parentmass 391.246387442512
>charge 1

>ms1peaks
79.0498281217908 0.653839
81.0726051181998 0.85567
107.047647248417 0.73566
125.057688505664 1.04712
143.073772294683 3.51562
147.112192572603 0.507446
149.725716106483 0.521179
159.117905911748 4.0251
183.103030659606 0.973819
185.131213122974 21.3926
185.228065902204 0.558862
187.143635229299 1.64042
200.152466099783 0.60494
201.170162805744 0.562903
202.122941088533 0.537113
209.129735475289 0.8621
211.150061464871 4.69024
225.166747340168 1.14884
229.160019539384 10.4162
231.125154042285 0.744826
233.101810294278 0.546039
234.882111138977 0.612198
234.966300790225 0.729025
235.146899550749 1.12322
235.988618790004 0.577144
253.157961590891 5.87456
259.112829576948 0.58675
271.169134003832 16.6177
271.277144027221 0.741942
289.179950534738 5.59179
289.256868760696 0.514873
307.201003460039 0.562549
312.962389185004 1.32134
313.017919578367 0.902253
367.06826926831 0.5862
389.265812407733 0.536006
390.243896860583 1.00389
390.98535611158 0.850182
391.25089896989 100.0
391.422069997125 1.65156
391.503653691152 1.46978
391.864974352382 1.42446
392.013108801108 0.7303
392.068603507544 0.746957
392.115553975006 0.614849
392.168878757907 0.632898
392.24783847871 0.710965

>collision 10.0
57.0711056610781 1.21801
79.054036570042 4.53858
81.0677942479217 1.17248
83.0465960155657 2.17221
85.0613323528912 1.37755
89.0227469014428 1.58055
92.0523176868138 1.00235
97.067437521371 5.09801
97.4120836241254 1.00217
101.063369866546 0.974064
107.047969546838 3.27946
125.058672275829 11.9365
125.4648165921 1.06218
129.06389327351 1.35005
139.071288670769 1.19002
142.081351495607 2.03461
143.069952161843 17.7138
143.118812309895 1.86019
145.102198581189 3.04881
155.080920308757 4.64913
157.098249353895 2.5264
159.116401371103 35.5579
159.233916308655 1.19337
169.092088136568 2.6034
171.111912008148 0.927278
183.114382779205 4.02174
185.063200536928 1.35399
185.130931384686 100.0
185.368654977725 0.985979
185.461562102974 0.930472
185.495061557979 1.35394
185.581856365106 1.10024
187.145906829868 8.2585
187.203716575837 0.95208
197.131569454106 1.33045
207.099503531373 1.3796
209.13083421175 5.51649
211.146043082416 37.6015
217.119160418368 1.21939
225.107315874613 0.927443
225.163586585238 11.0654
229.157445843893 77.399
229.328378052181 0.916004
229.445982142877 1.03763
229.490259561913 1.06486
229.835193420919 0.969555
234.974127465197 5.47867
235.145753698908 17.8011
243.157970362344 2.10738
253.157866996689 27.852
269.553289090553 0.928145
270.146139923623 0.944752
271.168559425596 79.6936
271.295623928066 1.01786
271.929456688116 1.15219
272.03097500579 1.14188
281.036287697095 1.02948
289.180239828392 7.19543
307.178037735326 1.0837
312.942729780694 2.79342
313.06828656431 0.976131
347.178159338064 1.062
351.137978497289 1.60872
390.23860326378 1.09498
391.146870939933 3.40864
391.246387442512 31.5038
391.355496860996 1.17329

>collision 20.0
43.053782142106 1.01385
51.0202427254276 1.3379
52.1609723996335 1.00898
67.056139355969 1.70128
71.0138000034315 1.2984
79.052957517891 11.0034
80.9995831424868 0.925172
81.0716486565342 0.869948
83.0476325249184 9.25722
85.0602730689347 2.95093
89.0261364911599 1.08436
91.0529922088853 3.14894
93.0652805311962 1.00465
97.064262024351 8.95553
101.000859093806 1.51012
105.071607359114 2.93896
107.048182792297 3.03119
109.058340271198 0.885999
113.066624050183 0.787555
117.073352958805 1.8324
119.083410625961 1.47972
123.042232166433 2.21439
125.059567425145 6.12839
127.07556916239 1.10217
128.059255623757 1.97415
131.079925460382 1.79087
133.095373346583 1.11752
135.080105845433 1.07978
137.096500429014 1.11072
143.079843817873 12.2373
145.099479325358 12.7429
147.113849186314 0.999389
155.081247190153 4.32689
155.114396394614 0.778289
157.098089921084 5.74378
159.115951410027 75.951
159.226311945546 1.4097
159.269482379138 0.791642
160.11691157296 2.45064
161.141918598574 0.919885
164.917912466673 1.41366
165.950964825362 1.42312
167.091002451192 0.878755
169.101275455965 2.64386
171.113887574821 6.47279
171.468138557767 1.04981
176.984890216257 1.41514
177.95069235365 1.20342
181.092274012931 1.98402
183.11851035801 5.20996
183.463769079464 0.915635
185.130807425833 100.0
185.251965174901 1.27595
185.417341337903 1.26406
185.538008773107 1.0155
185.60225891968 0.99003
186.148208474665 0.802831
187.148776518124 15.0797
191.020640593028 1.26615
192.033779904414 1.06683
193.091631306322 1.3167
195.117913362784 0.842397
197.134386692329 5.58996
201.164060218008 9.23288
205.116387080459 1.52922
209.132963612054 10.3644
211.146854074451 40.9348
211.675878585974 0.95694
216.981693230381 2.03228
225.163738762565 18.7633
225.523190155973 0.796778
227.185549025025 0.888929
229.156866948669 59.6835
229.289737945654 0.989553
229.684786855059 1.09792
229.734621902319 0.897354
234.968199581218 2.41868
235.145589900436 16.4395
235.884332044279 0.82582
238.12617121492 0.773651
243.167213008082 1.02951
253.160064622826 15.3024
268.034977670208 1.19518
271.1689886895 18.0509
283.095550823068 0.791266
289.178930648998 3.6307
313.0420791651 0.998168
390.241391551094 1.33537
391.110726353926 1.00913
391.190849251196 1.26797
391.26891675825 1.79597

>collision 40.0
41.0418455982188 2.33588
43.0190383351865 2.04681
43.0533550491148 0.957859
51.0257059164202 0.71378
53.0399250222055 0.723353
55.0191282768589 1.70819
55.055013455489 8.35299
67.052226111543 4.60215
68.9957383928596 1.47936
69.0351108971586 1.40603
69.0713732879316 3.63602
70.9802705894651 1.439
71.0080553973698 1.40444
71.0478206078882 1.56069
71.0829136713213 0.787879
77.0406406962092 4.29796
79.0553019390207 16.5408
81.0351327430898 0.587457
81.068864648751 6.98398
83.0498437504895 13.7081
83.1191558934819 0.759409
85.0656712553316 3.51454
91.0547462409196 5.18619
93.0668843896549 2.61408
95.08725904023 2.39169
97.0632369496629 4.31565
98.0977604023943 0.862845
102.09183043304 0.847063
105.069999199598 14.0968
105.267108811424 0.578481
107.084236211544 2.01075
112.677779425706 0.61735
115.052650049782 3.41584
116.059263251054 1.95002
116.969309462402 0.905612
117.069542841062 12.4888
119.083122478942 11.4153
121.063701262949 1.47204
121.100695480273 3.54354
125.058076992508 0.673137
128.063093584971 7.36146
129.070850410275 16.2916
130.078306175601 4.52905
131.084558452848 15.9658
131.224770255793 0.569735
133.102142292349 1.82395
135.07527521483 0.857864
140.964663909242 0.901082
141.068940403858 3.66352
142.078887769354 8.43007
142.719439343176 0.586207
143.085594814791 40.8212
143.19911925502 0.770257
143.555945130025 0.704232
144.092231089182 21.697
144.189230321871 0.858957
144.894374215006 0.584979
145.100647867479 21.4207
145.205484323729 0.752226
147.117679949153 1.39164
148.988640334974 0.648532
154.080917759881 1.55063
154.93997591321 0.661616
155.002587930169 0.681925
155.083862898146 12.743
155.432099366313 0.759257
157.101144908178 28.1421
157.375800904303 0.679972
157.498303223045 0.768503
157.571215954674 0.562852
158.634170290944 0.790541
159.116841893834 100.0
159.223548264517 1.49078
159.267092603632 0.574922
159.417158517514 0.76242
159.553692647158 0.787461
159.63665772875 0.592443
166.077711358612 2.09643
167.084661141352 4.54225
168.093065056064 1.83247
169.102613269158 15.4668
169.658808195203 0.594048
170.103265965159 2.60205
171.115263336772 4.30655
173.127744246188 1.60504
176.989996066724 1.11076
179.084568218467 2.40502
180.093096761241 1.89835
181.102764311994 5.23462
182.108073364156 2.55591
183.114862667092 22.2043
183.624883626099 0.64941
184.131580919484 2.95529
185.13244691402 64.723
185.255824148865 1.01912
185.315330605042 0.958309
185.475494156659 0.831886
185.676716990076 0.672317
186.00001554088 0.63535
186.30988810152 0.568661
187.146651487391 5.78828
191.09110240526 0.944853
192.096827011551 1.97356
193.097830899756 4.08113
194.104026921828 1.75943
195.112114009904 1.42771
196.121283820939 4.07886
197.133556121077 7.20017
201.163233494615 2.45397
201.206264130687 0.690713
205.097597611592 1.27614
206.114338433105 1.01897
207.123974885166 3.46158
208.995648015518 0.648783
209.130214022335 13.0828
210.112497802996 0.63535
211.146846360201 31.1287
211.230970728956 0.843695
211.472159480857 0.607178
212.163749841353 2.07868
220.122680225727 2.68722
225.161449291798 3.5678
229.113961968282 0.814194
229.161713908341 0.593913
235.146512191492 2.55561
238.13163052764 0.939229
267.125403079884 0.782386

