>compound OXETHAZAINE
>formula C28H41N3O3
>parentmass 468.320664358257
>charge 1

>ms1peaks
145.097758840086 1.2589
204.136160628752 0.612606
277.193652543126 0.771372
336.22976557861 0.635325
468.32617442779 100.0
468.512344811087 2.5961
468.584618064348 1.11009
468.787271689123 0.617161
468.948727657174 0.577583
469.102337864295 0.539517

>collision 10.0
74.0598078467663 0.634827
145.096284067194 13.806
204.133116590305 7.75692
277.189901607279 9.10819
336.226446642034 7.59703
468.320664358257 100.0
468.511118588776 2.41597
468.583097403448 1.09381
468.674459076319 0.618857
468.72238099761 0.567039
468.777901654333 0.557842
468.843003355389 0.531507
468.963269131801 0.53484

>collision 20.0
74.0609828734435 5.39907
86.0613268577333 1.03127
91.0549151937185 0.770894
133.101944524246 1.2245
145.098025819343 100.0
145.20603378351 2.47831
145.242227103336 1.10068
145.275730215659 0.541857
164.143852031713 2.09839
186.124466458909 1.17302
204.135148217275 36.6638
204.262426553129 0.681951
277.192571642214 17.6167
336.229786042013 11.6979
468.324675477103 23.7925

>collision 40.0
44.0508999851309 3.93791
56.0506077817737 2.80336
58.066235985489 1.09754
72.0454768925102 3.04854
74.0612774960723 59.621
74.1394252078198 1.6603
74.1638895149588 0.638363
86.0611321245451 14.7679
91.0551940762267 10.3504
101.07181144404 0.811545
105.070107915071 0.758115
115.087549075312 3.01743
133.10158911428 2.23553
145.098330870113 100.0
145.206290360693 3.27481
145.24404616001 1.32687
145.323255556476 0.512576
145.35665760558 0.503393

