>compound LYCOPODINE
>formula C16H25NO
>parentmass 248.199956194444
>charge 1

>ms1peaks
248.199956194444 100.0
248.341727890632 5.16366
248.400087460438 2.34164
248.496743874147 1.04907
248.534963587116 1.14995
248.586608196383 0.751834
248.685388315413 0.699045
248.727028643145 0.656446
248.800288622111 0.571009
248.837856054702 0.520131
248.875301812888 0.509724

>collision 10.0
248.198540530888 100.0
248.339024957251 5.41838
248.401271574711 2.58586
248.496753048713 1.10161
248.533661417217 1.21949
248.598735811841 0.763458
248.685399307269 0.711667
248.72024205363 0.670635
248.772552556878 0.590932
248.832542799204 0.544169
248.869272490104 0.520337

>collision 20.0
248.198519360893 100.0
248.338629167828 5.23421
248.402577341737 2.53757
248.496489041698 1.04904
248.534255824594 1.19324
248.586966556708 0.744816
248.648291897022 0.68155
248.720986042503 0.640789
248.834287536632 0.5288
248.88272492672 0.504111

>collision 40.0
41.0395836617794 1.06771
43.0187631322622 0.891071
43.0552883189412 0.878917
44.0506277375851 3.77809
55.018732507196 0.606512
55.0551381477039 3.91999
56.050488154062 3.66155
58.0661679308335 2.25331
67.0551670255601 5.61346
69.0341709992241 0.641929
69.0703353061711 1.56828
70.0659407504254 3.43357
71.0504032389693 0.526915
77.0392347364768 1.46714
79.054933373107 6.52362
81.0705663775698 8.94601
82.0660474900397 0.696964
83.0740662489639 0.678398
84.0815030151813 13.775
91.0548868685442 6.41954
93.0704992152247 8.74442
95.0860708650537 7.83763
96.0812251286639 2.93384
97.0691361030042 0.802667
98.0969556798647 1.22987
105.070378152525 8.05547
107.085812351421 5.72935
108.081387872137 0.54333
109.098561311091 1.86426
110.096566832692 1.79066
111.080595629209 0.687021
117.070232088981 1.69028
119.085708008314 4.22199
120.082000181589 0.765013
121.100128138374 3.06189
122.096653997038 1.82451
123.101518208115 0.665238
124.112500078829 3.27769
129.070064651782 1.48567
131.085854354447 3.66509
133.101273917648 3.7145
134.096799915211 1.30013
135.111913547497 1.96714
136.112692456746 1.03498
138.127476717667 0.509505
143.0856674085 1.63942
145.101428187594 4.39247
146.097922884635 0.59612
147.114995673992 2.86293
148.11163244558 1.29241
149.11919756906 0.737333
150.127933444048 2.92201
152.131935499785 0.570864
157.101514675729 1.17852
159.116754832624 2.07297
160.112073171264 0.759739
161.123723842967 1.52529
171.116654908379 1.14949
173.130486839207 0.644171
174.127999505943 1.30083
175.126587998324 0.90368
177.128217061699 2.39557
185.132054225871 0.738184
186.1277589139 0.634483
187.146677923244 1.22591
188.143798658453 2.33346
189.146446158423 0.540177
190.15859433429 1.40458
200.143528693906 1.73933
202.159316464475 1.54828
206.183859999401 0.581329
220.20372279099 0.599918
228.174910677278 0.610851
230.191017785463 5.11806
246.18643009624 0.969025
248.199851434093 100.0
248.342678574007 3.79605
248.39316347682 1.66772
248.496775139459 0.635142
248.534626825948 0.680426
248.588102346245 0.542977

