>compound Cetirizine
>formula C21H25ClN2O3
>parentmass 389.162584149231
>charge 1

>ms1peaks
165.069713793411 0.699789
166.076716454443 1.05126
187.10747712495 0.864453
201.046292106899 22.6344
201.226184043251 0.683206
389.162944818729 100.0
389.405784193904 5.88931

>collision 10.0
165.0695051939 2.3058
166.076932904084 3.85198
187.106948876697 2.45138
201.046477752136 100.0
201.225884994848 5.99651
202.049488955812 0.623151
389.162584149231 52.0478
389.404802542636 1.84221

>collision 20.0
165.069581074425 5.35936
166.07707405166 8.77009
187.107254054581 1.03669
201.046734242729 100.0
201.225769400957 7.36539
389.16215796646 1.10628

>collision 40.0
164.061446249848 0.584688
165.069641630164 56.7064
165.232603928653 2.23114
166.077491820699 100.0
166.23568668193 5.91719
167.080133920156 0.603773
199.030215354676 1.23629
201.046454426084 66.1134
201.226250730263 2.68124

