>compound 1-Kestose
>formula C18H32O16
>parentmass 527.159580700235
>charge 1

>ms1peaks
527.159772794057 100.0
527.36478771149 1.86994
527.439435681043 0.671481
556.43943568104 1.0e-13

>collision 10.0
347.095153584587 2.02806
365.105985567746 1.50951
527.159580700235 100.0
527.364781467249 1.87431
527.438787391648 0.677994
556.43878739165 1.0e-13

>collision 20.0
185.042215701287 3.33007
203.052682009152 1.64985
347.095831843656 16.8559
365.106241587858 12.834
527.160705614756 100.0
527.364346915734 1.42687
556.36434691573 1.0e-13

>collision 40.0
185.042190589528 92.0908
185.166587732938 0.501627
203.052833055863 100.0
203.182018549089 0.679311
245.06234826223 0.84702
273.060398486836 1.10494
275.073494629781 2.82061
347.09556344426 67.2617
365.106115809547 79.9177
365.280205394439 0.521362
527.159137273041 7.28594
556.15913727304 1.0e-13

