>compound 2-Hydroxyphenylacetic acid
>formula C8H8O3
>parentmass 153.053652670929
>charge 1

>ms1peaks
64.0166546775236 1.28964
71.530296698248 1.38091
77.0380277792207 2.17598
107.049028234459 64.2982
107.125987031414 1.92086
107.481666086537 0.953808
107.956698021187 1.364
112.042309203351 1.97314
121.001512794999 2.50944
135.043564087351 24.8957
140.912931170046 1.12156
152.075907913238 4.15801
152.475230902899 1.35007
152.974221494917 1.23118
153.053652670929 100.0
153.186381484088 1.57999
153.32947163739 1.13964
153.426578874872 1.1109
153.501013830343 1.09901
153.689055798434 1.09335
153.810401518702 0.967845

>collision 10.0
77.0398389605933 1.78104
78.043491043871 0.755678
79.0539658914908 5.92685
107.048952367923 100.0
107.141080490828 1.57147
107.175596838463 1.15628
107.414715587013 0.592704
107.742420119041 0.623248
109.100260915485 0.525542
113.494397044551 0.897809
135.042164899174 9.83346
152.954732800123 0.526183
153.05398511276 1.74992

>collision 20.0
41.0376743696344 0.996643
42.0351844687858 0.598046
44.9944903537426 0.675511
51.0209400854015 0.969043
55.052427561081 0.516715
57.0718882392321 0.500666
77.0387208967377 24.6019
77.3152516222162 0.551828
79.054532977832 29.7272
79.620649942878 0.577609
82.509143078102 0.541934
95.0723441921892 0.812745
107.048511280502 100.0
107.142845645231 2.28072
107.174002309596 0.949605
107.24633565763 0.760376
107.338292006744 0.629859
107.427490979071 0.685739
107.572106322582 0.536725
110.046652376999 0.546386
111.010854323383 0.773139
133.035912938675 0.51314
135.042680395404 2.15588
149.018379563257 0.555867

>collision 40.0
38.223336538576 0.62908
51.0240480699415 22.5361
51.0676436687393 0.787181
51.0902256035485 0.645197
53.0414172220041 2.0385
77.0389578638794 100.0
77.1186839966792 1.69421
77.1676203055838 0.666376
77.317994683775 0.792196
77.5502748454509 0.821668
77.6060171064585 0.662221
78.0463021740819 1.79735
79.0550609785237 14.913
93.0550784369048 0.519878
107.048184894654 5.48661
120.080595095274 1.04459

