>compound Cuminaldehyde
>formula C10H12O
>parentmass 149.094679350961
>charge 1

>ms1peaks
43.0560693074256 2.73696
79.0552360503062 1.74904
106.982167710553 0.658548
107.049402388469 2.51644
108.046186151676 0.772617
129.010670418834 0.827064
149.025347079409 0.832332
149.095759510629 100.0
149.181981004313 0.681534

>collision 10.0
41.0372305632395 2.24741
43.0554531659954 78.5132
59.048509757115 4.53729
60.0560280636008 1.07743
62.0207587743534 1.84952
73.0650502243497 1.5583
77.0366540528023 1.86179
79.0544781688565 54.1747
93.069160686918 2.30435
104.999937907196 1.82007
105.067729442695 1.04261
107.049056715873 45.7101
107.286430570968 1.12851
107.980046587787 3.60974
149.020848895438 5.34371
149.094679350961 100.0
149.172144799931 1.10854

>collision 20.0
41.0393126018756 19.2108
41.0616185625201 1.27813
43.0551319178257 100.0
45.034651655651 3.06284
51.0221133379335 1.3672
56.04752866253 1.70318
57.9370562893507 1.50581
62.9888891909024 1.27093
65.03466371602 1.04838
66.016475041963 0.940966
70.0613937174691 2.40675
73.0631072666952 1.30252
77.0375079704894 5.80423
79.054384349681 63.7389
84.9608526088907 1.51951
90.0017960395527 1.34172
91.0535134158325 5.48748
93.054244237751 0.971075
105.070321485553 5.90459
107.047818589118 10.6558
121.026296222043 1.08339
133.0658051629 5.3239
134.073433946471 3.54003
149.053576542397 0.982486
149.094645484626 4.00499

>collision 40.0
39.0227284794647 2.82918
41.039395842045 57.3686
43.0172903624749 3.13862
43.0556624606662 29.3808
51.0240250576327 9.99712
52.0315601024691 3.21831
53.0392681868526 3.41669
58.072089190644 3.20639
59.9298966336288 2.14488
61.0098478134331 1.79731
62.9873313694488 3.14199
65.9646329513282 3.23882
76.0290373445333 2.92911
77.0390628620781 100.0
78.0478406999335 7.42307
79.0538598954998 77.8672
79.099520539994 1.87261
82.4954218739724 1.80541
89.037794681432 1.95059
90.0515823185651 2.23161
91.0563090709496 16.136
93.064606140579 3.95479
103.055106779451 14.3008
105.031793078247 3.87666
105.06888150814 41.8887
106.040726762319 2.70919
107.049290509282 3.25081
117.059181493406 2.96768
124.132626544357 2.2493

