>compound Benzamide
>formula C7H7NO
>parentmass 122.059610469626
>charge 1

>ms1peaks
44.0140131614569 1.0271
77.0389894967687 0.567084
79.0542887960306 4.00939
105.033303836664 4.52602
122.06000909457 100.0
122.161689090896 1.35672

>collision 10.0
44.0139154941428 31.0351
51.0235810677504 0.542107
77.0389461604208 19.4542
79.0544697486549 58.7874
105.033367592421 77.4071
105.127168561391 0.677976
122.059610469626 100.0
122.161479565995 0.801933

>collision 20.0
44.0140651432941 44.6055
51.0237308739778 3.92762
77.0389705305723 100.0
77.1197239029019 0.946131
79.05446807694 35.0697
104.048916285267 1.14042
105.033190059273 44.1418
122.059476420864 3.40933

>collision 40.0
44.0139830857015 45.0502
50.0161057503582 2.20912
51.023733718288 92.9929
51.0891853019785 0.761847
53.0388481306212 0.966781
77.0389186073516 100.0
77.1201415492161 0.827251
79.0541849426599 2.47121
105.03357011784 0.72692

