>compound Itaconic acid
>formula C5H6O4
>parentmass 131.032671165644
>charge 1

>ms1peaks
57.0335136953017 0.522817
85.0280933873006 15.1385
88.9717393653921 0.889827
89.465284135851 6.73785
109.479039798116 0.824785
109.977347499609 6.41831
113.022358997308 100.0
130.006400545476 1.3831
130.156576143588 1.19607
130.491388162242 1.96586
131.032671165644 17.8097

>collision 10.0
29.0030297226739 0.670661
29.0385768324497 1.22181
41.03853464801 0.814948
48.0424936583921 0.705828
57.0333689838957 15.9503
67.0172124666467 0.859491
68.4518249385013 1.81085
68.9524921812024 6.85531
85.0280528295323 100.0
85.1118186390896 0.500604
88.9738254627914 2.2404
89.4654361296973 7.58716
89.9674418049999 0.692936
90.0033256276856 1.20338
113.022288545282 47.075
130.155587524493 0.533458

>collision 20.0
29.0021078881518 5.57227
29.0377538006386 6.96164
39.0228745790665 4.0754
41.0388412744566 4.85227
44.9961043718656 5.60634
57.0337132164012 73.0889
57.5815731764418 0.564506
57.9343591958656 1.33044
60.9868146515587 1.2685
61.0289658998053 0.688441
67.0190636588659 3.96786
67.4543120009254 1.28248
68.4531436430354 6.05948
68.9523017650794 44.7377
74.476465389378 0.823855
74.982628089372 1.7847
80.0146366269205 0.883854
81.9853711630911 1.52956
82.4929593504106 0.789436
85.0278661967565 100.0
85.1128493606495 0.696427
85.1444390862181 0.661139
87.0058727583063 1.13153
88.9814047805869 3.45253
89.4647159931569 4.52931
113.022623409842 2.03423

>collision 40.0
29.0122902043762 4.19432
31.0168012668274 5.83822
39.0236195788728 26.7066
41.0389100532984 7.53843
43.019258205811 1.83989
43.683544230286 1.23009
44.9978677785088 26.8435
55.0152042701218 2.60058
57.0321793070674 7.98119
60.9869784706313 10.859
67.0177689099178 2.21292
67.9515380438659 2.89244
68.452168447788 14.8709
68.9521948083646 100.0
78.0139816199687 1.13728
85.0204798467504 1.49882

