>compound AFMK
>formula C13H16N2O4
>parentmass 265.118009772117
>charge 1

>ms1peaks
114.054920889873 10.0275
136.075311658923 0.977087
178.08565826439 4.8176
188.070009080494 3.09548
206.079936445669 1.13928
237.122750496593 31.0611
237.260290894181 0.620866
247.107286883306 12.265
265.118009772117 100.0
265.265542398663 2.36837
265.315486338686 1.13541
265.479482781702 0.504224

>collision 10.0
55.0182412295845 1.18237
72.0448595238726 5.11627
114.055098774192 100.0
114.152873060796 2.16339
114.182962003557 0.997939
124.075269466855 5.62881
136.075290520043 15.8448
160.074816223573 3.59896
166.085868018868 1.00944
176.069891902578 0.698434
178.085668962901 78.7147
178.205406700547 1.57181
178.244971248931 0.773588
188.070034125264 25.0225
206.080393035112 8.18418
219.111655391919 0.550346
237.122558614157 46.8764
237.260695483431 0.889238
247.10689160527 20.6427
265.117362903228 7.62325

>collision 20.0
30.0342357615437 1.66835
43.0187450170765 0.506851
55.0188226736814 10.887
60.045406810398 1.42565
72.0449652846502 25.3188
86.0609198622088 0.629227
114.054887421013 57.918
114.153172165893 1.07037
117.056296868155 0.586191
122.059650312368 1.36334
123.069090169474 0.569372
124.075545248323 13.1637
135.066859459876 0.56682
136.07541051134 100.0
136.181193925358 2.10572
136.215084650789 0.927012
145.051548246915 1.00941
146.059416878182 0.625877
147.067375495456 0.810972
148.076124593364 1.19087
150.089476148748 1.43315
160.075303075044 25.1862
161.05891962783 1.76839
166.085526376037 4.39586
176.0697250423 2.62751
178.085687786611 78.841
178.207529667228 1.53419
178.248004113704 0.742199
187.085403613142 0.502933
188.069783914315 21.5291
206.080353722991 2.10904
237.122726945541 0.510302
247.106323774072 1.36801

>collision 40.0
30.034464413718 1.59918
43.0187328472202 4.69737
55.0187567921285 65.8645
55.0869665800342 1.22274
60.0450621115505 4.42144
67.0438558239787 0.935847
72.0450139567822 20.8637
77.0392460752571 3.59696
79.0544474101896 1.1789
91.0542159730157 1.2875
92.048744198985 3.42844
93.0575175605408 7.93141
94.0570968579223 2.07534
103.05421292836 3.716
104.049674451046 0.870024
105.06600613782 1.93128
106.064491884492 1.37619
107.060136067477 0.934758
108.055013492312 12.8326
109.06040827193 4.55006
114.054215326801 1.39924
115.054430075504 0.810058
117.057011790893 19.3502
118.056381564836 1.86854
119.072189615963 1.50461
120.07975671992 1.26759
122.05987072533 5.18958
123.067450260364 4.10207
124.075561678921 26.5224
128.048807994109 1.14133
130.063771667741 4.56988
132.078906286544 1.53817
133.057356364491 3.334
134.059855144149 2.12199
135.066980893138 6.00668
136.075363956912 100.0
136.181093096439 1.85773
136.213362694197 0.900658
145.052010428557 11.7732
146.0580697505 2.90326
147.067605822838 3.15623
148.072281027653 1.27403
150.085588071989 1.8332
158.059362765094 1.33998
160.075121277023 23.8847
161.057062548651 1.57008
173.045880408456 1.28513
188.06957135401 2.29267

