>compound Paraoxon
>formula C10H14NO6P
>parentmass 276.063273078611
>charge 1

>ms1peaks
174.007440082856 0.517559
220.000357425267 7.5745
248.031823306715 7.66109
276.063930310106 100.0
276.212205184052 1.19016

>collision 10.0
94.0416212669495 1.13098
174.007349843536 3.00624
202.997470961575 1.16849
220.001149817748 100.0
220.136483177725 1.50756
220.177971832966 0.503669
248.032109872263 25.8468
276.063273078611 11.7517

>collision 20.0
94.0414792541565 7.32342
140.034024077827 1.0124
172.99915344392 0.836768
174.00756636985 30.3229
202.997380201195 10.4179
220.001071284644 100.0
220.13603472041 1.43069
220.177488569203 0.512031
248.032418072043 0.532268

>collision 40.0
64.0312800598116 1.15023
65.0391664296147 0.950092
66.0471165938332 1.84266
75.0232787568599 4.66977
76.0312424556756 0.643052
80.9737419242793 0.613984
81.0339012488051 1.10734
92.0260269407799 2.50828
93.033769586289 1.15529
94.0418106777499 100.0
94.130067856535 1.55101
98.9854221188395 1.36493
109.028467734645 4.856
110.036086179597 1.96516
122.02339896638 0.959927
123.031116916463 5.12921
140.033169920833 0.567949
154.98874677612 2.49362
155.99695960107 1.13194
172.999479671576 4.56589
174.007329170842 11.3255
202.997471373972 5.48356
220.000474011348 0.746795

