>compound Picolinic acid
>formula C6H5NO2
>parentmass 124.039145674708
>charge 1

>ms1peaks
78.034602309994 31.3484
78.1136481546258 0.714871
106.029077819735 33.9553
106.121777537918 0.867162
124.039778249246 100.0
124.138993726427 4.63328
124.176891644238 1.10038

>collision 10.0
51.0239236956348 2.62562
78.0348907020657 100.0
78.1132498060465 4.40933
78.14389209749 1.05868
106.029110944359 56.5417
106.121616437063 1.91893
124.039145674708 24.7542

>collision 20.0
51.0238900020598 10.6629
78.0350383720004 100.0
78.112938268082 5.25463
78.1442899195607 1.43227
106.028539583429 4.54916

>collision 40.0
50.0160394467393 7.06779
51.0241378782401 100.0
51.0879625034316 3.06986
51.111705170819 0.589086
52.0197133886929 4.79596
78.034571738583 70.7359
78.1136547171731 1.68304

