>compound Sinapyl alcohol
>formula C11H14O4
>parentmass 193.085589877024
>charge -1

>ms1peaks
105.069550552397 0.939779
114.089050812308 1.00336
115.052023937254 0.912255
133.065620259433 2.7144
161.059471385739 21.7657
193.085683417157 100.0
193.211749846685 1.44675
193.250641045058 0.880599
193.35052730492 0.73516
193.766838757504 0.59803
194.7668387575 1.0e-13

>collision 10.0
55.0182567842112 0.500502
77.0392355337551 1.14295
79.0530976950097 0.719975
103.054573649708 1.2698
105.069931066038 19.9471
114.090056941072 1.11303
115.053560365398 8.10017
118.0401607409 1.26441
131.046998701761 0.774754
133.064922767798 38.8489
133.169680194067 0.544053
143.048969217594 1.08714
161.058890423243 100.0
161.173081228159 1.70349
161.213161662424 0.850297
161.281315191782 0.629053
193.085589877024 12.9269
194.08558987702 1.0e-13

>collision 20.0
55.0183546229674 6.89602
77.0381359200982 5.29058
79.0542794549641 11.4426
89.0376752614785 1.56757
90.0454981078037 3.09992
91.0554566395994 1.63673
92.026393440831 0.891476
102.047027376135 0.948423
103.054215145174 16.9803
104.059589869843 0.667659
105.069810537825 100.0
105.164125401347 1.38371
105.190310232362 0.768441
105.223777010161 0.526828
115.053934874026 32.5925
115.155015483324 0.547451
118.041418852596 12.1154
131.048603453511 6.57054
132.056199728194 1.85645
133.064805521742 58.329
133.16947103121 0.917656
143.044839388026 0.526591
161.059445947862 15.5384
193.087162186282 0.57155
194.08716218628 1.0e-13

>collision 40.0
41.0398658991997 0.734013
51.0232112831642 8.94291
53.0396804415041 0.654793
55.0183648961338 4.60872
63.0223545855755 2.69768
64.0316063498613 2.88187
65.0389981513331 6.52825
66.0476018037394 0.714986
76.0321110583442 0.554695
77.0387616777308 100.0
77.119184192899 1.72146
77.1433418727204 0.945105
77.176423642412 0.776087
78.0472979009633 4.9218
79.0548013132598 33.0748
79.134526641929 0.667387
89.0388171907931 53.9335
89.124572141982 1.17228
90.046855176635 77.102
90.132437143514 1.09776
90.1683338231454 0.647169
90.252167705153 0.557459
91.053759510537 4.2193
92.0256049589133 11.7861
94.0412981548207 2.09654
101.041062601008 0.692909
102.046858257953 7.28995
103.054127334296 44.2112
103.146976061468 0.74056
104.060621024422 2.33345
105.07062158913 15.2523
107.050132338799 4.50955
114.045477045262 0.747306
115.054361073454 26.4543
115.148978401905 0.549697
117.034005028112 1.09031
118.041048861166 33.8032
118.139327609224 0.66912
119.04612986264 0.529824
131.049875548875 4.57485
132.052520345001 1.05502
133.063296194291 2.7631
138.02782614834 0.675217
139.02782614834 1.0e-13

