>compound Sinapyl aldehyde
>formula C11H12O4
>parentmass 209.079976116675
>charge 1

>ms1peaks
77.0376851586224 0.753118
84.9627165251556 0.978553
130.004181767939 0.783748
130.158777312366 0.826529
145.029194637265 0.529086
148.986076129486 0.541928
167.012228739752 0.64415
169.012698263698 1.53849
169.520509169827 0.628504
177.056457083116 1.28639
191.072795896305 0.539461
208.067708896294 0.664445
209.018089156171 0.879998
209.080747810461 100.0
209.209456487698 1.59209
209.25366194134 1.08873
209.314500860081 0.955368
209.418242282973 0.671579
209.579231224866 0.675968
210.000951941548 0.558623

>collision 10.0
55.0181578288466 36.8247
78.0470203327377 1.16931
84.9594038719678 6.92825
93.0743107007627 1.13518
103.054600692396 6.35408
106.037569775016 0.88629
107.04510859372 1.46355
117.032268768061 1.51697
121.063804614915 7.26944
122.501316932124 0.871447
125.060490217988 1.65955
125.987609117993 5.21699
129.509595995178 1.61488
130.02037325112 2.18925
130.16462718516 0.998272
131.051462237517 6.62697
145.027610221937 11.2971
147.05052646223 1.04951
149.059413880688 13.6708
150.061570456595 0.990769
153.056846856207 3.21421
153.093324663093 0.959392
163.073215385087 1.74352
167.025917085113 1.40105
176.04615915215 0.952172
177.053742600117 59.0107
177.121980099544 2.81177
177.173504626713 0.760788
177.576781591475 0.873973
177.643808383596 1.2998
177.928639999445 1.10142
179.068717187855 1.10589
180.077027751913 0.974318
181.086865796782 7.87785
182.989650952761 1.22275
191.069955641939 27.1327
191.134116149484 1.77736
191.173684822689 0.825049
191.319384906403 1.00232
209.079976116675 100.0
209.203788973838 1.16097
209.287303761477 0.951626
209.749841430782 1.05157

>collision 20.0
45.0358414366921 4.46405
55.018163268008 100.0
56.3512549993825 2.98545
75.9823747739233 3.63615
77.0380266959303 12.8141
79.0543204226654 6.41165
84.9581907093126 13.2795
89.039481702852 9.09578
90.0074126016116 5.27361
91.0019374782994 3.68282
91.054838906169 31.1095
93.035005044482 10.1699
93.0711206033946 12.1986
103.054190657053 37.395
105.069329853124 6.74825
106.039296015155 5.22697
109.842629871137 2.52141
117.032583955528 27.3182
118.039859325375 12.1891
119.046034198416 11.9974
120.017361280723 6.49998
120.056562492991 11.8204
121.065838249966 40.871
121.997677134154 3.3599
127.756216520267 2.21156
130.033444581888 2.62632
131.048265091835 38.001
133.031924587636 5.43828
134.033278913563 8.09678
135.039691523529 2.77306
135.082361485513 4.1209
136.054471822679 2.76973
138.031861189814 5.60908
145.028212922854 35.6869
146.033063107216 2.48424
147.04555414172 21.0432
148.049397958285 22.0947
149.060179593491 46.2029
151.036668804822 8.25703
153.055745562817 15.2186
159.042008376382 15.9045
162.033001995919 5.70939
163.07206793526 23.6761
165.05200632187 5.97614
166.062165513844 13.1038
173.063949002555 2.51839
175.037157646352 2.77323
176.044811271809 12.8111
177.056261407354 18.3411
178.057745912368 2.42459
181.069974156479 6.1311
191.068065135582 29.967
193.045772318093 14.9434
194.052230003462 3.01056

>collision 40.0
51.022994095253 4.24708
53.0087604436286 2.74049
55.0185849739431 42.1454
56.9664532739343 3.92583
64.0325531776758 5.21452
65.0378749310981 23.1088
65.0642301071573 2.82707
68.9998411883589 3.87828
69.0445250934629 4.15781
77.0393199976487 66.5059
77.0856099364198 2.74641
77.1172654139974 3.96063
78.0481337870828 38.8654
79.0526185170241 5.44696
84.9586859033704 12.539
89.0396301823527 35.7649
90.045001448184 10.4279
91.0550370588504 100.0
92.0259058076072 9.95022
92.0587661829241 7.82625
94.0418084701895 9.55452
102.04404146764 18.631
103.053214347527 18.1616
105.033356825212 5.03015
106.041776993723 17.341
107.012047186081 6.42035
107.052205650677 5.0933
108.018659023583 4.36852
110.030481354425 2.57695
117.034198920704 2.96918
118.041218795901 19.5502
119.049564234948 16.778
120.054673565063 8.47832
122.033857341987 3.13456
122.570536285529 3.99697
123.044033535839 5.46888
130.045927300632 3.22336
131.050420485001 5.4491
133.029083240565 12.2648
134.02982064822 3.34555
134.417936556895 2.76016
135.047073978084 7.09321
138.067523035955 3.86025
147.041506532136 16.9425
150.030747642119 7.70646
153.942877734262 2.72898
162.029907153252 7.15822
165.052843783136 5.00344
178.025249516575 5.37578

