>compound Vitamin D3 / Cholecalciferol (Vitamin D3) skeleton
>formula C27H44O
>parentmass 385.34612265657
>charge 1

>ms1peaks
107.084154259325 1.06229
133.099856728394 0.804373
135.110720990419 0.517163
145.098279662668 0.663751
203.178878002942 0.563549
205.191649101106 0.54903
233.223987215755 0.541432
245.223531099405 0.631712
247.240320357582 1.2614
249.160914716095 0.624342
255.209438505974 0.737686
259.237322241073 3.17745
261.26362897241 0.774428
273.26126164521 2.09345
315.297375165702 0.772097
344.195844699248 0.630485
367.334359791163 9.42878
384.339366018222 1.45072
385.112243027866 0.546984
385.345630602377 100.0
385.710944717051 0.507699
385.913365579662 0.53218
386.214971552186 0.617727
386.344275635627 0.578711

>collision 10.0
57.0703613069709 2.77286
71.0852567329612 2.96038
79.0536219035573 1.40235
81.0719033775974 2.67044
85.1014048048852 0.971111
93.0681199185806 2.99653
95.0850563568228 5.166
97.0983602914854 1.82393
105.070985128898 2.8791
107.085150470444 10.7994
109.100027404818 7.2049
111.118258793458 5.05313
117.07043312171 1.3382
121.101604037624 10.1305
123.11304037968 1.55062
125.094284214834 2.37257
131.089588174253 3.07351
133.098089423977 9.24335
135.115076502538 8.25884
137.094252817654 2.63572
137.125917863782 3.18004
145.100631452625 1.7947
147.118895414159 2.81173
149.139504403774 1.93444
151.110826862194 3.70425
151.140995247124 1.15244
156.971241358099 1.43465
159.117711078773 4.59399
161.135196081043 3.37804
163.149231391482 2.68675
173.128977262733 2.9259
175.142597870627 2.90416
177.127732902655 1.53576
185.140316571412 1.27836
187.141914270898 1.03567
189.160947659028 1.14438
191.17856328518 3.12026
199.147922928983 3.96879
201.165164929741 1.22646
203.184907351789 3.02275
204.180013176306 1.57159
205.191058023625 2.01625
217.08614060356 1.01302
217.156633396531 1.06417
217.194733523554 3.30957
219.209461491512 1.69684
231.195413337578 3.4606
232.907553577268 2.0976
233.212343703944 4.3107
241.194841620348 2.29721
243.20897701047 1.24483
245.225305475469 2.15185
247.241631446299 22.8403
255.204275306688 4.18266
257.221009738141 4.27595
259.242647761998 25.9459
261.260820242511 1.93526
269.217046810731 1.00113
271.23976096956 1.51252
273.256181286263 7.59495
277.074987322411 1.01846
285.246873968604 2.40436
287.274134280883 4.50209
289.243765580625 1.25821
297.983108778529 1.62064
301.251795735749 1.25734
315.256128486572 1.25855
317.297503921824 1.3356
325.289246566262 1.94308
339.297552246855 0.967585
349.243333704253 1.01644
367.332560541936 31.2142
384.6949043568 1.45071
385.227361454493 7.4388
385.34612265657 100.0
385.805790622971 1.14081

>collision 20.0
43.0524334220383 4.20109
55.0544687401395 4.2855
57.0713661008193 27.1932
67.0551849178668 17.2186
69.0696743755568 18.8043
71.0853805935374 17.882
79.0550680064519 15.2735
81.0685469699806 24.8657
82.9469486126688 4.33419
83.085572576026 26.3608
85.102734808179 7.16568
91.0569163304729 13.1872
93.0693679501158 38.324
95.0859302328107 42.3487
97.0997779701205 20.8374
105.071068571369 32.6641
107.084333256568 100.0
107.594004573033 4.98229
109.100834755413 21.2471
117.070140798695 7.16265
118.074761665112 6.54044
119.08530616678 7.92755
121.100562383045 55.7455
123.114778120789 21.2566
131.086473587187 20.3425
133.10124878713 32.4202
135.114591717454 26.3483
137.097301957815 17.8598
137.129964637391 7.51254
145.101545903916 22.2177
147.115947431674 21.2885
149.131224943698 29.9305
151.111584262028 15.0823
151.147247737494 5.36646
157.098014697418 10.7775
159.11534987729 79.8933
161.133499370466 22.963
163.146211843679 13.1171
165.133796534382 4.16323
166.128784268454 4.39912
171.118894030852 4.26778
173.131372602135 28.1472
174.140284671792 4.79087
175.145175545031 8.32524
177.142999297961 13.2742
189.162357194149 5.64283
191.144083563976 10.0907
193.19651733295 12.9573
199.144525911014 5.79502
203.174452807752 11.7795
209.115200356215 4.71887
215.174411399461 7.71188
217.196356185573 5.63462
219.210310059148 7.26463
232.91172958026 4.27063
233.22247490382 5.66948
241.19254953911 7.13994
247.240760435809 28.0609
252.177277355285 4.09126
255.210326947376 9.4298
259.240035253902 60.9206
271.243094842725 7.64344
273.256961348047 11.0119
273.548037797214 4.56085
285.258695264767 8.60881
367.335757375704 41.1835
384.338501670905 5.43399
385.298192354728 47.17

>collision 40.0
29.0375480337221 4.81082
41.0377145861278 9.25539
43.0557178638093 18.2074
55.0543557043738 30.9281
56.0539130371493 4.26477
57.0700684597656 16.3542
67.0537959216277 40.4879
69.0678200180106 11.816
71.0833763596386 6.38789
77.0391044656546 8.90729
79.0558494108586 32.5873
81.0688426916945 58.4542
83.0840581338289 6.87497
85.0985784307483 6.20981
91.054643928349 75.1128
93.0694399220998 27.7611
95.0862723094092 43.0229
105.07085679658 97.13
107.084824100968 100.0
109.100790408736 15.3771
117.069484614734 70.6116
119.088592257548 20.811
121.103250972179 30.4322
123.114017755847 8.58714
124.07021038829 4.55929
129.070742735073 16.9198
130.071673473005 5.30542
131.084727641153 49.111
132.08778324728 5.43591
133.101385707144 39.1531
135.114283851551 11.2772
143.085523231806 5.28084
144.09291468507 4.26646
145.097493494241 10.9386
147.116367671462 13.7603
159.115810977996 51.8547
160.123142879472 4.40824
160.877288764875 4.09979
161.130108789228 4.16363
172.124397857607 4.14935
187.385210051615 4.22851
221.844256474458 7.59922

