>compound KOdiA-PC
>formula C32H58NO11P
>parentmass 664.380488624323
>charge 1

>ms1peaks
184.070121952704 1.62528
663.419182554837 0.784464
663.847242015301 0.607495
664.381248883532 100.0
664.687354425604 1.1752
664.832971501509 1.36657
664.996531131373 0.738974
665.12329021447 0.830978
665.290183472282 0.642634

>collision 10.0
184.072411318194 6.10311
664.380488624323 100.0
664.612336444178 1.6886
664.745083420135 0.848551
664.872057213129 0.980429
664.928572404726 0.895095
664.973146876434 0.805347
665.056686248177 0.771148
665.365668416385 1.16018

>collision 20.0
86.0960799100178 1.21728
124.999612209146 0.764473
184.072667060863 76.3445
184.237182117781 0.596771
550.259788338794 0.883034
663.427964902242 0.550953
664.380346646373 100.0
664.740523612698 0.961988
664.845137246333 0.873067
664.961147241656 0.706754
665.088931870737 0.970699
665.189956663984 0.765647
665.256683835879 0.944807

>collision 40.0
60.080801378114 2.29878
86.096379854543 10.1131
104.1078372536 1.05126
124.999615763812 3.91214
166.062153819971 0.605331
184.072491491542 100.0
184.195214123743 1.8995
184.236239295768 0.895849
184.281391624502 0.667911

