>compound &#38;alpha;-Guanidinoglutaric Acid
>formula C6H11N3O4
>parentmass 190.081974206814
>charge 1

>ms1peaks
102.056089048985 0.716572
148.059335174424 0.571758
190.0820794832 100.0
190.207411165292 1.59414
190.246444026111 0.779622

>collision 10.0
84.0451361431962 9.93493
98.0712552503406 0.927762
102.054683306703 16.3618
126.065457703647 0.578521
130.049454484825 11.9092
144.076365533991 4.69509
145.060457899492 3.60075
148.060169819275 8.57507
154.060383214558 0.695384
172.071138946795 5.25085
190.081974206814 100.0
190.204555167956 1.30618
190.270076340905 0.707587

>collision 20.0
41.0392748103037 1.82333
43.0298913466954 3.05896
56.0498516117652 5.88064
60.0562028193969 1.5855
81.0451426423712 2.32706
83.0619329569623 0.974817
84.0448648539254 100.0
84.1296638963353 1.70559
84.1531663338253 0.821988
85.0285170778326 4.78966
98.0716430116369 10.9271
102.054866857699 33.8455
109.039143638944 1.5616
126.065370533716 2.96545
127.050041875062 1.64781
130.04958109441 26.8804
144.076361415179 6.54363
145.060952943237 0.801666
148.060250314692 5.58179
154.061590541209 1.10832
172.073145869278 1.31435
190.082045622937 7.02057

>collision 40.0
28.0177541198784 1.41034
39.023976061003 0.897945
41.0393720031154 38.179
41.0970897771997 0.584298
42.0350800999114 0.54186
43.0298677348908 21.538
44.0478089022701 1.64112
54.0347213229759 3.43359
56.0501810638231 89.2558
56.100532841657 1.59793
56.1193715968738 1.22266
56.1413339631944 0.709761
57.0349167659448 2.88941
60.0550365680106 3.19932
66.0341529395689 0.768947
71.0130126157855 2.99185
81.0450487139198 11.385
82.028756760627 0.833969
84.0448549782601 100.0
84.109911405986 1.44108
84.1278633694139 1.2527
84.153064324827 1.00102
84.2232438937122 0.522002
84.2654414273014 0.50956
84.3517393221289 0.584131
85.0283264799206 5.53108
98.0720126127136 5.39336
100.049271479888 0.668874
102.05878149653 0.859383
109.041043789759 0.658785

