>compound &#38;gamma;-Tocotrienol
>formula C28H42O2
>parentmass 411.324418461131
>charge 1

>ms1peaks
95.0867950276925 0.508846
109.099945880519 0.721552
149.133872380908 0.618659
151.074966144821 10.76
163.147900440351 1.6557
165.088895684457 1.59609
189.095735888789 0.57138
191.107297900295 5.24043
191.176152648371 2.05335
205.120611954403 4.01613
205.195587434258 0.68543
219.135942695794 1.0103
247.240701018996 5.23886
259.242187837168 0.641988
273.25415341082 0.812715
287.202209801579 0.50306
410.317727540479 33.1413
410.493104196364 0.637299
411.325018768859 100.0
411.496938058118 1.93071
411.582402823412 1.29003
411.725925306798 0.95386
411.811989634725 0.808312
411.977093033027 0.872223
412.097802550072 0.62377
412.206204693497 0.791287

>collision 10.0
57.068327110723 0.625429
65.0353297811701 0.604381
69.0672682347749 0.906125
81.0705862962229 1.72069
95.0858786890326 2.63869
97.0989860894293 0.747709
107.082713068752 0.641831
109.100360590315 6.83803
121.100162084862 0.940928
123.116216539401 4.68808
135.117566519751 3.72936
137.130581033772 3.01497
149.131593629655 3.07233
151.074444171715 64.0918
151.147752947973 2.39406
151.209916028183 0.560666
151.272203432169 0.559825
151.394715569594 0.756109
151.852919298196 0.775856
152.813821558875 0.523279
161.015884483888 0.62801
161.129436678403 0.749358
163.081212460769 0.842235
163.1464660612 8.10246
164.081912748848 0.656708
164.183610976529 0.512983
165.092531172133 3.38422
165.166094423605 1.0162
177.091220833564 1.78202
177.161037294418 3.14541
189.08434000576 2.03715
190.157699840839 0.553283
191.105651576549 21.6886
191.177751480553 8.43327
193.114902005759 0.76658
203.185476029704 1.1451
205.121482381649 17.907
205.193016953982 4.39406
206.124106229463 0.582629
207.137220686708 1.83584
215.148045419617 0.61959
217.119403298257 0.521692
217.20000358519 0.513173
218.121818620413 1.25906
219.137910582122 5.68014
219.21641685408 0.723343
231.131804089702 1.10218
233.149110928701 1.14564
247.241818268318 10.7508
259.242203869627 1.06386
261.186767716545 0.532921
273.180979573081 0.617994
273.252960304711 2.23333
287.193231104713 1.06042
301.216825662774 0.657703
312.140174751056 0.502482
315.228651868508 1.28135
327.228412878795 1.08461
329.24641478507 0.521191
341.254909349478 0.989834
410.316849143851 40.9286
410.468465476057 1.01548
410.814128043888 0.589611
410.895721665844 0.532319
411.188251247655 5.05859
411.324418461131 100.0
411.492886969288 1.81755
411.557503064943 1.52318
411.632946600475 0.780055
411.747201037163 1.06677
411.941168331154 1.20515
412.08941812125 0.65063
412.174067156858 0.679117
412.24540674721 0.916734

>collision 20.0
41.035940789389 0.517378
43.0551350111535 0.601401
57.0701246719989 0.808746
59.0481807938812 0.739517
69.035257072722 0.662359
69.0694764207438 3.36199
71.0859719508914 2.17001
81.068722427988 6.30065
82.0745637320474 0.878307
83.0858223891646 2.06684
85.1020031786019 0.506169
91.0571236252618 0.87277
93.0683347037898 1.62747
95.0855490984969 8.12459
97.1006528787624 1.56921
99.0779287997857 0.801321
105.069478063778 0.617359
107.049792720267 0.504862
107.086945177436 2.75864
109.10045227664 11.4645
115.070506938251 0.892671
121.047652119576 1.91254
121.101259107979 3.55855
123.116841295795 5.92443
127.073813921309 0.528101
133.105307573488 0.620025
135.114938061192 2.89805
137.05315500094 1.06624
137.133102028233 7.1871
139.02714195515 0.654704
139.067698985146 0.530459
145.102123262255 0.780339
147.120105028644 1.55742
149.132177361053 9.5487
150.067425232341 1.39805
151.074912537561 100.0
151.187748050926 1.62954
151.229829701866 0.55725
151.265436521806 0.883336
151.336505504849 0.926041
151.517866925442 0.867404
151.712131787613 0.549456
152.081571551275 2.62888
152.672647866751 0.521949
161.131747049421 0.736297
163.146412905059 17.7215
163.210106934777 0.749787
164.145991626116 0.629252
165.090941267891 2.96836
166.097108736043 0.514599
175.089864485847 0.675701
175.145166725395 1.6474
177.091516538854 3.11802
177.164155985237 7.56426
179.178951609832 0.715765
187.107020530434 0.60344
189.08917543459 4.54206
190.091362680257 1.03332
191.105239726277 27.785
191.177734737471 9.62866
191.262851663055 0.522755
191.508418923457 0.556455
191.605512561321 1.12356
192.110709696877 1.7339
193.096483459694 0.652213
195.139859249806 0.791581
203.102511797042 2.35567
204.113165894753 0.514563
204.178414210723 1.02132
205.1204408688 14.9254
205.194296398837 3.18061
206.124961669744 1.41837
217.125074117472 1.32091
217.194599217143 0.83169
218.12944162643 1.54141
218.196727945797 1.14414
219.13633483701 3.02323
219.211683824647 0.902118
229.118762661469 0.986591
230.12817988402 0.723966
232.137859179903 0.884238
245.22128955329 0.857308
247.239098114253 8.7439
257.138891636578 0.548937
259.161312522937 1.59461
259.245465219927 1.35568
261.181148849486 0.579397
273.256136671847 2.6945
286.19121962032 0.858022
287.201432058896 1.36249
311.147071831717 0.633913
367.269547768541 0.506946
410.315513157949 3.44856
411.325459556822 14.0038

>collision 40.0
38.9627567571838 0.659644
41.0403851693356 2.09398
43.0186041509296 4.26829
43.0542200844528 2.39749
46.1074520932437 0.716244
55.0540983954162 8.55335
57.069873244763 3.09588
65.037614363844 1.85128
67.0544688916966 13.0493
67.0960690146147 0.628592
69.033177938466 1.74916
69.0707305049808 10.8955
77.043272292537 1.69939
79.0516892671628 5.12936
80.0617502735729 1.01063
81.070103221148 18.9354
82.0402121735417 0.902681
82.0690602866481 1.47757
83.0181046530377 0.60039
83.0470081114795 0.566605
83.0846615104496 6.10827
85.0652601473338 0.903222
85.1009719938997 1.3103
91.0544068469825 1.91925
93.0704432156698 7.97257
94.0732645270534 0.706512
95.0498617477134 1.31384
95.0846773955412 23.106
95.3524568740242 0.574778
96.0212756011795 0.755357
97.0637042309012 2.56706
97.102110488471 3.21845
99.0418045052045 0.767859
103.437278371314 0.567742
105.066745379783 3.23314
107.08651959155 9.54749
108.055904226327 1.17387
108.087507285421 0.670506
109.101962934406 13.3602
111.044026439882 0.924366
111.07742829698 0.595738
115.056296900966 1.38165
119.083987319502 1.12261
121.101278379976 8.57668
122.067572175222 1.25948
123.080171816089 11.7866
123.11534294642 6.72301
123.236011745583 0.560542
124.08181964327 0.974151
124.115524726094 0.577262
133.065155070181 0.67232
135.114057908403 7.94611
135.157525034128 0.726748
137.05591179599 0.923159
137.13111717889 4.69833
142.071921273309 1.17008
145.099554356047 1.51769
147.101767844694 1.73275
149.126977263784 6.33809
150.065506366849 6.5763
151.074215848023 100.0
151.1864737771 2.06852
151.306758839731 0.566675
151.337920310579 0.662695
151.409266682835 0.935355
151.474123716559 0.563077
151.576326258074 0.683894
151.835592786688 0.771722
152.075370119818 4.38331
152.577646091469 0.563683
153.083316539767 1.20562
157.096008828698 0.970209
159.072717682824 2.07236
161.123083257828 1.08942
163.067869207764 1.71948
163.110041782345 3.8815
163.146188151483 8.20086
163.201751693486 0.567729
165.087299682538 2.06773
173.094523176756 2.56641
175.112924978731 1.48552
176.081446350336 3.92728
177.09004946728 3.11382
177.16282638104 2.47062
178.088141443992 0.8653
185.088916363244 0.831242
188.111931527991 0.601843
189.088270561064 7.78687
190.093351504645 1.52745
191.104092051424 13.4668
191.177648161671 0.783618
192.109677228616 1.04899
193.126852653796 0.83194
203.104060009191 0.726084
203.176722635936 0.591958
205.121771834408 5.87548
205.196495793771 0.59241
217.113146346108 1.20634
219.136984845279 0.56521
242.134120749855 0.562219

