>compound &#38;delta;-Tocotrienol
>formula C27H40O2
>parentmass 397.308418413589
>charge 1

>ms1peaks
123.116803579359 0.693074
137.058351870782 2.57858
149.135132727148 0.664308
151.073310276845 0.836401
163.147108441754 1.15341
177.090184454441 4.23335
177.160031115704 0.967279
191.10581125849 4.41245
191.176906712656 1.32202
205.121374142388 1.28536
205.194872184844 0.828103
219.133911769734 0.501097
233.150344859744 0.707518
247.240616814538 3.03285
259.241653247463 0.723521
273.185029350812 0.676797
301.216541431785 0.655729
396.301324848154 18.1027
397.308418413589 100.0
397.546482259977 1.16428
397.609801694357 0.930989
397.666418720987 1.0076
397.751523968482 0.742076
397.858021537003 0.847862
397.952735454353 0.762462
398.097302189784 0.916282
398.219299332658 0.583847

>collision 10.0
57.0704791306023 0.646822
69.070670157875 0.621717
81.0706097487669 2.38497
95.0865762856724 3.33002
97.0964666120077 0.719278
107.083636545042 1.26888
109.100410561155 3.94083
111.115991184623 0.502552
121.052140305467 0.87991
121.102502483517 2.50826
123.076516416938 0.74727
123.116193431787 3.54174
135.116903556432 2.7544
137.058798675383 24.4601
137.130708096514 2.82704
149.131906984014 5.06078
151.074109011452 4.97558
151.145666637063 1.68385
163.073236999834 3.01939
163.147553323553 12.674
165.091059717749 1.47998
175.073619466483 0.511008
177.089958152936 19.8959
177.16334265493 4.08595
179.104106522524 1.01084
189.092536330006 0.832413
191.105817867175 18.8699
191.179484182403 9.16482
192.113576474367 0.954454
193.192654809299 0.541108
205.120671862551 4.84112
205.194066608837 5.88611
215.102047131095 0.601607
217.106646303685 0.593602
217.189377508778 0.912573
219.136208560522 0.98711
219.210446996443 1.31562
231.13954440913 0.589563
233.148792133432 1.10704
233.22745217634 0.73883
245.15551236888 1.45036
247.1679905309 0.545889
247.241045078233 9.54394
259.165313426847 1.39481
259.241496211566 2.02639
260.238443038376 0.50686
273.179508883893 1.28829
273.255434302001 1.17055
285.182792344098 0.562619
287.199495268396 0.838178
301.214898279018 0.767886
313.21004122637 0.692722
314.216550930103 0.658305
315.231346959695 1.48097
327.231114626847 1.36427
341.243711166298 1.04633
396.299392033226 14.4596
397.307770506102 100.0
397.490164051807 1.73856
397.550644576063 0.99387
397.607780627003 1.04145
397.708699423682 0.706457
397.91739955778 0.789206
398.054275599906 0.59339
398.17908909678 1.03248

>collision 20.0
41.0398349999578 0.995164
43.0168482958203 0.696403
43.054592613657 0.671673
55.0566944438126 0.946797
57.0706834845799 3.3677
69.0697407013211 1.84234
71.0819135965817 0.582207
79.0555492156572 1.55376
81.0698579406147 10.6488
82.0692079397881 0.578716
83.0129828200083 0.561459
83.0865667067032 3.55133
91.053103098188 0.556281
93.0702173263045 3.86506
94.0750059796758 0.622393
95.0848713091238 15.9438
96.0203422082158 0.644131
97.1030064802592 1.33878
105.070062323732 1.97182
107.085980643527 6.4383
109.06287331236 0.785123
109.101007395316 17.4885
110.03985401342 0.598999
110.107811069713 1.26521
111.116615096585 1.09187
119.080611671526 1.31085
121.101300644597 10.0357
122.105367427002 0.824664
123.116158824401 12.3642
125.054711332663 0.515949
125.139253801994 0.520142
133.09785132749 0.746842
135.116798623466 11.0209
135.169306409226 0.536988
137.059007028075 100.0
137.129594156575 11.9675
137.198217873486 1.08119
137.229388479844 0.64714
137.310801854395 0.629976
137.363301958213 0.593257
137.536722505141 0.589228
138.069657138766 1.02909
138.134810339929 0.90344
141.125035756235 0.695777
147.117418579915 1.03783
149.057499115593 1.84887
149.13252818098 19.5689
151.074346017467 9.60502
151.14560144624 2.93201
161.126179536053 1.42933
163.074091502197 9.76928
163.146816280194 41.4931
163.281898226089 0.579696
163.52896379052 0.543864
165.091021531763 3.09927
165.162353500477 1.8606
175.073880954569 3.38754
175.149325250007 0.897099
177.090379116939 50.7313
177.162371366189 10.3505
177.251230359781 0.56749
177.389648237212 0.531571
178.093175378005 0.729544
179.103825210345 1.21696
179.176032236068 0.872656
189.090464758654 2.61031
189.15982189303 0.681499
191.106173887109 30.1005
191.178705958939 20.2711
191.315341483186 0.506566
191.739380714269 0.542426
192.114234073933 1.58969
193.120868918801 1.01617
193.199566075675 0.644232
203.106472517431 2.38853
203.177500103591 1.31507
204.116550062194 1.83828
204.181392773643 0.878673
205.120084590378 8.34192
205.1940299689 8.90267
207.136054234452 0.701732
215.101204875135 0.697881
217.120375813551 1.26944
217.196202103609 0.606339
219.135279731704 2.14298
219.211213027888 1.41429
231.138569952606 1.38058
231.200977395842 0.558416
233.153173025 1.61534
233.226260944321 0.695635
235.168158899809 0.615787
243.139671906587 0.597536
245.155776681778 1.2639
247.167312235879 1.24383
247.24103099695 4.66551
259.172644378527 0.812867
259.238640496178 3.32034
260.177231081979 0.82232
271.15447617642 0.551591
273.181824188259 1.26339
273.257862074454 2.00782
287.201192779607 1.41431
313.214453013119 0.991761
315.228685084768 0.658055
327.232894732747 1.68075
341.247333174076 2.25633
351.189365911232 0.587833
355.260204843132 1.63932
367.21032323502 0.589269
396.297123947916 4.31135
397.191766115892 5.23752
397.308228532793 26.4206
397.484530675323 0.578917

>collision 40.0
39.0245088750323 0.699171
41.0387059608343 2.52418
43.0199850534234 1.11566
43.0547202517386 2.34181
53.0410824023472 0.617822
55.0548222010507 4.20638
57.069108954834 4.27501
67.0537223543843 5.96082
69.0333865096743 2.5534
69.0705528719522 9.99016
70.0740994785827 0.509288
71.0856822144549 0.978173
77.0383720127155 1.72709
79.0549116065453 5.52696
81.069520177175 29.5956
81.1514973456443 0.506981
82.0722845471434 1.4138
83.011158778923 0.590775
83.0851077879957 3.30904
91.0543514388094 3.00613
93.0695249135944 13.6601
95.0484326036787 0.940989
95.08522869503 25.3831
97.102381731846 1.75508
105.070308111365 3.08881
107.084338851314 20.3877
109.065338725812 6.98068
109.100853239814 16.351
117.064470872884 0.528352
119.084375513007 3.26381
121.099076463821 15.7399
123.116947256079 6.63181
129.066748455181 0.542341
133.100493107099 2.18299
135.116499055865 8.80436
136.051449583732 0.865988
137.058967144899 100.0
137.128078609857 4.09382
137.165501803209 1.62491
137.196828510225 1.0741
137.221249086467 0.618417
137.25939474538 0.518724
137.302400275694 0.600957
137.466606553009 0.57203
138.064299200771 2.11893
145.100875919872 0.958224
147.076800070123 0.653193
147.113643003513 1.2705
149.131263353439 8.2193
151.074593005547 4.12827
151.147465067562 0.72297
159.08029885912 1.38786
161.129595466625 2.03606
162.064669518388 1.00982
163.075750007796 8.4134
163.147941566957 16.3543
163.239376591681 0.542065
175.074576130512 2.16907
176.080620012517 0.913136
177.090078418839 19.173
177.164973550375 2.7975
189.092344198094 2.00412
191.105551055403 8.3293
191.174913388011 1.5574
203.105273596736 1.3893
205.123013569443 0.683684
205.188823252636 0.605197

