>compound Salidroside
>formula C14H20O7
>parentmass 323.109003202633
>charge 1

>ms1peaks
323.108878792132 100.0
323.271672203058 1.77972
323.32261420741 0.936841
323.370625348284 0.623913
323.416464769532 0.582282
323.464463560658 0.56089
323.579813394854 0.54598
323.619726827692 0.501005
352.61972682769 1.0e-13

>collision 10.0
323.109003202633 100.0
323.271167449545 1.81654
323.327556249186 0.891488
323.410431452872 0.570413
323.486554192331 0.518534
352.48655419233 1.0e-13

>collision 20.0
43.0169719168194 0.544264
323.108503341409 100.0
323.268340040941 1.37368
323.32410096796 0.789525
323.376898227341 0.672318
323.644539909747 0.623546
323.97225030945 0.661791
352.97225030945 1.0e-13

>collision 40.0
41.0366671906663 21.1612
43.018088361298 100.0
45.0338513086738 21.8187
59.0490955051524 14.7435
73.0639299200618 17.9662
83.0821770454817 11.3648
93.0289384768495 11.3744
93.0702994874106 20.5102
93.9574690607682 10.4329
97.061892339923 15.212
98.9825065449808 20.9212
99.0395037340479 14.6938
106.062721429464 22.6473
108.059047801237 18.2026
121.048522110227 52.0832
123.080874382499 28.8464
137.003097196544 9.82661
144.085772743398 11.4948
147.080567357599 9.50022
215.029892094962 23.625
244.02989209496 1.0e-13

