>compound Swainsonine
>formula C8H15NO3
>parentmass 174.112590854136
>charge 1

>ms1peaks
156.10214796769 3.17788
173.077743139955 0.532478
174.112917869548 100.0
174.232083128409 3.27938
174.273558341608 1.48651
174.331359354198 0.533505
174.393613503978 0.594797

>collision 10.0
60.0452831620511 0.550184
70.0658118153433 1.43501
79.0546892256657 0.822201
97.0653267214521 1.14169
112.075547473774 0.702183
120.0806079568 0.864072
138.091367998746 6.93486
156.102037499309 88.0374
156.215470245774 2.28758
156.25194613065 0.907911
173.07820325601 0.519844
174.112590854136 100.0
174.231761688765 2.58605
174.272452033998 1.10995
174.333105286654 0.501978
174.402775662024 0.514954

>collision 20.0
41.0395694523576 2.2144
43.019011391941 2.43792
43.0551654078722 1.31756
44.0505023164317 1.56811
55.0188508862465 0.991582
55.0549701300171 0.962791
60.0452653091223 6.83643
67.05480831675 3.67063
68.0496709062191 0.781845
69.0340014577075 4.91581
69.0701827865008 2.67784
70.0657062476263 16.6951
71.0497877054316 4.62325
72.044947585576 0.892112
77.0391122603754 0.991229
79.054700650518 15.6184
81.0700940642455 1.39399
82.0651667619425 1.0991
84.0812763386334 4.01627
86.0600824459483 1.63761
93.070010983666 1.11647
96.0808430723008 4.3272
97.0651123616357 14.7113
100.076261282994 1.33677
108.081044946326 1.53729
110.096421094631 5.35213
112.075711719638 4.73437
120.080504133534 8.45267
121.086420947707 0.518462
126.091243262144 1.22957
128.105469262114 1.78422
138.091403916122 49.7587
138.198111346818 0.895617
156.101854315368 100.0
156.215484787457 2.37391
156.254025849483 1.0037
174.112434108131 11.2455

>collision 40.0
28.0189384981963 0.573483
29.0385048042042 0.90675
30.0340636491474 1.33602
31.0178516300475 0.697321
39.0239545893388 8.92448
41.0395740378973 100.0
41.0983357935128 1.7752
41.1166588174815 0.903789
42.0346948329457 14.0626
43.018812999589 39.7848
43.0550296792718 23.6831
43.1140919132371 0.632511
44.0504398787214 10.104
45.0344544274968 4.15585
51.0238245512561 4.24579
53.0394241514159 7.17397
54.0352122784178 4.17502
55.0188113437048 15.5762
55.0545981067626 24.1281
55.1070040740713 0.572316
55.1238567317355 0.512119
56.050350856135 14.3364
57.0342024849363 9.48927
58.0658970781053 0.984068
59.0453664441529 0.587333
60.0452253161402 18.8611
65.0388633018076 7.07257
66.0452583244905 0.581409
67.0545362334588 40.2496
67.128864432558 0.559114
68.0500356096026 17.7629
69.0342692731152 27.2438
69.0694796765885 11.051
70.0286285695222 1.51058
70.0658006148252 69.453
70.1427912136971 1.20803
70.1647536709697 0.566246
71.0497071768696 8.13053
72.0455753623892 1.62967
72.0817200993633 0.658002
73.0291420719547 1.57155
74.0616332345033 0.936655
77.0391069822238 70.8543
77.1192678304716 1.20914
77.142870402842 0.57009
78.0366478568778 0.951515
79.0546788347316 64.8972
79.1642427674072 0.540925
80.0499954452728 14.3516
81.0679979452799 9.01932
82.0657279564057 15.9183
83.0729681127767 3.78097
84.0446015040993 1.86248
84.0810994652787 33.0942
86.060418751968 0.795446
91.0543135353701 5.06608
92.0502547804615 3.0206
93.0641475902395 3.87533
94.0655694618689 5.89372
95.0727356746004 1.67034
96.0446596476953 1.91819
96.0812415435221 10.9228
97.0653952426633 8.0816
98.0603719495251 0.734826
99.0671177470776 0.51318
100.075695325594 0.721875
103.05443903572 2.34401
105.058441777241 1.09188
106.066737120648 1.52511
108.080410655294 5.55524
109.086324256629 0.621917
110.059492837568 2.03702
110.096355322128 13.505
112.076187561989 3.68455
113.083752107546 2.85921
118.066282437579 2.96878
120.080902202626 25.2439
121.08781697691 3.35405
122.096473360598 0.724439
128.071480964408 3.35683
136.074211764542 1.1669
138.09126966228 13.5869
156.101894956001 2.32973

