>compound Matairesinol
>formula C20H22O6
>parentmass 359.148822190447
>charge 1

>ms1peaks
43.017213579627 0.500266
81.0697811250024 0.77039
95.043691487972 0.612698
97.0628171792998 0.51457
115.077847577289 0.604804
122.094258029218 0.673666
131.047788818521 1.15373
137.058759521708 6.88293
163.075877999558 0.570071
223.103365700457 1.50255
291.100828258071 1.36934
291.150271850997 0.712708
295.179581600153 0.698964
305.109405086246 1.05815
309.11243206479 0.744606
323.139715383355 2.48638
323.256307316194 0.559239
324.173639744637 0.691474
341.13980730461 25.3817
341.288110341177 1.53288
341.364452806973 0.505501
358.233378593508 8.15163
358.433508629967 0.503799
359.148527943311 100.0
359.324175220431 2.10158
359.399702901241 1.38924
359.466461906758 1.1838
359.530975103901 0.730594
359.640291229708 1.00094
359.79281243762 1.24064
359.955990622734 0.758034
360.078778415511 0.53429

>collision 10.0
38.2632954434295 0.809601
43.0200180351342 0.961131
74.0961103180234 2.30888
97.0671867151475 0.814412
100.044928909839 1.93196
101.063243779608 0.730173
107.04880493801 2.06481
107.083533681704 1.32387
109.100313808164 1.38399
111.111560476444 0.745093
113.058274256173 1.3423
115.074027649617 1.68087
121.061267144766 0.699778
123.107187337558 2.32774
125.856979527557 1.28578
127.074777180263 0.714354
128.080119958476 1.11803
131.046928543573 8.7691
137.059120364334 99.235
137.128690595068 2.11091
137.171952537527 1.35693
137.231607178304 0.823672
137.290085264197 0.900759
137.406604893251 0.745526
137.695988716239 1.16028
137.944082600484 1.08077
138.065473901939 1.31843
144.112627255688 1.53093
147.114709233984 0.983111
149.064138106999 0.883328
151.035047219192 1.22461
153.08708047997 0.796613
157.094052294519 0.74275
163.076808226237 11.5255
163.134674618507 1.59323
165.053906359419 2.54987
165.090856919079 0.962949
166.831055431279 0.889564
177.054594824602 3.16856
177.15964480489 0.831557
179.069649058189 4.17588
183.097655730235 0.713921
183.159026707006 0.83912
189.084295510728 1.16035
193.118280288938 1.02813
195.101208339168 1.33069
199.143399159023 0.839907
203.176710331001 1.19834
205.08234496949 2.48304
207.173982216886 1.19708
211.123352196238 1.30676
213.10150420096 0.956715
215.069361319016 1.11678
217.086575246266 1.33563
221.089997881453 2.04355
223.097565506745 4.08699
225.147464021095 0.970511
231.075922267541 0.831248
235.093193400395 2.04778
239.114417199123 1.11175
241.142078694749 0.871656
243.116005951505 0.694439
253.083598790353 0.874333
255.154086766692 0.888974
259.072439024053 2.55028
260.081754690126 1.05638
263.111295263851 5.02828
263.194107760951 0.954338
265.140785701048 0.693428
266.157866548736 1.04184
273.089939088979 0.759813
273.176994238508 0.977413
281.143875455837 1.41729
291.1016466706 14.1837
295.137216859703 3.24774
301.150235848259 0.72381
305.118029966378 6.81004
305.216760728919 1.66874
305.281539963475 1.10983
309.114628148206 2.36098
313.138281879383 2.62363
317.165055347528 0.925727
321.109409046198 0.990955
323.128517464159 35.2761
323.280354605813 2.10333
323.343798480429 0.815935
324.220761127338 1.1408
341.060472686337 0.727631
341.137443549003 100.0
341.309713761066 1.73262
341.371205100629 1.02324
341.480733234061 1.51548
341.526931344136 0.799461
341.757230720155 1.26459
341.899934765675 1.14297
341.989970633227 0.819513
342.125804585825 1.21801
342.238962110261 1.50473
342.311481431124 1.07499
342.604408420185 0.70235
358.227868437568 7.25475
359.148822190447 52.618
359.225965944531 11.3119
359.556637313591 0.695593

>collision 20.0
74.0950689105148 0.861666
83.0874456328025 0.797477
94.0417996072592 0.634635
95.0872182773874 1.21872
97.0650251922 0.560047
107.061968702789 0.816145
109.064566863994 1.66452
109.098831995414 0.555166
111.079203178297 0.618364
113.059740501151 0.71516
121.066797495771 0.610434
122.034681403073 1.59364
123.083698575783 0.686647
129.089482546722 0.512588
131.050171581246 12.0436
133.066520170313 0.938982
135.046202125399 0.833118
137.059338762053 100.0
137.167106921863 1.38459
137.197411316 0.793959
137.223525517137 0.526302
137.343359235806 0.554346
137.408892980664 0.55926
137.67840771718 0.531783
145.065373185342 0.5993
147.042907896393 0.72299
149.05938886115 2.63883
151.072183394896 1.62928
157.063762777283 0.505329
159.106427886816 0.763625
163.07407519822 5.25377
165.053385355917 2.59235
167.065968606925 0.706685
169.084834135938 0.758717
173.059946645773 0.570215
175.070512353676 0.899007
177.049784241823 2.14168
178.063617544422 0.851318
179.067564350512 1.30904
187.072104538021 0.980853
188.080197802859 0.521496
189.09066938008 2.17032
191.066747558444 0.56441
203.144908895022 0.548081
205.085932110281 2.01874
221.094917449944 0.861158
231.081180402099 2.42863
259.078481045906 2.12534
263.107850482639 4.26142
276.075485331639 1.27241
277.117011746696 0.548412
277.18013839005 0.591489
281.116642096295 1.82029
291.098345053856 12.325
295.131259378971 0.622166
305.117317045825 2.30184
305.160784145715 0.731385
309.112404399046 0.54722
323.124622384304 5.65093
323.241015873626 0.547953
324.185250503288 0.880697
341.132138742009 5.90333
359.165773864249 0.726996
359.236577844584 1.70788

>collision 40.0
43.0188935625687 3.05787
69.0702739545484 1.22153
74.0966344821682 2.13645
77.0387329809647 1.06041
79.0538967350768 0.627425
81.0724178818597 1.40524
85.026348757282 0.663725
91.054957261419 1.44491
94.0424991053852 4.71654
95.0850525997324 2.35999
97.0629188266889 0.799812
103.054435204563 5.07045
105.031829283967 0.687049
107.049680394324 1.49765
109.06425358388 1.26621
109.098319635447 1.05877
111.044939629095 0.609049
119.082625786897 0.743156
121.065439460754 1.82101
121.099660706615 0.837501
122.036328794874 12.0055
128.060099659875 0.807905
129.067045764428 1.06667
131.049192150236 8.39512
133.09352011446 0.576638
137.059362798251 100.0
137.165195821121 1.50529
137.195999640752 0.664422
137.228622938759 0.809265
137.339428566057 0.877649
137.410498404482 0.552954
137.508100655347 0.51885
138.057039011492 0.537508
147.076002600015 0.515431
148.050166747238 1.62497
151.077192522402 1.09141
153.052732978758 0.728486
157.063835995975 0.980301
157.101972870732 0.595431
162.070066975593 0.55918
163.075123498957 1.1601
165.049312078878 0.710673
175.0779043632 0.979599
175.119215555279 0.645781
176.04586949481 0.535378
177.102460079231 0.587856
189.097257767216 0.616578
202.075679446954 0.674722
203.083905491691 2.70931
204.080769174183 0.862868
215.08639683377 0.50299
220.087185483715 0.717337
230.070767524703 0.538335
231.080467828034 1.499
232.085183459689 1.7427
245.093719446312 0.703548
248.079327574559 1.03063
261.087168354772 0.885999
263.106781628908 0.771251
276.080201685519 0.640859
277.08747165507 0.935309
280.112424827799 0.515376
291.103531300599 1.16965

