>compound Cerulenin
>formula C12H17NO3
>parentmass 224.129673031276
>charge 1

>ms1peaks
43.0540689121167 0.773425
55.0528510477221 0.818481
67.0533924501368 0.563827
69.0332314464797 0.714846
69.0708546388103 0.752997
70.0298906230236 0.752233
71.0126542359693 1.14065
79.05552061369 0.695846
81.0720988156576 1.70837
83.0506692179758 1.27488
86.0234151459581 1.01068
88.0391932368966 6.08641
91.0541511085949 0.705512
93.0677364265193 4.471
95.0840781844063 3.18021
98.0225279355914 1.55465
99.0457406381612 1.19037
99.0797482647339 0.829323
105.070300745096 0.670404
107.082593331742 1.61103
108.044075766604 0.59678
109.027287104642 0.701455
109.101933078374 2.57329
111.112925883269 0.757683
116.032287849011 1.41656
119.084447004377 2.94741
121.097761671767 0.551669
124.037508368906 2.13523
126.057872643445 0.662587
131.083289914736 0.594208
133.098270474918 1.65399
135.099896546412 1.05455
137.095012457346 6.96344
138.057390932554 0.940777
142.04640561284 0.569867
143.087577967867 0.793976
145.098510269263 2.35806
150.051940143751 0.605796
150.128276378078 0.767493
151.111198318974 0.674619
152.068568309826 0.983795
154.050694122479 4.92463
161.093931390817 4.07488
168.064107982759 0.551257
171.080714143275 1.26583
178.123300152471 4.26535
179.105270455502 5.6104
181.12227700306 2.47782
182.078980928998 0.577688
188.106731175583 2.86409
189.090165858469 4.18982
196.132863957036 12.3751
206.117066306029 32.7657
206.238679348446 0.63758
207.098911766013 1.67763
223.108636127286 0.965421
224.127977631016 100.0
224.263808584508 1.95371
224.313990520544 0.842062
224.396663707786 0.734944
224.457147881293 0.509842
224.556729954386 0.615765
224.707571082679 0.953866
224.788381808354 0.518525
224.83858284921 0.568392

>collision 10.0
41.0391754793448 1.77107
43.0184609873811 26.2255
48.9865069303572 1.63804
53.03780612794 4.41556
55.0181296339415 10.4017
55.0546927037526 11.2057
56.047576942948 3.33775
67.0544841320297 39.0994
68.9980071170668 3.74191
69.0312950439304 3.16444
69.0703446005865 15.1481
70.0286740281318 15.2507
71.0136973429671 26.8807
71.0501635974058 10.7438
71.0844719895548 2.47615
72.041982494156 2.55029
77.0394158269527 5.8215
77.0621661846076 1.62676
78.0450930942798 1.64722
79.0540320094053 38.0893
80.0499677832353 2.90094
81.033956359131 5.58909
81.069515397635 41.9954
82.065099316201 6.65218
83.0145960921024 2.3046
83.0494346416415 15.7849
85.065170335597 5.26947
85.100056321491 1.6465
86.0229283737845 21.487
88.0399810890682 43.616
91.0542058396364 25.9039
93.0696221028326 100.0
93.1282429164818 2.02279
93.2994105339889 2.28221
93.6459106195296 1.52113
95.0489488033179 15.8919
95.0844944848366 51.4528
95.1446038159766 1.80351
95.176224257175 1.63475
96.0451678611707 2.01206
97.0629147871412 6.36032
98.023461435307 85.3153
98.0890012503932 1.72288
98.2499060210984 1.5302
99.0436298683095 24.0502
100.037412114425 2.41783
103.052656879623 1.66177
105.068375033193 8.49498
107.049587589747 7.03078
107.08561164663 49.4723
107.150498730585 1.58539
107.290302878252 1.69708
108.046561991695 5.06466
108.072905907207 1.78648
109.026458842942 15.5021
109.062729799634 6.48709
109.100491746695 32.1838
110.060839320216 3.40461
111.066693227747 4.87596
111.108318966277 2.15202
112.041220970632 1.71054
113.061426170147 3.72054
114.05232317495 3.26094
115.054236491254 2.24109
116.033743905262 7.90135
117.06997422151 7.7459
119.048735016559 1.62826
119.084421548863 27.1294
121.064955326323 5.09606
121.518344806003 2.66132
122.05919580523 2.92572
122.355615924251 2.18547
123.036576298831 6.93504
123.076442165674 3.79402
123.10837345307 2.55011
124.037245832611 20.9648
125.023050027115 2.04977
125.066690360264 2.47195
126.060028978985 3.14519
127.05097222578 2.24192
128.061867701669 4.12014
133.099905129487 31.1626
134.063272796833 2.53519
134.103147188096 2.33956
135.07956068227 27.9884
135.110948894441 10.743
136.034240224481 5.62174
136.074093320774 5.95454
136.112594347131 2.89797
137.095010263985 13.5998
138.053761810289 18.1431
140.0710519049 3.29931
141.959892972807 2.05792
143.083880916092 15.4907
145.101636366928 16.9377
146.062838135693 3.02772
147.081820169538 5.28725
149.021101999762 8.27765
150.054672999789 9.4375
150.087299922946 3.17185
150.129733675441 9.00796
151.043988334379 1.97695
151.112299469869 9.48577
152.067170037468 4.29904
153.070323105705 2.41426
153.123808500482 3.88111
154.048844035399 38.1811
154.117393479354 1.84728
160.07541716017 3.51905
160.106970541126 2.24834
161.096298169163 44.0503
163.114332685677 5.2759
164.071562771138 7.21141
168.067102559129 7.34733
168.136777088734 1.91509
171.080346439884 5.78227
177.08459822462 1.77459
178.120443131984 19.8171
179.107421842426 29.7905
181.122357852882 7.66819
182.941907777682 1.8259
183.056349679592 2.92011
188.102838725335 5.91135
189.090877663203 7.22975
196.132937833775 10.7711
199.012351834883 1.53409
206.117054345724 59.212
206.645928825957 2.14279
207.028020652072 2.99337
207.143371540227 2.02873
223.109762885556 1.79729
224.129673031276 24.6135

>collision 20.0
39.025445778071 2.20576
41.0401210283028 7.5208
43.0171865504991 22.0205
43.0548224573861 7.70748
53.0391019791245 8.48408
55.0197415939101 25.8223
55.0544113124752 28.7061
56.0474561695633 5.15329
57.0341628638118 7.1987
65.0376813257195 3.07164
66.0474303836315 3.90481
67.0552608932812 70.4769
67.0944864751839 3.59131
68.0484350578349 6.35415
68.9972753949046 8.51142
69.0327486919261 10.928
69.0712411282153 8.89835
70.0292000181309 41.7474
70.061336553166 6.03772
70.939077635498 2.02955
71.0133300784346 31.0099
71.0478628840401 20.0499
71.0793861564325 2.7821
72.0465006216826 9.32976
72.078244603414 2.35279
73.0278903300946 2.24552
77.0381874209977 27.6772
79.054953631333 69.9119
79.4859265565671 3.46761
80.0481021146675 10.4077
81.0355600594695 11.8308
81.0709237897327 78.2717
81.1191190662103 3.10734
81.1540668139932 2.2915
82.0635835917561 2.98684
82.5348597765052 2.17184
83.0110116902901 2.60359
83.0482708509495 25.9701
86.0238004488873 14.6173
88.0405736524745 29.1081
91.054360587767 60.8486
92.0615982141095 3.15555
93.0709761071745 100.0
93.1174533115974 5.10151
93.1504194396708 3.59947
93.2180299255877 2.2904
94.063964010508 16.7543
95.0498707113384 9.99785
95.08500649788 55.8771
96.0467773473824 4.26326
97.0280616692263 6.22924
97.0654567853753 5.21217
98.0237583109808 87.2208
98.0922126181886 2.52105
99.0493998480244 2.06167
103.056960487006 3.66168
105.067597530219 25.1092
106.070532605856 3.73917
106.926057918385 2.0108
107.04758443991 12.4036
107.085664181503 24.5458
108.043877528629 9.63387
108.076409996008 4.20323
109.029085463424 28.3625
109.100897375763 11.1723
110.057237358408 5.65121
111.042893623905 7.68721
112.039560717381 3.34958
115.052416476725 12.7522
117.06805931356 14.4579
119.086216260694 15.3306
121.064895997043 7.79227
121.103489951093 4.79997
122.057255898989 2.26824
123.080691158828 3.05002
124.039234411923 17.5636
125.02426222604 3.09973
125.058668789128 3.25802
128.062925072532 12.5351
130.078492860849 7.72174
131.080592668273 6.84259
133.022105348182 2.10828
133.099099184233 12.7668
134.043670755898 2.72439
134.098122115805 2.91336
135.080717818423 3.7814
136.039163937461 2.29541
137.046993995119 2.56401
137.090609867832 5.49135
138.052885618495 7.95654
138.952030960452 2.53772
143.086419141666 9.41041
146.074674873021 6.58886
147.080678754602 5.32283
149.021942379086 6.61792
150.046071217619 2.94934
150.121326554842 4.04919
153.059471671648 2.28855
154.052890128904 11.0963
160.052120095383 4.95693
161.100098125113 5.09991
163.109852283227 2.02933
164.073339628916 2.9181
170.08813842209 7.46582
178.12340244231 4.91557
206.106073017849 7.88441
206.144205244678 2.3175
207.031960232381 5.0716
208.029543090147 3.27945

>collision 40.0
29.0378389933398 2.71138
30.0342079303913 2.03521
39.0229375560462 10.5797
41.0390713218722 44.5795
42.0335695301861 2.98072
43.0182382608866 49.1478
43.0550619609038 12.7899
43.0779178098724 1.96578
44.0140453991716 18.1716
51.0250570783331 7.92532
53.0052618942412 10.8701
53.039612977059 32.1135
54.0332049900297 3.25634
55.0544238617795 55.7113
55.6591873704538 2.01603
56.0504221957707 2.70624
56.9398855643556 2.37196
57.0356400807101 2.16139
65.0384279940084 43.7648
67.0549635358078 63.2659
68.049353308909 6.09835
68.9973507492545 23.0399
69.0309501342637 7.74272
69.0670267839818 7.11084
69.1018058316876 2.62452
70.0295057786006 31.2998
71.0114440452143 36.6105
77.0391364463294 100.0
78.0454413024505 2.36328
79.054492345512 50.5111
80.051600984957 10.1232
81.033991392416 7.88688
81.0707348014392 14.1378
86.0234955613666 5.27979
91.0550667285422 64.9723
91.1445794644361 2.04196
93.067760135251 6.17655
94.0655148548783 2.14171
95.0470148066055 2.24937
96.051545494202 3.81603
97.0225846385178 2.63059
98.0232625456127 5.30914
103.052337554356 9.56145
104.91148055075 3.56296
105.032728250097 5.11831
105.066385524727 6.71889
105.095280127586 2.04736
106.061982358903 2.76674
107.051738231407 8.19062
115.051458938035 4.97644
117.059104094717 2.96473
119.079809857465 2.04331
125.019266491479 1.96393
128.060070096357 10.8919
129.066884749233 2.78126
164.97954697735 2.43445
182.974324661601 3.20829

