>compound Palmitic Acid methyl ester
>formula C17H34O2
>parentmass 271.262678600592
>charge 1

>ms1peaks
43.0183355456559 0.590421
59.0509577734747 0.589149
111.071900488146 0.523785
163.149433406761 0.617363
187.166444250051 0.630578
270.225532374235 0.501279
270.317187936908 1.43014
271.143373496866 1.89563
271.263697808969 100.0
271.401874556518 2.18466
271.474043236309 0.996835
271.529872672533 0.931281
271.579808498088 0.747757
271.643139926521 0.727693
271.731061128663 0.769142
271.869709115882 0.563152
272.071232575566 0.684202

>collision 10.0
43.054972789338 2.75497
55.0526603615825 1.18362
57.0704722490217 3.67429
69.0699425754196 1.98024
71.085739758306 2.87389
71.1147551960327 0.551981
81.0665132263834 0.911422
83.0869442695392 2.70869
85.0641456026299 0.767547
85.1021134743495 1.53939
89.0577058681241 0.926852
97.0656799497358 2.26604
97.0999646640904 3.24348
99.0791578120203 0.590274
103.074952541868 4.29721
107.082359870163 0.557789
111.119673479162 0.600576
115.075636901387 1.20716
117.087320523038 1.47441
131.105155867083 2.10024
135.003050556265 0.60603
135.119736153313 1.31114
139.113071023497 0.727372
149.134715420768 0.848434
153.126629545822 1.99122
163.14855838359 0.528781
179.102945275364 0.73466
235.204376627868 1.16592
239.092314307319 0.581188
253.136356327263 0.938677
270.314311971972 1.89561
271.262678600592 100.0
271.409301317539 1.39498
271.484229097725 0.862618
271.523690338476 0.813642
271.561974644977 0.568077
271.626960467629 0.671714
271.713824863578 0.880625
271.809078619639 0.711354
271.88590974949 0.650067
272.023012354449 0.617638
272.242406833162 0.783454

>collision 20.0
29.0382166863321 2.83398
41.0391455146315 2.18779
43.0182260108753 4.05658
43.0557158620853 49.4008
43.0866742559282 3.50221
55.020869663078 2.2104
55.0549701975266 25.332
55.181898872058 2.12505
57.070796745182 100.0
59.0494170619585 6.13007
59.9938087724098 1.96624
67.0543362503377 3.16042
69.0712500730009 25.7762
69.0992195161396 2.50518
71.0490500498811 16.792
71.0858036317439 50.3376
74.0995829923105 1.91578
81.0724713671204 6.85996
83.0527608675327 1.90409
83.0852041985215 30.4548
85.1029796084394 18.1278
87.0794610361166 2.38184
89.0618134930214 8.80695
93.0706535176907 5.85412
95.082945776935 5.62598
97.0637208110502 5.43472
97.1003736791692 12.186
97.1333850499405 1.9901
99.0795935986808 4.5876
101.06259391503 2.24122
103.074074236831 44.3748
103.124976870621 2.66245
105.071289813141 1.92304
107.08439177492 7.63883
107.114563227865 2.06231
109.101396151267 5.881
111.079915116817 4.06071
111.114782288347 3.70925
113.064431689407 4.37606
115.073907210245 2.98403
117.089944521187 35.5595
121.099078765216 6.4398
123.111049499564 2.62871
125.093603360583 4.0574
131.099519883938 1.8373
135.118596617419 5.89701
139.104761463208 3.24249
145.118770973851 2.92449
149.125787673236 6.30994
157.139729838682 1.92938
163.152886415006 2.95848
167.070639037842 3.10067
173.154789388398 4.80182
199.078582147795 1.93633
205.080595266131 3.29533
270.316991792324 6.55127
271.151066102194 4.36317
271.262103088894 49.714

>collision 40.0
41.0406098154414 38.0426
43.017399599674 17.5064
43.0553060414279 100.0
43.2233439260651 3.82579
44.0229543353774 4.70753
45.0330344486689 7.80074
46.0661995073767 9.26951
51.0261690394984 3.09851
55.0554600777274 47.0519
57.0345635559581 8.02024
57.0701066084121 66.8994
58.0282165621337 3.60464
59.0136643662414 8.37817
59.0489018531664 8.17322
69.0330194506764 4.13606
69.0696609071903 14.4263
71.0470389609402 10.1631
73.0636822443631 3.75131
79.0548062435454 3.96279
83.086464383146 3.82723
85.0652437761965 4.95378
95.0826154568514 3.18389
97.062887871834 3.60706
103.074108827615 7.58538
109.100485461046 3.41056
123.078701034666 3.11606
152.114424403144 4.96957
247.141125155514 3.01684
253.608585676491 4.27719

