>compound (S)-Equol
>formula C15H14O3
>parentmass 243.102294310996
>charge 1

>ms1peaks
43.0191974810668 0.792599
107.049245418255 7.18294
123.043933170163 7.79684
133.064936851386 1.84515
164.969451443481 0.551767
165.167549672443 0.954028
170.520632179988 0.627158
205.772826734652 0.536527
242.130459309885 0.792708
242.284180112567 3.30514
243.101293113899 100.0
243.282951443689 1.06945
243.383059439047 0.786339
243.564703764825 1.0328
243.641088502924 0.590609
243.735311191138 0.693659
243.832285498588 0.795256
244.010091345489 0.71727

>collision 10.0
67.0559071346066 1.36079
84.9600837592047 0.973437
97.0653507352156 1.86569
99.077882849426 2.2534
105.068828987255 2.7659
107.049130978076 62.1714
107.144878561046 1.0432
107.358967797116 0.936266
121.102679153077 2.23823
123.043228106914 100.0
123.123150495989 1.82174
123.14710352127 1.35245
127.068874836253 0.952669
133.064577777319 51.6345
133.148127434928 1.0401
133.238815608544 0.950205
142.14756458337 1.20345
149.05824554111 7.16184
149.125895193263 1.28166
158.962990592763 0.884742
161.092531664245 0.905719
164.970107603297 1.08731
173.027355856409 1.12087
179.105358172095 1.47703
182.194821530936 1.22728
201.923627620755 1.35936
225.188767606829 1.05788
242.125017430129 0.974882
242.283228361935 12.0156
243.102294310996 55.493
243.186513230304 2.42494
243.292685551335 1.53595
243.601813473619 1.08697

>collision 20.0
41.0393510953765 1.13915
43.0188360347399 0.817898
55.0167510900278 2.29108
57.0294728458503 1.04393
57.0678340406311 1.25469
67.0519548138294 2.01329
77.0409157898329 1.06334
79.0518862947825 1.95696
91.0496269861472 1.1395
93.0717137677798 0.884536
97.0639648703443 1.26341
103.054730861246 1.27224
105.071380282225 14.2779
105.264414512941 0.827736
107.048167953646 41.6327
107.106587649036 1.67077
108.342925147974 0.923254
115.052821114266 1.2266
121.059630860685 1.54594
122.101738060267 0.84714
123.043064819481 64.4762
125.15558238955 1.1237
133.064109210405 100.0
133.16273852757 2.0814
133.216083709585 0.940892
133.325750021361 1.07372
135.080889100275 1.0646
137.060729815611 1.9825
142.16426387947 2.05039
149.058318546553 7.28489
151.077823795999 0.822528
167.07434505093 1.14192
242.284441421751 8.37332
243.296560453547 0.931792

>collision 40.0
39.7859557395647 2.53497
41.0385449309722 5.21985
55.0192078658211 9.75016
57.0715077906434 4.71327
58.0648926237988 11.6259
59.0500898012654 3.75999
64.9798493634298 2.77972
67.053347285762 14.5557
77.03928358659 43.5236
77.1736687250797 2.7424
78.1513586638395 3.09324
79.0558103889979 31.0714
79.6855351620222 3.43665
79.7255257499779 2.90336
81.0726320159294 7.50657
82.8539778562336 5.13528
90.046128371968 2.61887
91.0517847455898 2.53291
93.0368778040409 3.50337
94.0374930583897 3.83679
95.04996567475 14.8112
103.052114894003 29.4985
105.069580158956 100.0
107.048091124576 83.1643
107.096951934156 3.02762
115.051623494873 19.6628
123.042857905777 38.2524
130.157566009062 3.42924
131.082142956641 3.02417
132.055674394896 5.62068
133.062633890326 14.9881
142.159775181157 4.5284
214.064627002054 2.71294
221.136971125832 2.61203

