>compound Orphenadrine
>formula C18H23NO
>parentmass 270.187137534418
>charge 1

>ms1peaks
166.078030640739 0.686565
181.101966256241 52.5202
181.272110815278 2.50348
270.187137534418 100.0
270.392007344975 8.21222

>collision 10.0
165.069641840906 0.733736
166.076935009239 2.17267
181.102964305682 100.0
181.270163030309 9.96123
270.184812330779 2.58716

>collision 20.0
141.070119720668 0.513137
153.069805407783 1.27388
165.070051645091 3.56504
166.077943369464 18.5771
166.237221967577 0.684865
179.085603692285 1.89036
181.103065394529 100.0
181.271402487698 9.29183

>collision 40.0
77.0395162335825 0.80592
103.055294340981 2.73748
115.054676018303 2.55319
141.070399113708 10.7894
152.062524368263 1.53311
153.070307933536 5.84106
165.07076539366 77.7197
165.233468450962 4.00427
166.078884307511 100.0
166.23741167081 7.08418
178.078084529132 3.92053
179.085846576707 9.57595
180.093420426727 1.2433
181.101785627183 9.7131

