>compound Manumycin A
>formula C31H38N2O7
>parentmass 551.274308314722
>charge 1

>ms1peaks
109.062620531471 0.590191
175.150299935011 1.04085
193.158668346939 27.9584
533.266191439272 5.20486
550.360091762522 1.86381
550.625995876142 7.04413
551.274039930943 100.0
551.484310013083 2.00174
551.617943834364 2.2054
551.801227685502 0.93334
551.894047742906 0.72356
551.980198372742 0.768083
552.101410348585 0.813704
552.207691810187 0.722841

>collision 10.0
55.0551618680906 0.785124
83.0867774213442 5.9149
105.069916372158 0.573641
107.085390975958 0.735924
109.064914909663 3.2424
109.098062988545 2.85863
111.08048201992 2.85501
119.083655540573 0.613091
121.104039855653 1.04917
123.080940691404 4.92785
133.098171325828 0.878443
135.116095627045 2.66946
137.094852852638 2.12382
137.120777009105 0.863304
151.112209464207 0.686073
165.16422422982 5.24311
175.147654587047 5.45564
193.157564260755 100.0
193.285836013388 1.1977
193.358776557313 0.703463
193.420169892694 0.567496
193.453472450699 0.787875
193.498072623108 0.588202
193.601122396738 0.655777
193.660685410611 0.635701
193.701332731648 0.584676
193.78083340615 0.61341
194.008776290561 0.517682
227.126579768757 0.539198
228.066887228676 0.579036
323.097028598247 0.618419
438.230290710729 0.758467
533.268313309066 4.74623
550.34670343076 1.23582
550.629068746577 8.99558
551.274308314722 22.2042
551.633294136527 2.94372
551.805090293074 0.501299

>collision 20.0
36.0431101027308 0.6732
43.0204678832446 3.672
43.0568639998787 1.83737
55.0551419237821 8.79117
57.0725727269775 1.19409
59.0493134997539 1.50725
69.074127626197 1.04251
71.0856079649314 1.05773
73.0628448812005 0.723207
83.0862212653067 37.9387
83.1504988244682 0.883427
83.1703942309466 1.01302
85.1030342443889 3.04372
93.0764200935318 1.23642
95.0477957118857 0.740016
95.0838929280864 9.95573
97.0641043708159 0.714732
99.0524904608374 2.22394
100.073365893962 0.676238
101.058268534531 1.27234
105.068495561454 2.49982
107.08215903395 6.30227
109.064066069082 20.3407
109.099892879662 9.84785
111.040246352915 0.89858
111.08004382872 13.9388
113.089271166999 1.74306
119.087152971169 2.57789
121.047540586131 1.46578
121.101332080519 4.44618
123.080092972322 46.3721
123.183086272597 0.809333
124.085998499649 1.06167
125.056452627203 1.64291
125.091497321162 2.06134
126.094164740838 1.91428
133.099649874929 5.19454
135.116242812161 8.79816
137.095201412856 11.5024
137.128983676677 2.73461
137.165951740243 0.674239
151.109125322959 4.91384
151.146783909683 1.85211
157.05697942577 1.05008
165.162721600222 24.7023
169.085322575835 1.33409
171.035460895369 0.700725
175.147572419271 26.6412
175.253588321758 0.824341
179.397830441094 0.811989
191.101397426282 0.964168
193.157541472792 100.0
193.252848385515 1.83248
193.286990827071 1.3575
193.339044299851 0.961264
193.370411056619 1.09258
193.423081682055 1.09258
193.603172349388 0.69076
193.650589921252 0.723687
193.760017959563 0.756825
193.967399559815 1.22249
197.072193099927 1.02563
205.126989932439 0.706117
219.088569185231 0.719109
225.110589150296 0.982562
228.063095457087 1.01274
245.133539114129 0.85355
253.137751610355 0.757605
265.095712602924 0.925956
273.13780328677 0.991067
274.132950558737 0.770539
275.13829597137 1.06383
295.161362590123 0.786305
297.185743758217 1.03342
306.175200867081 0.701775
309.14985523734 1.51625
321.111759730051 0.756496
325.108506330196 0.82406
327.121655094395 0.882997
335.140414983269 0.963015
337.125306869572 0.699929
343.173599291461 0.808932
351.183812505676 1.04911
399.321150408748 1.07806
437.161719935457 0.877505
438.212288385975 0.815586
449.999178160689 0.698515
463.148410580927 0.692288
477.322795697037 0.674239
491.27248760249 1.64863
505.259090929388 0.708679
533.257430411384 0.752687
550.389005833593 2.43763
550.623684117197 21.8664
551.294261598859 4.88581
551.473247762335 0.846052
551.629934648997 10.0881
551.790990205981 0.819963

>collision 40.0
41.0388383084096 2.13705
43.0174990847151 9.64982
43.0548035664531 14.1868
45.0329773504836 4.18779
55.0547675760844 69.5339
55.0928805592141 2.49573
57.0702342945857 17.2107
67.055051732444 6.59586
69.0329033700997 4.23248
69.0706184082267 15.0255
71.005157276773 2.05459
71.0867994844102 4.20802
77.0385663237727 2.55043
81.0697322926772 16.0605
83.0859921379448 100.0
85.0300450919943 2.36529
85.0621414143 3.56513
85.0999126986152 3.5036
91.0527880931123 3.21791
93.0687463248946 4.43913
95.084949320814 15.2258
97.0660148566597 5.01966
99.0428459867236 2.90768
102.129321555122 2.17019
105.070495837753 1.59909
107.084711753881 7.18789
109.064926701701 78.8312
109.099515094392 37.3969
109.455197865288 1.67112
111.080114640084 36.4798
113.058198603684 2.10822
115.068501867826 1.72524
119.086465651175 8.71893
121.099280091797 19.3559
123.080248391787 55.2529
123.113547970601 21.3798
123.218133179293 1.6676
124.033509348849 1.86393
124.087121614191 3.74877
125.098332658164 7.30753
127.073398284044 1.75118
131.162073086266 2.01503
133.100544399568 10.5403
135.116780163532 5.15772
137.097114161546 12.4131
138.092108047547 2.79509
139.054467898441 3.78426
141.08759676438 3.0179
149.131165669416 3.8691
151.107752728206 7.26173
151.143249394676 4.0692
153.045333542365 1.58965
161.094520066897 2.94569
164.109184235286 1.98269
165.161509046303 11.7872
169.086386321572 1.55433
173.137449057127 2.37567
175.147269218989 12.7013
177.127784868228 1.76869
181.082234411383 2.39968
183.043723856791 3.10489
193.081095895488 2.9994
193.152430009489 6.9739
194.052907130296 1.55897
195.087805736876 2.7824
207.105336709528 2.7702
217.937132788691 1.76869
229.794450754269 2.20449
267.126520322741 1.71374
298.349831454466 5.7427
309.154795543566 2.8394
317.151986972833 3.15666
335.221370059066 2.17068
376.30132649548 1.83871
395.205102347401 2.03364
550.626793523312 36.166
551.334695084769 5.30993
551.404968640798 1.55338
551.632531170528 9.6097

