>compound Isoxanthopterin
>formula C6H5N5O2
>parentmass 180.050212572366
>charge 1

>ms1peaks
80.049036617017 0.962132
135.027030460459 0.639306
138.906953468365 3.06461
152.0599587392 0.540908
159.512057999137 1.00576
163.131949418806 0.688946
172.940759768968 0.699188
179.125164882445 0.573811
179.929245009525 0.730723
180.050586173018 100.0
180.167526861676 0.846922
180.568884289517 1.08558
180.61836779032 0.572604
180.669102671061 0.561712
180.753456197669 0.714175
180.916090431718 0.87771

>collision 10.0
57.0683795226105 0.848559
80.9465781528568 4.84006
83.0232229071489 0.662804
96.9615063993751 1.19325
97.9403346283709 0.663028
98.964920711471 1.44968
135.029210708745 3.39983
152.057959405802 3.53421
161.056340939041 1.00711
163.023320056054 6.84096
179.107270756386 0.648104
180.050212572366 100.0
180.137617623994 0.995559
180.316519914097 0.68366

>collision 20.0
43.0296241232835 2.62106
55.0306425633601 3.48719
55.9392460224692 3.12163
59.0507351664909 4.22064
67.0279516767401 2.7986
68.0219917507275 2.53586
78.9806532227528 3.39855
80.0194854236741 2.7986
80.947812442324 16.6381
82.0395219759316 2.29606
108.019831403231 4.40146
108.497031551838 3.25814
109.053757684835 4.35254
110.033507015943 53.5301
112.051364799582 4.68692
125.047961410122 3.1954
134.04660872825 6.48991
135.028806403057 100.0
138.02888104618 3.05256
152.05581043124 40.6615
162.043575633507 2.19969
163.024040601578 75.7378
180.050186851768 71.1454
180.585394666422 2.08696

>collision 40.0
38.0012962923115 9.21671
43.0293402076408 45.3938
53.0129518570769 71.8669
55.0292159433462 100.0
55.9368689148607 7.59322
56.6583883447232 9.13151
65.0136943060208 31.5414
67.0296001471337 11.7181
67.0583135421334 16.7331
68.0240926098449 49.8957
69.0070919495891 10.5098
77.0342245316341 16.4954
80.0243391313823 46.6386
82.040878257138 24.9778
83.0274309447594 6.66427
92.0197926668745 16.2366
93.0079348440077 32.5663
96.8954149529103 9.24865
107.031216542136 7.12874
108.016719581969 14.9403
110.03500713019 73.6964
134.047284359256 19.9497
135.025719706785 40.2215
136.084489854023 6.48828

