>compound E-64
>formula C15H27N5O5
>parentmass 358.209460341926
>charge 1

>ms1peaks
358.209616419912 100.0
358.380426869292 2.21607
358.441815096789 1.0779
358.568097368361 0.583548
358.611827177024 0.543769

>collision 10.0
72.081076398862 0.87321
114.102328572069 3.12474
200.091507932636 0.792206
299.160024379336 0.654362
330.214930593848 0.732438
341.182051077505 0.957546
358.209460341926 100.0
358.380360162374 2.30526
358.436779492147 1.13888
358.519096539136 0.564109
358.566104477953 0.514057
358.620907095651 0.552608
358.760537800713 0.515597

>collision 20.0
69.0706308350624 1.37898
72.081101437273 13.3928
86.0963402567137 2.62131
89.1067635118803 0.619101
97.0758170012213 2.09268
114.102314221828 32.0109
114.201611230113 0.529503
115.086393764055 1.83211
131.128769614427 0.814463
132.028405808727 2.64558
141.111983395826 0.529278
144.029233249964 1.06243
156.109270101215 0.651868
172.096122583608 1.22273
200.091142882442 14.05
218.101618392254 0.824992
244.212931596427 2.21999
270.189788409406 0.730112
296.158977586856 0.613949
298.176359406132 2.04658
299.159953372728 7.4552
313.189861218909 0.569232
316.187184678939 2.45164
324.155511148818 0.75766
330.213080331297 5.36087
341.181800854853 4.65995
358.20939092543 100.0
358.380288215622 1.80859
358.435488700604 0.857348
358.527600811321 0.570446
358.666674033809 0.542166

>collision 40.0
30.0341081760761 3.24907
41.0394517501155 4.67573
42.0345158836334 2.43348
43.0188070828101 9.27211
43.0545143020492 2.27856
44.0499761956133 5.20496
55.0219996671476 3.63399
55.0546388899741 4.74799
57.0344703041434 1.73211
57.0703480337678 0.988524
60.0556611305739 4.44588
61.0289082185765 0.915607
68.996403813567 1.24789
69.0703262720024 39.39
69.1463254289697 0.712915
70.0287948658293 3.9602
70.0650469935281 1.65345
71.013167240463 19.2312
72.0811811673638 100.0
72.158656503618 1.79678
72.1822239963918 0.833766
73.0630217971848 1.67825
82.066956867858 0.689772
84.0446184579902 1.83349
84.0813962945665 4.46526
86.0242587633645 5.3993
86.0964479250224 29.4154
87.007859535082 1.91013
88.039430408568 5.27491
89.0234856839416 17.1234
89.10864187329 0.914881
97.0759317773328 15.745
98.022358635309 0.804593
98.0593908082197 1.16076
98.0964844446341 0.89367
99.0921778289038 1.88521
101.023372714973 6.14333
104.036000840263 2.125
112.039417433944 0.719529
112.076540945467 1.76434
114.018489924715 1.0757
114.102433090617 28.564
115.001980233911 0.972154
115.085595581877 1.01494
116.033319628515 1.45781
126.091730770522 2.04389
132.028572825261 29.5337
140.033125058785 1.64032
140.142240665017 0.769301
141.106364021343 1.86595
144.02920768209 18.843
144.098313467787 0.774209
156.109345945017 1.03827
157.097893231228 0.893865
158.043981612308 4.73626
172.096300544155 6.60113
182.080559445875 1.25659
200.091251719572 24.7781
211.145340682323 1.0356

