>compound Montelukast (sodium salt)
>formula C35H36ClNO3S
>parentmass 586.217940670483
>charge 1

>ms1peaks
422.166506903275 0.769949
568.206162788781 4.36547
586.217001176579 100.0
586.433223104705 3.88567
586.516691376367 1.69703
586.671830064565 0.766591
586.731848607645 0.786814
586.873847608463 0.660867
587.015654123928 0.566315
587.113002537536 0.555264

>collision 10.0
278.073058049655 1.9146
292.087896791569 0.831374
422.166912529075 11.6088
440.177452559667 4.13159
456.154033239743 0.693303
524.21687648944 1.36906
568.207548952386 66.5354
568.419100868867 1.6947
568.497178722075 0.788361
569.20982188513 0.946379
586.217940670483 100.0
586.432639795785 2.97808
586.510626044883 1.36208
586.614108900902 0.75284
586.674695526705 0.648951
586.731726741222 0.73233
586.844333220946 0.612754
586.918225056915 0.581118
587.01796340856 0.541636
587.118064243363 0.517572

>collision 20.0
131.085477273583 2.60171
143.084871414098 1.65115
157.100683605378 2.53119
245.131465896948 0.619459
266.073131429607 0.577556
276.056731346899 0.508393
278.073078891038 20.8633
279.079006640709 0.543804
280.087550183038 1.73994
292.088309948783 8.2939
306.105364117226 0.782129
318.103218958012 1.07286
380.120202608193 2.04555
382.1351543074 0.852728
398.131729377891 0.605567
422.167567482791 100.0
422.349507462073 2.47328
422.414963186709 1.11977
422.602672060333 0.578972
422.655136787057 0.506662
423.170117350843 1.247
440.17751218801 20.855
456.153640871321 2.28731
524.216628376494 5.82782
568.207549666836 85.2992
568.419205880907 2.00081
568.496533545984 0.954739
568.655506636124 0.520941
568.728098216738 0.555018
569.207767233596 0.83623
586.217179473525 10.2096

>collision 40.0
59.0501759582871 1.10826
91.05453183464 4.72769
105.069921363135 3.86609
115.054149940759 1.04132
117.069590636982 3.05223
128.061453413713 0.708265
129.070005724834 4.36071
131.085293822146 33.9644
131.189474912 0.628507
133.10093890321 3.038
142.077677611805 1.43871
143.08515359691 6.99082
157.100688440199 12.216
164.025629080054 1.06915
177.033187151648 1.57777
242.096553873615 1.55954
243.10381351221 2.83137
245.132301953964 1.52748
262.040563054587 0.785533
263.050509234789 0.64843
264.056604526192 0.851714
266.072513371197 1.80401
276.057337044745 20.0428
277.064558713083 6.53803
278.073212634083 100.0
278.221927908087 2.24825
278.273250824216 0.993583
278.357397514652 0.541555
278.387137714134 0.515202
279.079957818872 4.777
280.088100295845 3.90452
292.088454786258 24.831
293.09699625639 0.516876
304.088635822721 0.707491
305.095788854161 1.45488
306.104206139916 1.91873
316.087150280736 0.663815
318.104255118861 3.24731
330.104242762002 0.569646
366.103524025717 0.511051
380.119697748572 6.77902
382.135873774125 3.43644
398.129978782379 3.05442
422.167098702947 69.1689
422.349744544988 1.33309
422.414608386359 0.692664
423.171989399259 0.706883
440.177383784976 11.2913
456.154191386869 2.5929

