>compound 5,6,7,8-tetrahydro-2-Naphthoic Acid
>formula C11H12O2
>parentmass 177.090462694289
>charge 1

>ms1peaks
48.939816135154 0.963753
91.0552588402059 6.90455
91.0897779429699 0.748428
99.0412038655206 0.769621
111.97422658999 1.47599
129.463192101138 0.783536
131.092396056712 0.86061
133.097475054026 3.43692
133.125629481621 1.00391
135.046592577826 0.911933
136.074763223114 2.58832
141.093136894662 0.947479
142.093099954088 1.00339
149.018410382135 0.732051
158.963932612376 2.31236
159.094455390765 2.28609
159.147524384219 0.728635
168.492401715207 1.00229
176.133819555835 2.27714
176.9101108632 1.13887
177.090797048386 100.0
177.205136799794 1.54546
177.248485231987 0.821371
177.456875185138 1.30863
177.521176886472 0.840208
177.567177173795 0.911174
177.758167133147 0.984417
177.934927690648 1.02036

>collision 10.0
43.0187920841835 1.62289
59.053788828683 1.18645
91.0538177707923 100.0
91.1021955493972 3.48858
91.131955655937 1.96373
91.1658282418088 1.20482
93.779280423794 1.40358
95.3819054760665 1.43783
98.0712680023149 2.46364
99.084553621032 1.77334
123.08085355926 1.29191
132.062636298697 1.21378
133.099747411188 16.0485
135.046604899343 1.88108
136.068310584449 1.98979
141.084669562882 3.38352
141.983215419772 1.35846
144.031375006298 1.74738
149.02257802926 2.7572
159.087225318476 3.46686
177.090462694289 60.5983
177.20563816654 1.21483
177.422938798345 1.7152
177.518971944557 1.74211

>collision 20.0
31.0153523858464 1.19043
55.0516602130456 1.45791
72.9376725876293 0.959688
76.0569753700872 0.944058
81.0661885908345 0.823579
85.0610517087564 0.938667
87.040299611068 1.24498
91.0541297438311 100.0
91.1190689759418 2.12118
91.1438713141724 1.36832
91.385146073587 0.899047
94.0394416933292 1.36789
100.085736692226 1.20639
105.067883451943 0.947419
110.640796953349 0.81969
113.959438289277 0.960842
114.065174618758 1.15267
121.030181667632 2.08981
129.066581284401 1.0004
131.086471090252 3.0056
133.093211545296 2.88636
135.041441655101 6.90764
149.024590438489 3.82389
159.076888898336 4.47617
177.087453139215 1.62514

>collision 40.0
32.1714756739761 1.33059
39.025017449883 2.15093
43.016082552464 2.85781
46.5338874181933 1.4639
51.0257997057735 1.66443
55.0563529211608 3.24285
58.0388170908735 1.32031
65.0387564564226 19.0271
65.0732501883302 1.67495
70.9414433340146 1.1472
72.0458453588109 1.2068
72.9338552490048 1.7847
77.0380583442642 16.5111
79.0556638211255 7.23057
91.0540521321152 100.0
91.1413368699752 1.63456
92.0537362300731 1.89831
92.0834584621126 1.45268
93.0338485235796 2.23796
96.0497307109575 3.89207
107.051568309984 11.3893
116.058595336283 2.69564
128.059325141054 3.39802

