>compound (&#38;plusmn;)12-HETE
>formula C20H32O3
>parentmass 303.231414101261
>charge -1

>ms1peaks
41.0420773192904 0.838329
79.0526825176505 0.612691
81.0739357610624 0.644541
93.0686512194453 0.884328
105.067052686756 1.42718
119.083532409459 0.763786
133.098254853444 0.597278
137.130930999848 1.05835
161.131896274647 0.718969
167.104141387689 1.20816
173.130238416192 0.592495
175.14280266924 0.689739
179.108234407588 0.574958
189.157414494206 0.615303
193.112675410973 0.684852
197.13490754003 1.09884
201.132702998915 1.584
205.122424881776 1.37638
225.008022548164 0.66658
225.196324578647 2.52143
233.1525998373 0.69006
239.173694012837 0.610335
257.007746782282 0.51573
257.203193826903 0.587323
262.057659994337 0.74557
267.207587179048 2.68373
285.220354619096 4.8243
302.301523844895 3.24278
303.231261994057 100.0
303.39214986059 1.52119
303.442393155532 0.870051
303.483747323544 0.868267
303.55155343993 0.566176
303.628263835814 0.85757
303.766849836781 0.583091
303.845601245178 0.680128
303.991838342823 0.509543
304.137342931522 0.707539
304.211228009458 0.652615
305.21122800946 1.0e-13

>collision 10.0
38.7242915082272 0.707606
43.0179109978151 0.759893
43.0554600617446 3.75706
55.0542185948129 3.00729
57.0705937728115 1.40431
67.0548867863332 7.33739
69.0691374173226 6.98659
71.0492312114597 0.762293
71.0857066322642 1.96504
79.054420745059 4.70986
81.0703362079544 11.1846
83.0522290084844 1.01213
83.0823367046984 1.05933
85.0273809883273 0.587873
85.1018247903196 0.965196
91.0563818973225 3.67592
93.0718394269774 4.73181
95.085310892638 10.6918
97.0637028658558 1.51632
97.1010903985308 1.4408
101.062573255651 2.07905
105.069375026896 10.288
107.04779263496 0.636553
107.084118001627 6.43103
109.099070290143 2.51287
117.070904263219 2.78542
119.085011612487 9.38521
119.131692981946 0.851917
121.099338228639 4.01594
122.077886529396 0.591521
123.081871408301 2.25106
123.11241216929 2.08213
129.069710087864 1.76953
131.084782653516 13.6894
133.101012401299 5.2281
135.114504183975 4.63322
137.130240060105 2.90051
141.073151618507 1.9061
143.085330492915 1.94025
145.100958672101 6.38148
147.074878700146 1.08381
147.114272247434 2.16749
149.111579244542 3.66328
151.136605969885 0.665449
153.090780950557 0.837739
155.091301369354 1.00006
157.101084358067 5.05633
159.113192055561 2.01776
161.131636857587 7.00461
163.147739283289 1.61377
167.108186115077 2.63534
169.100996495591 2.44416
171.115666914509 2.92464
173.128204389876 3.19923
175.147169302598 5.59189
177.159607303389 0.851909
179.108349555863 1.43021
181.125437611444 0.788463
183.11446039686 7.90887
185.127835810753 1.81516
187.127031517536 3.05707
189.161839489082 3.77559
191.105173856447 4.72551
193.122022786713 3.01338
197.134335960148 2.48695
199.154170955906 0.982564
201.151307586922 10.6606
203.175645446737 2.28246
205.126787143035 2.24553
211.14434878654 2.17019
215.142196888772 4.71919
217.178812177647 0.991625
219.13732602887 6.77227
219.210007746409 0.574729
221.152477493073 1.38281
223.113333420124 0.527634
223.167408839336 0.61682
225.188900930581 3.78852
229.161888126863 1.31474
231.173463877881 0.654827
233.154430629903 6.49812
237.184983416179 0.856732
239.181523053143 2.08942
241.192889873346 3.88512
243.209627146753 2.00684
247.170714939488 1.68166
255.209183091032 0.666659
257.216931903609 2.28119
261.182518659476 0.685887
267.212164436643 8.0604
283.205977684643 0.547981
285.219230939994 13.1304
302.302541522744 4.84113
303.231414101261 100.0
303.393454931655 1.29931
303.464297657764 0.731196
303.574988198346 0.636846
303.636193826342 0.593047
303.711495138223 0.571295
303.759222671942 0.982525
303.925206487514 0.942733
304.070829646403 0.603243
305.0708296464 1.0e-13

>collision 20.0
39.0236771319788 1.12627
41.0394108758518 11.5804
43.0188319020433 8.2963
43.0552340854738 17.5025
44.1324341762765 0.75555
45.0340823919425 1.00584
51.022553457262 1.01422
55.0182200396909 4.23046
55.055299322649 43.4483
55.0961857178057 0.935789
55.1190331495685 0.948532
55.1427444306256 0.748583
57.0311366461048 1.2226
57.0705753938438 15.0321
58.0650267655505 0.965012
59.0519359339572 2.16044
60.0525378544932 1.16023
65.0386917297504 1.72965
67.05434793087 82.687
67.1294938483594 2.51259
67.1500265892377 0.884205
67.2145002407398 0.806292
67.455983310111 0.925357
68.484253660579 0.807948
69.0337712184797 1.48136
69.0706256690726 75.1458
69.145558333542 1.66782
69.2347428453973 0.86206
70.5286977032088 1.0121
71.0482510221327 6.53324
71.0865117126356 10.4165
73.0656650652674 5.0981
74.096282659981 1.70663
77.0389735347382 7.83885
79.0548405174103 64.0943
79.1353050920758 1.42614
79.1636146985272 0.833523
79.1957363598403 0.76916
79.4713102907239 0.771416
79.6198809080206 0.817149
80.0609607298944 0.774888
81.0698493820392 82.3122
82.9451264178766 0.805609
83.047231386313 7.74359
83.0856502488328 5.18286
84.0802958457509 1.1228
85.0273968359829 3.96878
85.0663444060622 8.60846
85.1000463341628 3.89782
87.0464526299528 2.89642
91.0543542064109 100.0
91.1385196921822 2.73241
91.1617650211261 1.22823
91.2596322226567 0.842256
91.3968392428148 1.3849
93.070475366094 57.9401
93.160516239454 0.833146
95.085802426378 54.7157
95.1746417862949 0.938725
95.208008711904 0.9223
95.6995635639132 0.752485
97.0634950409024 3.94483
97.1023836495239 2.8445
99.0440481500923 1.76827
101.059852030539 4.25142
102.091421830968 1.03274
103.054519736178 2.32357
104.072959654615 1.22494
105.031157663969 1.2981
105.069704101007 97.6421
105.165711452168 1.19023
105.230963896219 1.20075
105.275893191303 1.02525
105.477856826651 1.82478
105.602216459301 1.43724
106.044499574586 0.920031
106.084842483177 2.68317
107.085119755054 39.9347
107.155431450657 1.10643
109.100901090999 15.0974
111.11482051931 2.25306
115.050542266097 0.84066
116.052908324863 1.90881
117.069187310065 52.0967
117.222175396241 0.866828
119.085731162647 83.7529
119.17970187543 1.06857
119.279942622062 0.898841
119.372838334899 0.84228
121.065395472024 9.25787
121.100308866707 29.2682
121.159599610354 1.17099
123.026906596587 1.35883
123.080643662681 7.61691
123.11696607206 3.54403
125.060847410443 1.53531
127.077209429031 1.96925
128.063421271124 2.14555
129.069245301313 30.4533
131.085380497764 92.0135
131.186023115048 1.19026
131.218287588809 0.85882
131.256504057243 0.870949
131.348745996013 1.93867
131.460131724489 0.963186
133.101020810538 45.6582
133.19396586985 0.872041
133.247947748818 0.748635
135.081278367168 8.44803
135.114583160142 4.96158
137.060499608043 0.943152
137.088493932119 0.877479
137.128969103296 2.57786
141.069292866611 17.1412
142.078492924495 0.774732
142.2837011535 0.807163
143.083802318586 15.3996
145.100781695083 55.8479
145.209406724447 0.942684
146.105008266796 0.903483
147.110238602994 12.7064
148.071904155237 1.32982
149.095407735211 13.1936
149.887946327897 0.784471
151.069594308235 3.05061
153.125483521266 1.49842
154.082940235921 0.882604
155.085593198011 17.2443
157.100688920612 32.5999
158.318936557898 0.772217
159.115694984838 28.705
160.069049217847 0.768494
161.12763356678 22.2828
161.190837478747 1.22168
161.648552334981 0.872883
163.106170063163 2.15297
163.147643574385 2.83545
165.091909412399 4.03912
167.107731958536 0.998131
169.049650425229 0.792764
169.101275714775 16.2993
171.115840096213 11.1749
173.115515778462 9.93893
175.14422943573 16.1651
177.090289847942 2.74563
177.163831820176 2.87308
179.107010652778 2.40041
181.107570302808 4.01479
182.101875658179 1.10469
183.116362428967 18.6946
185.129961273434 2.99325
187.115275459721 13.1798
188.117687712827 1.31817
189.160871254792 8.69029
191.105497213 8.03475
191.169003179844 1.47301
193.135701360195 1.31027
195.131255531529 1.19356
197.13136141683 8.91239
197.189746507647 0.851846
198.130584583617 0.907056
199.14043637838 2.60258
200.120257783158 1.22766
201.136441024408 12.839
201.578903993457 0.89824
202.167304456594 0.85252
203.173065827883 3.19225
205.120471115023 3.48334
205.155987353693 1.57148
205.186384027734 0.851456
211.150790358479 2.4859
213.158716916973 4.43905
215.156879095603 5.60464
215.459688474732 0.783955
217.173241330338 2.22307
218.129518499846 1.77179
219.138927759752 7.05265
219.197610862269 1.70946
221.150859529252 1.35877
225.198106335311 12.183
229.1587311794 1.469
231.167423280741 0.78231
233.154105836852 5.11433
237.188185742953 2.17225
237.226265039313 0.870785
241.197681759594 8.77889
243.208990424627 6.04535
247.16360719074 3.03234
249.18641030058 0.831028
255.206826382095 0.748644
257.133747923569 3.82678
257.202850978228 3.39685
261.181025322447 0.969662
267.207074463473 5.84409
269.601295496968 1.63638
275.19951786998 1.74149
284.297041692505 1.29772
285.219390914364 9.30819
289.884804806266 0.759016
302.161735606658 1.54213
302.207470372294 1.55321
302.304568626306 11.5976
303.131448422257 2.2955
303.230632516772 28.85
303.560424349184 0.959726
303.652656882686 0.81957
304.65265688269 1.0e-13

>collision 40.0
39.0255079948086 1.21145
41.0394455938026 30.7564
41.0922713454108 0.613089
43.0187526680856 5.19457
43.0548664847577 11.768
45.0356673895075 0.97323
51.024726160996 0.69971
53.037946139812 6.04842
55.0185721796591 3.81542
55.0550459485983 39.421
55.1229452498348 0.929764
57.0338781490175 2.27143
57.0713900526795 2.79282
59.0496147733085 1.35679
61.0433264267654 0.650187
65.0387678678557 6.42126
67.055006182275 52.3682
67.1294849670009 0.981292
67.1629661705744 0.576978
69.0705293889585 21.4044
69.1487444968753 0.554297
70.0640877715662 0.655784
71.0509064336687 3.24726
73.0659194210003 0.576773
77.0392632565664 22.7014
78.0479270859947 1.02285
79.0545584250489 49.1962
81.0701983011657 29.5153
81.1530027865985 0.573045
83.0493120969901 0.641392
83.0873267135517 0.631935
85.065387522803 1.43337
87.0435261583809 0.784646
88.0184075195064 0.5066
88.0796861054284 0.515923
91.0544524768792 100.0
91.1403437907067 1.56822
91.1793505099204 0.838725
91.2470766915927 0.606229
91.419654012641 0.636441
91.6973892692867 0.574548
92.0600787326464 0.704584
93.0704192967188 21.1108
93.1572339883295 0.579191
95.0847749760506 10.2565
100.107988201415 0.531844
101.97964099342 0.674622
103.053916026048 8.71306
104.06045618393 1.04241
105.070321784956 50.5513
105.152789374473 0.91567
105.24871763056 0.52199
106.08292296663 0.815336
107.085186265234 5.38555
107.134441746211 0.507322
115.055288734054 7.75587
116.061403828412 4.34569
117.069482407334 25.4961
118.077889822276 0.983731
119.084880170615 15.3554
121.062086846431 2.09236
121.099017146842 0.744439
127.053398542016 0.882253
128.061450729855 6.29115
129.069663886468 10.5352
130.077044175923 2.8123
131.085911004372 20.5931
133.100961498658 6.44191
135.077301045083 0.986285
141.068308035526 4.57931
142.076469880825 2.03649
143.086024423395 5.31536
144.089839892533 0.865185
145.100109508837 9.53151
147.079350189601 0.859755
149.09657000002 0.574724
153.067523492422 1.33049
154.076423084605 0.562425
155.083355560288 2.67432
157.101478592592 2.54502
158.10419915835 0.663951
159.113615375322 1.92858
167.084269638106 0.997295
168.086146195067 0.908356
169.099681293286 0.932589
171.115198832392 0.74706
173.129761313386 0.986415
182.104262071235 0.626856
183.10426207124 1.0e-13

