>compound 19(R)-HETE
>formula C20H32O3
>parentmass 321.24140189572
>charge 1

>ms1peaks
67.0535168167798 0.666401
81.0704330444916 1.57503
83.085932315945 0.599014
85.0657877989907 0.708746
93.0691678877279 1.14465
95.0867548066852 1.25721
99.0803973203198 3.53941
105.070000316435 0.749668
109.098361355953 1.10654
111.080145804446 0.500336
113.095792990858 1.44303
119.087073327598 0.576229
121.101109609574 2.05547
125.097792890747 0.532175
131.08458785964 0.739133
133.101713861888 0.728815
135.118449601866 2.60627
137.131023143927 0.57473
145.098961276711 1.12925
147.115942170466 1.14901
149.129285168848 2.24508
159.116028371438 1.23433
161.131504302085 1.81486
167.105095009515 1.39249
171.116391317595 1.17071
173.134303670017 0.72254
175.145348680807 1.17264
179.106124703037 0.52335
181.120913533869 0.72091
185.129868414605 1.13688
187.146862265639 0.989853
189.15334009249 1.28178
193.117759608964 1.03451
201.163487536788 1.13723
203.14165171689 0.891915
207.138273844283 3.12814
211.156820353539 0.64342
219.171964313965 0.790708
221.15328847144 3.86381
233.153320251993 0.694202
261.181241735519 0.808684
267.21004880886 2.80735
285.22080421193 10.6983
303.231509878246 34.8937
320.206537383305 0.710492
321.24234059243 100.0
321.404906609812 1.34344
321.477664080644 0.611187
321.573491715259 0.577746
321.629480563317 0.569513
321.897530742026 0.612028
322.017914246792 0.51998
322.241607516423 0.579436

>collision 10.0
43.0179614685792 5.20633
43.0558120142162 1.29149
45.0372378890213 0.681889
46.1804069660143 0.638809
55.0192675173144 1.47738
55.0551631198046 3.79332
57.0339478200148 1.89908
57.0687418364419 2.50344
65.040279781049 0.800554
67.0543584702207 8.77819
69.06999065872 11.3209
71.0477098927587 1.73723
71.085505168852 1.05011
79.053902248486 6.92688
81.0705842183925 37.7162
83.0484730688559 5.39059
83.0848551247845 10.4476
85.0644300226919 14.8305
85.273805580557 0.555553
91.0536747490601 13.7237
91.0998368660006 0.72944
92.4863759943245 0.799486
93.0701535038846 20.3413
93.1291594786319 0.845744
95.0859598735931 36.4883
95.1540003247221 0.621853
95.1775884734254 0.736727
97.0656522772206 5.46398
97.1017114702428 3.22908
97.5916655745912 0.501984
99.0808334578319 36.254
99.1659634492623 0.697833
100.084383505934 0.665087
101.059584568532 2.08852
105.069661743162 12.6165
107.046781053765 0.674722
107.086933238016 17.6185
107.141467483551 0.543899
107.793623845035 0.565037
109.101590580288 19.4533
111.080780484704 4.0775
111.113081253749 2.34745
113.095620520421 8.70547
115.076309359752 0.561319
117.070111844504 7.27902
119.085647287088 16.1383
121.100086657998 28.7593
121.200111082677 0.576358
123.11635166302 9.89037
125.055113403924 0.561888
125.095450181445 5.49419
125.12663500143 1.29591
127.076178858503 0.919154
129.069211250371 5.97279
131.084874943484 19.8058
133.10027896098 16.1628
135.116766214359 32.711
137.098158435743 3.23325
137.128497920108 1.41103
139.109931005233 8.60293
143.085562721971 3.09534
145.10008517757 15.1239
147.115819300724 17.1385
147.203543083186 0.556871
148.004130997604 0.890096
149.122578522228 24.637
149.241301166937 0.550363
151.111606971632 1.28869
151.145427203065 0.96188
153.087982171742 3.19057
153.122855587225 2.51731
155.086345473464 1.72247
157.100973380004 3.97984
157.144960406386 0.645257
158.102300322975 0.79027
159.075221684486 0.646273
159.116281088775 14.1121
159.643541610942 0.575427
161.129743585789 25.3261
161.192588849364 0.824715
161.381538026086 0.52548
163.144231061194 7.39741
165.090104750755 1.94074
165.127120922163 2.36747
167.104900302008 10.1653
167.522896838754 0.583791
169.100419095449 4.48161
170.537744157414 0.506175
171.116098605854 14.3119
173.131555490069 17.7002
173.20403757548 0.546254
175.1462987742 23.2126
177.125449541587 4.09145
177.159054129329 1.23516
179.129400642559 1.27407
181.12113564181 4.97012
181.628402517352 0.834391
183.116538019127 5.50177
183.630837234689 0.538803
185.131433741532 14.4263
187.14772696059 11.4914
187.851397965395 0.575549
189.146749049134 9.88849
191.133782212275 3.68626
193.121134968457 8.24289
193.803953509617 0.660329
195.14142462648 2.86453
197.130222134644 9.64892
199.150071056886 4.29031
201.161410129574 12.0177
203.151161419589 6.78141
205.160005854894 2.21214
207.138252412461 19.0986
209.151652217285 3.27694
211.146090109408 8.08299
212.1557447333 0.570249
213.161592507298 2.71369
215.14287076279 6.57154
217.160862979842 1.62003
219.152058777029 5.89303
221.15314372822 19.783
221.272201348712 1.03848
221.60828400816 0.579257
223.184134545192 0.893325
225.160806337659 5.14803
227.180005730499 4.20731
229.161194691935 4.207
231.177067580095 1.62035
233.154339408854 8.19175
235.169698066959 2.91662
237.187424012616 0.685684
239.17575990216 3.17698
241.194987799966 2.74158
243.186257852689 2.50812
243.402763719129 0.59833
245.18406954124 1.09578
247.168277199654 7.99242
247.771077212404 0.546433
248.593988747337 0.578104
257.195791543657 4.62364
259.198643598511 1.22118
261.1885937538 3.9719
267.21044201348 24.1846
267.340617510027 0.53314
273.222845366659 0.567432
285.220879436827 43.8805
285.344404267085 1.28499
285.678409818458 0.559369
286.145757897012 0.76517
286.228894039209 0.657195
303.231156155469 100.0
303.436730443363 0.886188
303.521517945125 0.730605
303.595637937769 0.847141
303.686462680619 0.764476
303.817051218761 0.877919
303.986298775447 0.867602
304.237145556535 0.616242
320.209683166007 1.1927
321.24140189572 59.9416
321.397938572227 0.835306
321.470104030894 0.567922
321.761733428782 0.537879

>collision 20.0
38.9615104649644 0.829516
41.0397544748982 5.94396
43.0191638630488 8.23102
43.0535089323858 3.80426
46.0389865591465 0.809297
51.0218418923258 1.36778
53.0387892518364 0.793571
55.0182230096974 4.46811
55.0544580459122 23.7165
57.0344905006775 3.68822
57.0706281829556 5.51435
59.048771454797 2.09656
67.0549966101702 40.1098
67.1173854379927 0.828134
67.9120912362795 1.0641
68.2418713781652 0.727762
69.0368256849115 0.992176
69.0703150575672 30.8075
69.1432712891076 0.728868
69.3133859371287 0.805829
71.0503767404332 8.64475
71.0841789144769 1.66056
71.8736324715171 0.767567
71.9065382766748 1.38843
77.0400115693897 6.34374
78.0495539479535 1.02541
79.0539365216895 39.2287
79.1356843972563 0.810241
81.0336724656792 1.24696
81.070430294112 100.0
81.182440692155 1.12003
81.348588804357 0.841959
81.886383616216 0.834217
83.049417469995 6.16212
83.0861512036274 15.7825
83.5756576762405 0.913676
85.028223872785 1.89042
85.0657213086847 23.7958
87.0433628024487 1.91015
87.0766760344118 0.812097
91.0547897532978 44.2354
91.1347845858685 0.974048
93.070020655592 73.6328
93.871830485388 0.650393
95.049410819537 1.02056
95.0857811794253 64.3806
95.2259998606362 0.698176
95.6231587953434 0.667494
97.065075461778 7.50074
97.0986917100794 3.93301
98.0696227082698 0.758731
99.079948842646 18.8426
100.082985116018 0.639281
101.059865274248 1.63566
103.056283382576 0.72273
105.070771729134 42.6112
105.320454442892 0.686287
107.084808764199 45.7606
107.180200789376 0.842487
107.222814765497 0.853103
107.62775773001 0.695145
109.100777831606 21.3536
111.081882297746 6.84847
113.05332301324 1.25254
113.096920501686 3.13836
113.137020023879 0.663362
115.058689933471 2.83398
117.07014823513 18.5569
117.1206146384 0.922284
117.148028900309 0.726055
119.086720921279 50.267
119.163964236825 1.14932
119.189669764767 1.04156
119.512349002614 0.94672
119.725461025218 0.668672
121.063345349614 5.74563
121.099262428945 32.6819
121.197471239612 0.76478
121.302465463305 0.778438
123.080449524613 11.6228
123.115013340824 7.38912
125.096612373224 6.26258
127.074134163595 4.12024
129.070431215197 11.7599
131.085228678446 38.4499
131.253391404768 0.705504
133.101748787356 51.882
133.218813479326 0.889752
133.345997491742 0.70614
135.114722522809 31.3207
137.095263884197 1.81006
137.130986472259 3.23751
139.093184701506 3.85045
141.070778544347 4.55094
141.345854060613 0.860024
143.081103165394 7.85394
145.100322985607 34.9537
145.195703499102 0.639094
145.242448738181 0.652553
147.115914512478 46.4808
147.19668421082 1.39433
147.229059505163 0.7897
149.096065275191 15.1947
149.130169485556 13.2569
151.110579509583 2.17919
151.138986991336 1.2754
153.090225251541 0.932863
154.073305388784 0.930994
154.127789782271 0.65047
155.085257155936 7.13774
157.099907737361 10.8224
157.19767922326 0.635179
159.114784070924 26.5141
159.222525626045 0.687453
159.280038247669 0.623243
159.384105379546 0.698342
161.13018438505 25.6676
161.249228410389 0.839423
163.068574714446 0.98504
163.111664889432 4.10334
163.146517682916 4.97021
165.089532606729 0.657295
165.122670306298 1.59745
167.107419914052 2.52717
168.086630401729 1.24308
169.100193392274 10.5588
171.116551100635 14.5923
171.316658024535 0.718601
173.132225361937 26.776
173.25290370751 0.77781
173.592776347056 0.748309
175.141575009562 17.1841
177.124648554505 1.92489
179.10550535961 2.69286
181.123509662284 2.86698
182.106834976812 1.2372
183.115541144472 8.26433
185.130619445033 14.8327
187.144763148007 6.95289
187.203408197686 1.00935
189.152200882455 8.83203
191.132280154627 1.70339
191.176681533319 0.805571
193.123161692647 7.02604
193.157523848721 1.80309
195.137888238417 1.98214
197.132982490404 6.07489
199.14568570717 4.36811
201.158903622632 8.87802
203.142047043715 5.40344
205.144951440591 1.90462
207.136856861805 8.73495
207.180607241811 0.832783
209.155602477644 1.48688
211.145678814634 3.71664
212.86023221831 0.638614
213.165674237421 2.65793
214.171987501214 1.05658
215.142513128748 6.40535
217.154719591015 1.6394
219.137478496747 2.38807
221.154223534771 7.30799
225.166080775288 3.06812
227.179117282086 4.55466
229.156014206522 2.11888
229.19825106847 0.710343
231.776132073692 0.622547
233.153174162346 3.62644
233.189393994666 1.31055
239.178972804044 1.67969
241.19887004533 1.31649
243.210475888467 1.50353
244.653508248415 0.914921
245.181304624029 0.869599
247.170597758879 3.40309
249.188370312933 0.705045
249.25435207545 1.16152
257.194696020907 1.72
261.101179159064 0.743305
265.1898837462 1.03358
267.209593088063 6.74844
275.038075670542 0.673121
275.198964948582 0.859702
285.21805194456 10.8101
303.029956417789 0.833865
303.232529033576 12.2226
321.159239458119 3.45999
321.228853412942 2.39925
321.832934921649 0.744279

>collision 40.0
39.0222000795553 1.39501
39.045012418195 0.648957
41.0388015316807 22.6544
41.1478562030126 0.680462
41.4250749962656 0.945417
43.0186471470884 19.7453
43.0546005190831 13.0321
43.6744629894517 0.695338
44.0206253229814 0.767169
45.0334590466184 2.46557
45.0478133664764 0.769473
53.0411023057215 2.80481
55.0186805505854 13.0126
55.0547212609906 52.9214
55.1221189224216 1.13746
57.0337674350688 2.4013
57.0698666628531 3.63604
59.049847917148 1.84093
65.0394246960763 3.60445
67.0545860482485 79.4352
67.1308554462858 1.27088
67.1526380469354 0.895049
69.0704766273586 21.8067
71.0488884823375 9.75583
73.0622999379667 1.27758
74.0926761709171 1.34517
77.0389626672305 23.0618
77.0863633413068 0.698518
77.1223299020925 0.707172
78.043898968172 0.787561
79.0546140472658 84.859
79.1131157740864 2.04004
79.1372521694427 1.09345
79.1600024751561 0.771693
80.0619536226365 3.0302
81.0704226664621 61.5933
81.1462781664895 1.25179
81.3809468338492 0.753401
83.0488072571775 4.4007
83.086372951855 3.47164
85.0642600715641 2.82884
91.0548337330408 100.0
91.1368330698513 1.50627
91.1673830940886 0.787494
91.308605448811 0.653851
91.4043341845155 1.18067
91.430803691746 0.648795
92.0589546331115 1.43505
93.070326066516 49.7282
93.1363892432417 0.835027
93.1605561630893 0.750676
93.378455047764 1.10286
93.4904228770274 0.768167
95.046493551247 0.984822
95.0860370402311 33.219
95.3255861022765 0.694034
95.5977809464137 0.785342
97.0636434061434 3.41407
99.0807349736078 1.15791
103.053774420872 2.99908
105.070205138552 67.8346
105.14740326294 1.22218
105.236931947003 0.699201
106.07405581089 1.8265
107.085443391986 22.1373
107.146217414288 0.98615
109.097648567659 4.08843
115.055475079583 5.92591
116.059967202285 4.16716
117.069572158498 30.8722
117.130378916846 0.814293
117.287793762057 0.81712
118.077788762597 0.943097
119.085496570943 30.5524
119.159232592434 0.861775
121.10029381193 11.1355
123.077447332252 0.651811
123.115186193677 1.03006
127.053034130158 1.45643
128.061625650305 7.49674
129.069901202235 10.8308
130.080921365718 3.25363
131.084547231338 32.8262
131.18945664042 0.635949
131.242029252099 0.618718
131.571044801203 1.10222
132.093099751871 1.13333
133.100165562401 18.7939
135.079077593844 5.32667
135.114654479645 3.66098
138.095266376863 0.673962
141.071763558434 1.90432
142.076560997438 2.91008
143.084323889255 6.23983
144.092683747766 1.48316
145.060386754952 0.911502
145.099971891937 14.7654
147.113769446804 3.08941
149.096616864215 4.5141
153.069606917881 0.640111
155.080980171051 3.47526
157.10090068074 4.04163
159.113416283921 4.52908
161.132769755771 2.38833
163.108958461352 1.31371
166.078758131665 0.63004
169.094785331249 2.27709
170.104216133492 1.10897
171.115902295528 3.78358
173.085981561967 0.927717
173.128618074307 1.04107
175.141656066664 1.54424
179.083140434586 0.678577
181.097799076636 1.01575
182.107369853731 1.01038
183.120302863011 1.22692
184.115059947601 0.954292
185.137111544439 0.859621
199.504132481069 0.627986
201.159651684324 0.778781
214.134553272059 0.755231
227.179768304645 0.648508

