>compound GW 7647
>formula C29H46N2O3S
>parentmass 503.330316341881
>charge 1

>ms1peaks
358.218367797588 0.7179
378.244341825493 2.29963
404.226997417226 0.631797
503.33106278336 100.0
503.532263185965 1.49646
503.59025943652 1.0146
503.669257493243 0.637635
503.726914680318 0.581726
503.810981018985 0.519064
503.858873598173 0.532178
503.987378932085 0.669444
504.320402097684 0.981415

>collision 10.0
223.07838469851 1.57055
358.219306149035 4.62906
376.23153917106 2.38852
378.245628894606 24.3604
386.218137438888 0.547166
404.225657374492 7.23765
457.320520929749 0.72013
503.330316341881 100.0
503.617861933152 0.936739
503.974327018581 0.657189
504.322337580038 1.15648

>collision 20.0
137.04228396721 3.71474
168.175282970175 1.35857
177.072163455421 4.13819
205.066202727168 0.887321
220.075804081439 0.573633
223.078224345813 15.3036
292.20959789986 1.54753
318.186859053243 1.33183
332.239067383583 2.09705
358.220061627779 60.353
358.372049270901 0.948358
358.46341032127 0.623439
359.22167500812 0.721815
376.230643553295 11.2047
378.246657098473 100.0
378.416805603899 1.31285
378.480830924172 1.04525
378.556558895113 0.673988
378.612306324063 0.601803
378.65786052133 0.5898
378.730085241655 0.658059
378.879283677183 0.717433
379.115994433232 0.673492
379.257366044944 0.799258
386.215607004126 4.5599
404.226092395869 34.0428
404.398475876094 0.65777
457.324998943138 4.03736
503.331330370834 47.319
503.53477278178 0.602125

>collision 40.0
41.0380197629551 0.679445
44.0507346287611 1.02604
55.0546065614589 1.16435
58.9956882704331 3.33121
59.0490191346073 0.592556
81.0703727197242 0.966372
83.0851373337115 2.11213
95.0863575382143 1.06756
97.1012853120708 0.718907
103.053953792152 0.897521
104.060835988298 0.975886
109.012078013564 0.964749
119.083770309033 1.13061
135.024815756711 4.65983
136.032923607932 1.12905
137.041560849884 48.3801
137.129297298002 1.02656
143.08452528325 1.12251
144.093766928067 1.53799
148.075537019069 0.615138
149.041547363664 2.02448
168.172963789805 7.70394
177.073059576331 29.2138
180.045207632774 0.510244
192.048442617727 1.32775
193.054174027434 2.142
205.067516964353 0.792959
206.054178535472 0.644223
220.078006360849 3.52379
223.07781423118 26.0004
286.217051373469 1.69041
292.209532223243 3.34483
317.177374787319 0.769078
318.191120928965 5.83503
332.239835579777 2.56769
358.219870944493 100.0
358.449282384352 1.01046
358.753992014069 0.802775
359.073816596474 0.525639
359.2208528528 0.70353
371.188626013913 0.786578
376.23115181643 0.58025
378.246852879428 9.56124
386.215484755255 3.05499
404.226140766764 1.3903

