>compound Eicosapentaenoic Acid ethyl ester
>formula C22H34O2
>parentmass 331.262989465492
>charge 1

>ms1peaks
95.0856267400777 0.525311
107.08731500915 0.66199
109.102562072266 0.859952
121.100182181813 0.92446
133.100616682715 0.922503
135.118245722614 1.13541
145.103164743973 0.624252
147.115981363695 0.755154
149.097707127625 1.02695
159.114851000544 0.802672
161.132253221783 0.92296
165.127827058046 0.692257
175.147177171389 1.10029
187.147535205992 0.643298
189.162997740294 1.0416
195.137560342515 0.926686
201.156377004167 0.878044
215.141450040549 0.927756
243.209046564514 0.71036
257.201053174253 0.549769
267.207430938192 3.04232
275.198093818312 0.548147
285.220712693361 9.15091
289.212249487972 0.620595
313.241804587715 0.861049
330.26991910181 0.881226
331.26298097197 100.0
331.423727976533 1.30188
331.503747782627 0.77115
331.797611501425 0.649639

>collision 10.0
55.0550733329467 0.790895
67.0547435736616 2.85325
69.0702405105538 1.09863
79.0555037617168 2.53649
81.0691292212653 3.51869
83.0475136608436 0.708338
83.0859637466566 1.43274
85.0656619464526 0.576355
91.0543791204525 2.7262
93.0699508586387 4.06405
95.0850612809272 4.71449
97.0647562435545 0.616979
97.1008994138638 0.607599
101.060419143707 0.834681
105.069629385079 3.72154
107.085004171233 2.88319
109.101870635383 5.33369
117.063997700354 0.607571
119.085436076963 5.15912
121.100739966219 7.34313
123.078163874994 0.630516
123.11629873242 3.0676
125.094707899069 0.683038
129.084657615477 1.32904
131.084458559877 2.39872
133.100550595186 5.94023
135.080446309279 1.10354
135.117136043359 5.10299
137.092039539478 0.501234
137.13189606475 0.605841
141.070567492172 0.768099
143.093364515334 0.685767
145.100488261968 3.71904
147.115883786087 6.43985
149.096186684004 4.78395
149.129807288833 4.01542
151.110787739166 0.928442
155.105829891021 0.582854
157.10421176467 1.03771
159.114562558998 2.83669
161.130598696493 8.12755
163.121610049551 2.65061
165.127088384941 0.9618
167.102783988719 0.57163
169.099779361711 1.10892
171.117999207639 1.54001
173.130873499348 3.40042
175.147348138672 5.75326
177.130321514672 1.14813
183.118770363902 2.44062
185.132380598712 1.43775
187.146333715262 3.26934
189.161066509356 4.00455
195.134810237268 2.09644
197.133967857497 2.03066
199.146392791518 0.703144
201.15961040532 4.48405
203.169122480644 2.03382
205.152737601128 0.500394
207.135891024321 0.936907
209.148260411425 1.75195
211.145769402942 1.33985
215.143255808498 1.86477
217.157426196646 0.58107
221.152493717926 1.21816
223.17000724424 0.814109
225.16039465927 0.924497
229.156124447751 2.18375
235.170272679617 1.82859
237.182951005645 0.899438
239.180624499761 1.23293
241.195133529284 1.86815
243.207807042736 5.35023
247.169391768576 1.21892
249.182739664713 2.67189
251.197110574739 0.74019
257.194767702232 3.92067
261.186890067698 1.47339
267.209667105166 12.7644
275.203796193321 0.503816
285.220465647362 23.6731
289.218463894329 0.604941
313.259428022032 0.862321
330.242203162503 0.59785
331.262989465492 100.0
331.472332376797 0.904071
331.552800827461 0.700854
331.638842283276 0.51823
331.711004708758 0.590954
331.823497558934 0.525792
331.871564003681 0.549034
332.259362145714 0.645283

>collision 20.0
39.0246617288786 0.658487
41.0387568450944 3.68154
43.0192773660776 4.09084
43.0550624430983 10.195
45.0335016455032 0.588978
51.022508813635 1.99785
53.0375223847942 0.964108
55.0194250721415 4.19122
55.0547366948106 28.6356
55.1072746057576 0.835276
57.0697655606326 7.66284
59.0485974233284 1.44093
65.0420329005656 1.17144
67.0546415272271 65.484
67.1308776419994 0.621355
68.9231637222668 0.591147
69.0322265283901 2.13187
69.070669582787 24.8216
71.051434274406 3.33877
71.0859161408093 2.04636
73.0656844455656 0.847356
74.0943087674655 0.713807
77.040073654718 4.6102
79.0544863186421 50.1092
79.1390522676473 0.982346
81.070120694526 96.0645
81.1537647106406 1.56873
81.1995990579395 0.679971
81.9970069930353 1.2364
83.0495949928604 8.43644
83.0863148408088 21.558
85.0642286348706 9.81963
87.0423281827079 6.67809
87.0700591168307 1.45234
91.0538346615438 68.2002
91.124466464157 1.30931
91.3133567363063 0.751322
91.8152675790161 0.786607
93.0700357546107 83.549
93.1558816474075 1.4136
93.1860861221476 0.657123
93.240686972581 0.73003
93.4256074976003 0.675521
93.6444245698703 0.854886
93.6935878998533 0.628028
95.0470207434565 0.964653
95.0852351727288 76.3456
95.1762616523404 1.15112
95.2027159719397 0.92122
95.2197573750087 0.847695
95.3551682984071 0.585119
95.5419924913862 0.657635
97.0658704192074 8.8623
97.1002945325516 10.7429
97.3171305482888 0.68714
99.0831203880095 1.09869
101.058591112063 11.9774
103.054998827314 0.705535
105.068847165401 73.7183
105.159825470266 1.42628
105.20472600766 0.629998
105.683155334155 0.891166
107.0447465771 1.38222
107.085751834195 54.7156
107.155686336777 1.11147
107.179509017239 0.95182
107.795915946099 0.585351
109.10140896169 55.4765
109.253940091971 1.04029
109.366363992679 0.602134
109.709306293063 0.726853
111.085369547014 5.30426
111.639728319443 0.705052
113.057042929938 2.08788
113.093852088983 2.29282
115.071891005643 5.31047
117.069669837762 15.6388
119.085387482047 92.9522
119.181562701847 1.2593
119.223177813916 1.3757
119.356142414539 0.715657
119.421570102581 1.17923
119.480242876399 0.792912
119.828597093498 0.630212
120.888358597977 0.671888
121.100466804309 95.0622
121.251974022699 1.43537
121.355600805658 0.680388
121.417824970381 0.591639
121.481781608459 1.01936
121.624034531783 0.693832
121.715359984828 1.08134
123.078064344338 7.01275
123.116832536452 30.5741
123.214244955027 0.646304
125.09691327461 5.1452
125.129630252354 1.05135
127.073382060369 1.48265
128.057947164348 0.953369
129.075718742563 10.8182
129.1260858247 2.93331
131.085027014519 55.0903
131.186063843126 1.48744
133.101199324575 95.9877
133.232739324321 1.05692
133.509938214574 0.686758
133.631010759112 0.612035
133.773581986031 0.848888
133.81722725089 0.866142
134.106362705982 0.627825
134.974533324047 0.701437
135.115317090365 64.4035
135.205339004936 1.4779
135.272481707529 0.708433
135.48973559389 0.584131
136.021814823674 0.993101
137.096516552517 7.12078
137.131314002902 6.04881
139.105405268062 1.42167
141.071542432262 10.395
141.942713406043 0.614847
142.077029818501 1.88393
143.085331120751 13.8318
143.597533785674 0.753756
145.017986290187 0.882728
145.100550638145 40.6085
145.175186708594 1.05165
145.378871779699 0.662413
145.436977877224 0.830409
145.638905080307 0.820883
146.103275782865 1.22297
147.116188065285 75.8856
147.222686597619 1.5285
147.272478660351 0.675734
147.544622079632 0.635606
147.944281662514 0.686315
147.976495286591 0.615311
149.095265892359 46.0861
149.129747414576 34.4578
149.244407350049 0.833404
149.289684003315 1.07123
149.351559215558 0.627825
149.474981939024 0.704976
149.542990734055 0.590542
149.702661825196 0.718314
150.25064581797 0.632084
151.109606174444 4.92993
151.143951918605 2.4748
154.076425443878 2.55657
155.089830730695 4.31582
157.100745153612 14.0904
157.195337359064 0.810561
159.116882086663 37.6149
159.266757789521 0.783847
159.412030231793 0.761163
161.130230796909 64.7639
161.28768816913 0.651551
161.395978954721 1.07019
161.437891500811 0.599281
161.562229994189 0.627912
161.727554778758 0.94113
161.89919890023 0.874413
161.933643028694 0.934438
163.11143899767 18.4603
163.146381873012 14.1861
163.670172691758 0.584888
163.894183069753 0.657027
164.113241530687 0.705321
165.126968460552 4.25307
166.074001705525 0.774643
167.103434770573 1.76757
168.100681828955 1.28137
169.102018312044 15.6788
171.116849820268 19.5434
171.208338182154 0.599747
173.130865615057 36.9294
173.250394267876 0.691095
174.469773065764 0.584328
175.144966508168 49.0602
175.267695445534 1.15378
175.318779197335 0.73368
175.677168382305 0.904047
175.929219085431 0.616735
177.126260726354 10.826
177.157265280035 4.99343
181.116467124793 2.19814
181.149398777409 0.629809
182.107163529003 1.06943
183.116245257549 26.808
183.228625316232 0.640601
185.131252548931 23.1375
185.236764161977 0.86149
185.300401333553 0.678055
187.146168769485 24.9459
187.275054158131 0.779535
187.431255552275 0.700915
188.660372142349 0.982222
189.156532755272 25.3813
189.238160574083 1.31503
190.435367960522 0.599841
191.142187348507 8.21691
193.153361306008 1.17743
195.136047074839 2.90554
197.087269523815 0.602274
197.130754505471 17.0491
199.148312573249 8.19808
201.157060927173 35.9365
201.290796163826 0.924009
201.897128023189 0.657635
202.172335977975 1.2139
203.151206706074 15.9365
205.114421393568 0.705597
205.163116639506 0.692655
206.08594540084 0.65833
207.137652781673 4.95917
209.154572748768 5.50985
211.148492618753 12.3978
212.768327365513 0.703242
213.162657409609 4.57423
215.14459655754 16.7089
216.014490233432 0.628191
216.144772083792 0.788519
217.082950107064 0.850412
217.154820891131 3.54445
217.193763072304 1.1174
219.173915909063 3.38682
221.153291598812 5.64176
223.159478349579 3.78335
225.16326774872 11.2328
227.173736705465 1.24943
229.162445538548 8.40816
229.30251662613 0.619065
231.190474077063 1.21641
233.151898004198 1.65048
235.170186031871 6.3852
237.176400490118 2.7517
239.179019984474 10.2028
241.193667776033 8.13395
243.20852743584 22.0626
243.673964554276 0.993609
247.170422988497 6.38461
249.184897781444 11.1096
249.245398069733 1.11136
251.200979826709 3.53128
257.197303010917 11.6441
261.182178835345 4.67888
263.194602044315 0.822402
265.19200672191 0.710778
267.211243116563 59.7501
267.349119841691 0.894286
267.394807539609 0.745344
267.528067822318 1.15381
268.205109028626 0.685706
275.19516773939 3.81081
276.938131089676 0.629208
278.227317059549 0.70116
285.219982344746 57.5697
285.310240251709 1.85428
285.379143841207 0.780917
285.436595442408 0.891106
285.935265739433 0.741386
286.054436030634 1.0221
286.323418234114 1.00295
289.221190927252 3.80813
303.233398948763 0.968553
313.257244661808 1.53141
328.769254329181 0.634949
330.326790055265 0.584284
331.262957770359 100.0
331.434265671443 1.46006
331.478308461522 1.1101
331.737861817783 0.856568
331.866442852939 1.13476
332.025820260636 0.634396
332.103725792602 0.952689
332.257602875673 0.617373

>collision 40.0
29.0383907779288 0.591502
39.0240781222604 0.937792
41.0392474344258 15.208
43.0185283510429 4.35406
43.0553375819439 11.0772
51.024288076751 1.48493
53.0395574651354 2.34059
55.0186893827263 2.8075
55.0549060991005 38.9752
55.1049201435749 0.789299
55.1206601270912 0.594041
57.0337876820637 1.22453
57.0704723049086 3.41049
59.0493295387736 1.08376
65.0388333111802 5.13245
66.0457543294878 0.867808
67.0547276016829 74.8042
67.1287059691038 1.37267
67.1496941794442 0.652103
69.0342859481737 0.751793
69.0702243467036 16.7539
71.0497694438942 4.28106
73.0641515408943 0.885767
77.0392823774653 20.8356
78.0447575937695 1.00385
79.0546718777912 75.7216
79.118097442815 1.58032
79.1768308266265 0.687678
81.070240121904 71.0944
81.1309392609653 1.17599
81.1520084566803 0.995936
83.049222219125 3.12816
83.0852182736184 4.74982
85.063484214462 2.51806
87.0447429443897 3.24825
91.0543215381185 100.0
91.1426287196343 1.585
91.1664535795714 0.875667
91.1918518083254 0.502654
93.069620486647 63.4358
93.1581043619818 0.917294
93.1848824623027 0.647402
95.0468106068151 0.560368
95.085371311297 39.6835
95.1543526947513 0.75155
95.1747412844382 0.632512
97.0653804061714 2.20796
97.096290042723 1.31159
99.0796876926525 1.70596
101.059721332764 2.30631
103.055529599752 2.59754
104.060300511937 1.36991
105.0697383654 69.0335
105.164616621382 1.36648
105.185953390638 0.648529
107.08524036251 26.139
109.100887992783 13.6611
111.08227518531 0.8474
115.054330506351 3.58084
116.060300863567 0.857355
117.069757686549 24.9322
118.075442837481 0.967077
119.085306455885 49.0542
119.18508339076 0.886022
119.217332559002 0.503367
121.100314692283 19.5248
123.0779825248 0.791027
123.115864861497 1.58377
127.05506534427 1.31479
128.062399032127 3.39792
129.068975690687 12.4818
130.077086632874 2.93274
130.110582700214 0.674653
131.085003828667 31.6331
131.163033196223 0.743262
133.10095598772 23.6552
135.114805384991 8.37243
141.070078515433 8.0343
142.078429938415 2.07066
143.085515711487 7.26563
144.094029903702 1.65834
145.100056854277 19.8832
146.107228293697 1.25739
147.115174919833 10.4459
149.114673673526 2.67637
151.111804688051 0.503069
154.076250304834 1.19199
155.084252492084 3.66827
156.090560357931 0.988105
157.101242645541 6.23738
158.105300518597 0.702845
159.116907633805 9.42668
161.130911529658 6.00534
163.108553665952 1.04193
163.146891902787 1.0736
167.084879414665 1.05305
168.088794555857 0.807722
169.101208563881 3.20889
171.11577075622 4.07548
173.132610977348 5.17508
175.144698345372 2.23753
177.126070934574 0.536803
181.097838321956 1.19797
182.109294466453 0.966594
183.11743400934 3.04277
185.129528604173 2.36012
187.144728716274 4.15116
189.161758943691 0.931429
197.130237327195 1.61798
201.162415893672 2.0734
203.143833096059 0.835243
213.163251041345 1.44453
215.176577251683 1.09865
225.167680445219 0.913805
243.213476984791 0.747579
257.191710211303 0.547688

