>compound Lathosterol
>formula C27H46O
>parentmass 369.350762682054
>charge -1

>ms1peaks
81.0700318765597 1.0136
135.117176849296 0.603581
147.115788447117 0.54303
161.131519227018 0.55351
189.162059326953 0.60662
203.179132292906 0.560975
215.179030612729 0.899158
217.194642126215 0.720277
243.210716937197 0.529084
287.271672886826 0.560393
301.289453106202 0.970032
368.34073596107 0.740637
369.35099535054 100.0
369.520294671558 1.71937
369.588552733214 0.97548
369.68155971237 0.573816
369.761901209795 0.559687
369.951424289473 0.655743
370.219071311121 0.522624
371.21907131112 1.0e-13

>collision 10.0
55.0542794963518 0.653804
57.0709492273458 0.581739
67.0576719043744 0.52199
71.0865505484727 1.46546
81.069614513882 3.30752
83.0851308071362 2.70097
85.100789838717 0.637512
93.0680844681283 0.777708
95.08547740829 2.63177
97.1011473323727 1.5456
107.085478600808 0.852202
109.099447389729 1.68696
111.116751736747 1.68867
121.099650022581 1.47223
123.115542305902 1.17003
125.13105054767 1.23109
135.116274135743 4.67383
137.130276133819 1.036
147.116419092564 2.45019
149.13168734073 5.70992
151.143829115884 0.799351
161.130105006877 6.66104
163.148776308252 1.60171
165.164405254222 0.810886
175.147884446247 4.28866
177.161440911018 0.809934
179.177986397768 0.867876
189.16364586966 3.58733
191.176989272907 0.5002
193.192829119578 1.30422
201.167983629252 0.596224
203.179903549702 4.42035
205.193127798879 1.29114
207.209318756878 1.03792
215.177748912911 4.28695
217.196396724769 2.02794
219.209111253422 1.54478
229.194611478361 1.54004
231.207108312742 0.824531
233.228849099477 1.4458
243.210237598227 3.02654
245.22617136319 0.731577
247.241421358117 0.742519
257.224261890627 3.36337
259.240509243879 1.74561
271.243658581375 0.723582
273.255155760142 1.07502
275.277212579068 0.579766
285.256428440025 1.19077
287.270915261732 4.65673
299.271373206708 0.666083
301.288891530784 3.46773
313.287302121078 1.04596
368.338297050516 1.08857
369.350762682054 100.0
369.524184372573 1.67378
369.576596206884 1.01423
369.682797936876 0.761587
369.787857800041 0.677512
370.047335074356 0.628134
371.04733507436 1.0e-13

>collision 20.0
41.0384358530657 1.38756
55.056524577886 5.44126
57.07111007312 14.4402
67.0542840278104 7.15285
69.0704704341406 13.99
70.067715569535 0.953752
71.0862925261706 13.6831
71.1396788295088 0.588026
79.0541402421681 3.9638
81.0696810176476 40.3208
81.1496484052671 0.925511
81.2379015713117 0.509453
81.6799544382387 0.608533
83.08576892278 39.594
85.1018530625674 3.85761
91.056467359498 1.97242
93.0693295434481 12.7162
93.1223491416004 0.693483
95.085229727604 45.1398
95.17604037426 1.007
96.0867541192136 0.903267
97.1013407756784 16.6141
105.070467013935 10.6619
107.085455531136 19.9986
108.355290739761 0.53263
109.101665713219 30.6353
109.200854799588 0.547266
109.322819205796 0.517541
111.116784472687 16.3674
117.070564378785 0.788706
119.084331347437 9.23864
121.100586944378 18.524
121.389047638516 0.537958
123.117851762838 23.0171
125.132386959467 4.39508
131.085796104731 1.3347
133.100824995813 13.2377
135.116675509365 27.1705
135.209216560577 0.721711
135.477634467237 0.825218
137.130680644527 9.65568
139.144541623636 2.26724
145.095460751249 4.41989
147.11647678109 23.3893
147.179221729826 0.940203
147.226217162116 0.608425
149.131719032337 39.8862
149.278450008741 0.570244
149.554845982312 0.525089
149.933498147452 0.807707
151.148885653088 5.6148
153.163712325432 0.962097
159.117314462053 7.14912
161.131731605073 49.8707
161.258298690696 0.706164
161.440213463702 0.603774
161.898079031934 0.739304
163.147198671936 17.5088
165.160509748502 6.20275
167.170096071415 0.925168
173.131681359676 2.20899
175.148515141076 31.6117
175.274740118136 0.513377
177.162282975576 5.67679
179.178042389185 4.9278
187.147363445232 4.3156
189.163438534551 26.1615
189.404374770119 0.587451
191.181661193804 6.14684
193.194503777078 5.90556
201.16377527425 7.9323
203.177856716875 19.1181
204.039865965877 0.715018
205.19330535839 8.40803
205.253365269017 0.727705
207.205843783498 6.94653
213.160589086026 0.839492
215.177673834518 20.7589
217.191693225494 12.6226
217.624669405049 0.57823
219.207086818564 8.13941
229.193739164279 11.8199
231.210343375079 2.9132
233.226796743471 5.56029
235.2661799288 0.53137
243.208208311443 16.7961
243.327420450069 0.591692
245.222730238306 4.67495
247.072373631698 0.545888
247.242553644998 3.6281
249.2552532704 1.17581
255.208684324362 1.3812
256.204685826637 0.575946
257.225599479999 18.149
259.242449154284 5.66116
261.25541449932 1.80536
261.303521844747 0.508738
271.2410061532 2.93318
273.257579282857 8.17381
275.272037967218 1.71011
285.247138566738 1.43734
286.259562322577 0.560473
287.272330334885 21.7267
299.263482418774 1.14819
301.289619770132 14.4148
313.287542403337 4.21131
327.312211083881 1.20473
368.337062679625 1.76695
368.417717972113 0.902529
369.216638831192 0.540019
369.35025210806 100.0
369.524880056868 1.70003
369.579447588167 1.15908
369.646546889358 0.590636
369.718975675661 0.916991
369.819166399411 0.595477
369.962919095686 1.50817
370.046116911484 0.89196
370.10078714685 0.587409
370.338201851403 1.1381
371.3382018514 1.0e-13

>collision 40.0
25.0107536328773 0.675961
39.0227171223202 0.658018
41.0390885677485 9.34019
42.0349409211992 0.900667
43.0550524501927 11.5139
43.0951500682306 0.592787
53.0389483809881 1.20612
55.054908648448 60.4305
55.1215767219348 1.27389
55.2954916218808 0.681771
56.0549475244843 0.994724
57.07056407841 20.3587
67.0548698068236 29.0555
67.2458931305133 0.64164
69.0702710981444 49.6544
69.1475368955895 0.774695
69.1648523340318 0.536773
71.0855168783024 9.21951
77.0395499136565 4.71765
79.0548068900323 24.1974
81.0698704762244 76.9532
81.1534454824676 1.4204
81.1798225459232 0.54068
81.2207033073047 0.62986
81.6260546550165 0.571536
83.0858318423648 38.9661
83.1672971731575 1.10252
85.100830896273 0.733483
87.0420711860665 0.953621
91.0557714511404 12.6413
91.1247713714216 0.700198
93.0699392469577 42.4041
93.1617095512695 0.561691
93.4107878345195 0.702396
95.0859643162058 100.0
95.1746995421267 2.00765
95.1997540142464 0.949225
95.2287460580636 0.53304
95.2609108386453 0.560757
95.2925175527935 0.578724
95.43268736182 0.690779
96.4687866575635 0.505535
97.1008222662736 7.61525
105.069943656375 31.8083
105.165372560387 0.608102
106.443471217583 0.547047
107.085770262041 29.0792
107.18006114505 0.661549
108.091784232408 0.649599
109.100529033974 45.0276
109.199246128972 0.916386
109.22730685197 0.587544
109.329915387473 0.923389
110.45147272329 0.506404
111.116544178556 2.30108
115.053476693945 0.641317
117.068701527942 1.31682
118.073740110452 0.622156
119.084292443344 27.5204
119.155845523688 0.896555
120.096476422389 0.560672
120.160644751489 0.554687
121.101161510847 20.2532
121.206163802069 0.538679
123.116876256462 13.1301
123.189460451527 0.52087
123.701369725789 0.509248
123.772859364636 0.654071
131.086133518402 4.20218
133.100904650513 18.8258
133.179596687062 0.724948
135.116810990021 15.0102
135.17757140359 0.912651
137.130100668002 4.55966
145.100110065111 7.65094
147.115116230015 20.8712
149.133076002265 11.9067
151.14957330678 1.07716
158.025039831976 0.530121
158.107007247011 1.17068
159.115856458904 6.25559
160.123190748133 0.841369
161.132697148181 14.6328
163.144992889378 2.62058
173.13305190821 3.76333
174.138807192418 0.952549
175.145881961975 5.30114
177.163724261287 0.742073
187.149154200956 3.654
189.162193320535 2.87313
200.153389599742 1.32826
201.161998387632 3.49651
203.181678762342 1.7733
207.209632137404 1.54928
215.183877998571 2.62271
217.194215574263 2.01904
233.221089359906 1.00036
243.213255699263 1.16996
247.243766670037 0.56395
257.22326047043 1.28941
313.305637684267 0.508048
314.30563768427 1.0e-13

