>compound AG-17
>formula C18H22N2O
>parentmass 283.179508526301
>charge 1

>ms1peaks
57.0739365733171 1.82833
101.006030171891 0.551933
137.151080765564 0.545947
138.627586978747 0.54551
155.101332294394 0.72504
159.109277714605 0.547018
168.928290907624 0.552267
204.962401552304 0.696447
210.019042934331 0.609898
213.190013119811 0.573683
227.119874216852 8.84561
227.920697918868 0.751132
232.94415116437 0.544092
236.167847490018 0.849501
241.086599540614 0.773795
250.246812279403 0.541536
265.177366801298 1.25076
282.066012245651 0.930658
282.204629591051 5.69763
283.180567354738 100.0
283.298012719991 2.2568
283.36628167702 1.74507
283.480565142155 0.640643
283.563522794808 0.84841
283.656932819211 0.881688
283.742164527243 0.89422
283.791011192884 0.760605
283.919434222682 0.722657

>collision 10.0
32.379161815681 1.17865
41.042547071194 1.22044
57.0698326132443 26.377
58.3973103917561 1.24911
83.0868761958731 1.39672
100.046347700187 1.52391
101.059693663219 1.23324
135.0440682741 1.23273
139.062210998357 1.21362
139.108444464484 2.41797
142.025934643913 2.15089
151.074021975057 1.5867
170.197578925202 1.38727
179.101975464068 1.5206
200.069154615534 2.30091
205.042505690012 1.54818
205.11537808193 2.21819
209.075619717398 3.32556
212.094318433338 5.39893
223.086935555784 2.33154
227.117011997508 100.0
227.252315920255 2.28086
227.326782674167 1.75234
227.617422169947 2.33705
241.083167760942 1.29979
247.168944495958 1.49719
249.138902409896 1.17539
282.197146665938 2.12192
282.276552807733 1.38282
283.179508526301 83.5318

>collision 20.0
41.0413440317155 5.73197
55.0579338488837 2.5543
57.0308679949175 3.16598
57.0701731315896 100.0
57.1351700741482 1.62312
69.0706068699025 9.48182
111.075560712544 2.75609
113.058349283269 1.79748
115.074259892314 2.01969
117.068720442645 1.63024
125.053758020122 3.15585
146.057331852486 2.21348
171.056381998204 2.05497
187.107246605291 1.68766
196.955001507033 1.77377
207.095828806811 1.65043
210.093934538481 3.09529
212.093583705188 36.2909
227.118130723673 87.4518
227.216913156711 1.73508
227.508097519956 2.53523
255.186362640017 1.62859
267.141115476978 1.80845
283.108498644093 5.34904
283.188252296518 2.95569

>collision 40.0
38.9627335812888 5.78034
41.0390693337942 68.3969
41.0636865276709 6.16176
43.0167494436813 9.92007
45.0342177249391 9.39048
57.0705869950812 100.0
67.050950249612 13.1988
77.0373168384144 5.40639
97.0639344831245 6.16319
119.15343345469 5.58391
122.072273026989 7.90585
137.093445367315 11.1745
143.080042308594 7.91007
183.087681752299 6.84994
184.062381267442 11.3502
193.077112179081 7.82191
197.071102471617 55.6141
211.09139664531 12.8139
212.09217415708 37.2163

