>compound Genipin
>formula C11H14O5
>parentmass 227.091263953093
>charge 1

>ms1peaks
35.4954692372127 0.617697
43.0185634038768 0.801907
79.0551408166165 2.41126
85.493618013087 0.717419
90.9768768259119 1.75045
91.0543141391874 1.088
93.0719819194801 0.958257
99.9657932736692 0.690009
103.050395057918 0.729214
105.066316773269 1.6735
107.055057496258 1.60219
121.06433033273 1.293
121.634614660189 0.703881
131.046476298142 0.748091
131.729577932195 1.01557
143.953165695364 0.75513
149.059332287211 39.0903
149.173533308953 0.919428
149.358117302146 0.682034
149.427327113447 0.695359
150.100070243114 1.17785
158.962815368498 2.40784
159.043107573411 4.26197
163.082636849821 0.624515
177.053580301037 38.9667
177.160736378421 0.898202
177.622862483172 1.06631
181.086462646684 20.9721
182.487896425899 0.593504
184.988914485138 2.04906
185.113716872791 0.870151
185.981429039943 1.95469
188.04515104021 1.01968
191.071833318522 20.7355
191.140643029928 1.03019
191.197551457763 0.848638
192.084766646756 0.585981
195.065787889983 1.4462
206.491214172685 0.72543
208.902721616163 1.01829
209.080159803844 100.0
209.280645785458 1.02514
209.387300354312 0.768529
209.441880146718 0.827509
209.540107058534 0.580235
209.624512793744 1.16529
209.985841159535 1.29268
210.032420273012 0.868821
210.401319993393 0.629693
211.222594422557 0.58888
211.340630925771 0.608583
226.01015674905 1.30963
226.135602242646 0.883971
226.950457239888 9.89959
227.005753867124 6.0932
227.091263953093 98.1918
227.199494796673 3.85382
227.272047376768 1.91523
227.377991516572 1.08423
227.444067770665 0.844457
227.572367755943 0.840031
227.736122163718 0.709639
227.92444739694 0.607104
228.084972588869 0.767267

>collision 10.0
43.0170880789346 1.26164
77.0394660116497 1.2939
79.0550615208576 2.43734
81.034542017844 0.874572
81.0725557440974 4.25908
85.0634092701414 0.917772
90.976256089804 12.9113
91.0550529395256 1.07465
93.0710104902085 2.92488
99.964049781988 0.600432
105.002519008264 0.810008
105.068251044735 1.76863
107.047906821844 0.838075
107.085921061629 0.798809
109.061667554556 0.826788
111.002133375429 1.04166
113.054623435554 1.04533
119.057737514326 0.871784
121.064717064812 17.674
121.201508353509 0.531638
122.40460151809 0.624205
125.080406665428 0.568589
131.047654518462 3.89167
133.067947822858 1.75198
143.104721470018 0.583963
147.044248890852 2.19713
148.995294180036 1.02064
149.059268565447 100.0
149.172146429824 1.3824
149.221136579838 1.22005
149.28770154985 0.566267
149.312612242622 0.601659
149.428681919492 0.723573
151.14277487286 0.849439
158.962487942618 3.22017
159.043039062692 9.8701
159.107761588835 0.533046
163.074704791295 4.88438
163.118146063938 0.512363
167.066075904334 0.655197
167.102273634633 1.22917
177.053493003743 34.7667
177.127113896514 1.14433
177.452412683653 0.820049
177.640058776388 0.508717
177.805299338128 0.561454
181.084585203632 5.86443
181.531412657474 0.581368
185.112620655564 0.504659
186.11422901227 0.781485
191.069668177475 13.8581
195.055348058849 0.585143
209.080247052976 4.2824
209.141584447603 1.05789
209.181690438275 0.52131
227.121099075899 2.23165
227.195173593679 0.50368

>collision 20.0
43.0180675102313 1.69884
43.0572342344314 0.752881
51.0245362870463 1.1332
55.0162867057153 2.07177
58.9404340229534 1.69101
64.9780652515576 1.11828
67.0159916863414 0.842355
67.0527120483796 0.715801
71.011415162296 1.7841
77.0380896933198 8.98599
77.3007919134593 0.899772
79.0187805343579 1.08484
79.0573340221965 2.56962
81.0687468423891 13.5727
83.0875452936837 2.01273
90.9763085358434 7.67198
91.0543956867618 18.4462
91.1040725448761 0.733929
93.0708408421111 21.3891
93.161170533543 0.683112
99.011418700301 0.720477
103.051574697393 8.02058
105.008198528906 1.88298
105.068124809922 5.79523
105.094493201125 1.36434
106.528397293407 0.677635
107.048016057693 2.23352
107.231951748125 0.867721
109.062544929729 1.87391
109.088705632168 0.736504
119.060755914473 0.839728
120.048557966619 0.777873
121.064513981466 100.0
121.163828847825 1.3057
121.196173265074 1.17955
121.406335853125 1.16799
121.480137172354 0.887808
121.77621354593 0.863357
123.086706843067 1.29505
131.046922573517 6.7465
131.07301085042 2.31139
132.085014039609 1.47744
135.079392665934 1.13573
148.046121700487 0.99973
148.485616617318 1.1765
149.058840657206 61.5499
149.171738425091 0.831419
159.042844709842 10.0565
163.077908028279 1.84954
177.052334462183 3.93769
191.069440189458 5.26577
227.074290411116 0.817684

>collision 40.0
38.9662151636268 0.764981
41.0379313541613 4.68817
43.0179047259652 2.22493
45.0376012515432 0.86661
51.0239642387385 4.26104
53.0361888994767 1.64758
55.0175344897045 3.52702
55.0542068014182 3.57585
65.0408441350921 1.83381
66.0453259994005 1.74006
71.0104254223892 1.88362
72.9390162071927 0.907907
77.0391990777172 100.0
77.1206227153324 1.00494
77.145313387223 0.874217
77.2915346141084 0.841666
78.0441336975668 0.858056
79.0220998184124 0.918207
79.056068053947 7.42113
81.0342987944363 5.7258
81.069184000196 2.71672
88.9843489344823 1.2374
89.9774745564562 1.40127
90.0482068811294 1.19267
91.0540845579742 57.5458
91.1183436884645 0.883869
91.142621798611 1.02239
92.0612258026228 3.94211
93.0700247777135 14.1201
102.045420898198 0.911435
103.054828890373 20.3136
104.059293317011 0.848495
104.999849734996 1.95221
105.067850238611 4.65077
120.049125528313 0.865226
121.064249232522 13.9779
130.042206684641 1.14863
131.049350101403 5.4748
134.033215680691 1.97059

