>compound Latrunculin B
>formula C20H29NO5S
>parentmass 378.172606083023
>charge -1

>ms1peaks
107.08387090455 0.570035
207.136772605834 3.10493
232.077343996382 0.852374
250.089948419411 0.677421
300.196282495936 5.97176
342.151862129786 1.85875
360.16237400394 100.0
360.332511181198 1.50227
360.382237255364 0.902457
360.427163429244 0.69938
360.516477636781 0.701017
360.651257345254 0.57225
360.792372140039 0.603193
360.924901742264 0.511555
361.051551468729 0.708817
361.169189902367 0.536117
377.211190234424 1.09819
378.172606083023 61.2743
378.442678631746 0.65727
378.697953674698 0.521195
379.059881406318 0.526119
380.05988140632 1.0e-13

>collision 10.0
81.0708954383648 1.31597
91.0547649164527 0.524363
93.0714606880885 0.534
107.084417360256 2.8986
109.064750089738 0.762758
111.07802130697 1.4222
119.083285147387 1.05517
121.064994596788 2.07216
121.100578221091 0.615354
123.080915114742 0.681065
133.100750957127 0.93856
135.079187605045 0.771449
135.114931641391 0.505763
147.078936211697 0.663185
147.117592495211 0.506939
150.090284346646 0.753666
151.110912748636 0.751452
152.011502989106 0.554985
154.03264892781 0.801742
156.009526277305 0.606533
161.132182325521 2.66049
172.108018488531 0.913719
173.098266476879 0.622362
175.112662578648 0.862985
178.031732987533 0.712237
182.026379330384 0.503517
189.125162568181 2.95979
190.120989296345 1.62355
192.048318069417 1.11947
196.039174377804 0.557563
197.13105634104 1.29296
199.147692404317 0.846218
207.136914931924 14.6439
215.145769898438 0.567572
220.069200911241 0.622143
227.137944994919 0.986143
230.06125041904 0.737438
232.078749933655 5.5356
234.08900083921 0.921599
245.149188984497 0.661398
250.089184402911 2.42723
259.172754724411 0.559477
265.162328254207 0.754045
282.185508799908 3.43175
283.170261721686 1.16691
299.145655270364 0.651288
299.201136227558 0.598425
300.195231317918 19.5803
318.203737407408 0.629698
324.144542322119 1.04936
326.173560874798 0.818291
342.152816707597 5.26153
360.16230279415 100.0
360.328067668756 1.59778
360.39484262513 0.811926
360.512173594001 0.768263
360.600306961666 0.784816
360.641481722503 0.717635
360.693204418863 0.520813
360.799267371246 0.640105
360.917653999476 0.605537
361.011297572417 0.765694
361.179000226388 0.637766
377.223031612519 0.971163
378.173274042037 1.58843
379.17327404204 1.0e-13

>collision 20.0
42.0349870431103 2.1096
43.0192503356637 4.26484
44.0498380172395 2.28128
55.0193201870781 2.05264
55.0528496157074 3.29239
58.0648207004103 6.77659
65.0397564651273 3.29528
67.0542691971046 6.20653
69.033918444054 4.73682
69.0695602123682 4.03744
73.0234743724888 1.06554
77.033937290178 1.59449
79.053274994631 17.8225
80.0518844169514 2.18661
81.0305648105418 3.31865
81.0696064689343 35.5877
82.0648434388004 3.54262
86.0018903318806 1.67737
86.0614915720323 3.27463
89.0408533541143 1.46968
91.055915546477 7.23367
92.0489812445951 3.64668
93.070596737508 27.499
94.0623613659801 5.97391
94.091337313449 1.4204
95.0493974108558 6.12199
95.085191597983 17.7253
96.0439982966525 14.8904
96.1050433924137 1.15227
97.0104357165445 1.30928
97.0647836008147 10.4166
98.063117287386 1.54987
101.998553391606 5.95549
103.404651289007 1.28543
105.031896839083 1.17848
105.069234623893 37.0688
106.074066048657 1.48841
107.085271430967 94.3455
107.178213486751 2.12799
107.390926716061 1.219
108.077567187814 1.22725
109.065555047164 21.0588
109.096380218559 7.64116
109.927043582087 1.20282
110.060593274832 12.7093
111.024250247827 4.27777
111.080669444803 31.196
112.025006909938 1.0961
112.074266437294 1.47428
113.001857680428 1.96261
114.001447061816 2.63065
117.068420794908 13.5844
118.065824284912 2.45023
119.084382070365 17.8937
120.084783572621 5.66571
121.065620703856 60.3467
121.166491285665 2.1795
121.760664188968 1.54841
122.059796782935 6.2445
122.095506469315 4.92215
123.080454372651 28.4346
124.020754423049 1.46798
124.074540221266 11.7587
125.060411702768 2.02015
127.97854432679 5.71305
128.015505204495 4.54635
128.044829939804 1.67758
129.069400087996 6.44012
130.062769339101 3.04292
131.08597842111 17.8884
132.077538219661 6.22971
133.098107076885 9.00797
134.080094681324 1.72862
135.07934647744 11.5951
135.115196911515 10.8344
136.032954341894 1.92353
136.075840725762 21.9693
137.094593892589 10.7171
137.130439908044 1.46906
138.05335462671 3.98363
138.09037036024 1.7811
139.019962213183 2.07861
140.015020738351 5.52013
141.986588597063 1.5331
142.029369435746 1.38773
143.085390210389 8.94238
144.011812978174 7.92831
144.088598866333 1.55305
145.100350148102 24.2617
145.155632159311 1.65404
146.094878753385 2.7636
147.112749081424 11.9611
148.019997152199 1.32972
148.076233900918 4.06358
149.041897931712 5.13855
149.093993818853 11.5107
150.092297699778 18.6461
151.109987640851 17.5554
152.017149263996 11.9872
152.072830559936 9.03832
152.155894265712 1.1112
154.031717150108 13.6065
155.084890605361 9.53195
155.337176244726 1.77185
156.008454350372 19.7234
156.086590931005 2.05965
157.099529883498 7.95585
158.01458765711 1.52516
158.096864249654 3.24903
159.095158824301 8.68874
160.108652742741 5.26236
161.1307539411 50.3386
161.217593664573 1.35613
161.686490323212 1.57359
162.054094621373 1.20228
162.125948064945 6.75791
163.053713350376 4.1223
163.1105394337 11.1764
163.140888282125 4.39504
164.105065352004 4.97687
164.134946314474 2.11628
165.072851027717 2.04772
165.125012112677 10.0558
165.861116240657 1.11651
166.029235250666 2.23975
167.042549542821 2.23633
168.030352499875 5.03078
170.026529986094 6.46368
170.064789310733 2.85651
170.098073462968 2.05992
171.115118767615 13.8406
171.222883216923 1.09176
171.455164730516 1.08997
172.111702822808 32.2873
172.202353206272 1.38483
173.094673576723 21.673
173.262683331584 1.2384
173.736573607694 1.06879
174.054734114446 2.39543
174.121410663733 4.65454
175.112530293967 7.37466
176.110765361198 1.11677
177.13025958191 8.24077
178.030691655933 11.4137
178.1225002116 5.84688
179.085081095748 6.21063
179.139899476687 4.11937
180.005151529534 3.77433
180.047821703165 5.15565
180.083389514681 1.99756
180.141340968867 2.49911
180.18112081654 2.05521
182.0237944746 12.1583
182.057294913648 4.5439
183.114328129143 8.26538
184.041376690899 2.51352
184.160614990593 1.2394
185.110612534726 5.59687
186.088842740307 1.8072
186.12454591971 1.8283
187.133002223308 5.58263
188.118263789374 3.88751
189.070633715951 12.4624
189.126195538915 62.1896
189.241960399653 1.59519
189.442008277468 1.063
190.028896305711 1.47123
190.069712961595 1.126
190.122738098919 51.5018
190.245770674071 1.31373
190.532090892661 1.27583
190.641960745071 1.07106
191.079310255305 3.69937
191.139820501612 1.37266
192.047792394387 14.219
192.132170109452 3.18977
193.119148219512 1.97074
194.064657663319 1.37362
194.105411398666 3.52041
195.115649509139 3.08246
196.052130053451 4.08787
197.128991528516 13.3303
197.18716190815 1.80732
198.013159451529 1.75738
199.148336986316 9.9914
200.103209308469 1.59506
200.147147379092 3.6204
200.208715833426 1.20201
200.54545266079 1.33229
201.125489491664 10.3942
202.109874003679 1.27854
203.034833992308 1.18113
203.143581614511 7.20217
204.04099968079 2.74658
204.082941700368 4.11908
204.133622479786 2.25054
205.115578584746 1.46443
205.161788732823 1.08955
206.087471336158 2.53273
207.082196913677 3.19956
207.136067228347 82.2679
207.267206127552 2.08449
207.323104311863 1.24367
207.569874686889 1.65934
207.753778575222 1.25746
208.037299429633 1.91396
208.082073928889 1.86337
209.132861212739 3.39805
209.163215160465 1.19575
210.058606352777 3.74904
213.129715520971 2.95123
213.173369268181 1.24596
215.139918593484 8.8768
216.101950899484 5.13006
217.098077266587 2.50809
217.15985951838 6.00853
218.057097184714 2.22944
219.063784107247 1.39105
220.047623794735 2.36198
220.127748025212 3.16485
221.135854980845 2.47436
222.093094818932 2.81504
223.146963402271 5.73223
224.074377605566 2.47127
225.126528125662 5.20328
226.070591641309 1.38773
226.122453610448 2.50086
226.165147268087 1.70817
227.142116321895 10.5527
229.151676476913 2.96262
230.064325416024 1.65724
232.078709365638 93.0484
232.179503911098 2.73701
232.233855247371 1.23189
233.093918736558 1.17411
234.095767416892 6.7291
235.137118367421 1.16984
236.068481321112 2.31353
236.134772661481 2.07955
237.158451118393 2.66054
238.083909856101 2.34655
240.143630332752 1.98773
241.15769802456 3.35678
243.128205869227 3.18218
244.070677958885 1.46384
245.151812512985 2.76253
246.097885598486 4.53735
247.145879471093 6.12863
248.152974902719 1.35731
249.153383581847 1.17189
250.086334576251 17.0122
252.116751983042 1.16376
254.180368358713 2.20248
255.178304490641 4.04894
258.182015089061 1.38261
259.16423788163 1.61698
262.092339382574 3.66823
262.151182169021 1.14785
264.174151501505 4.68261
265.159807466963 15.8897
267.130618443205 1.38991
272.197483518878 4.84932
281.146035093679 3.05593
282.091520215145 1.20239
282.184746497599 43.2386
282.300217122279 1.25554
283.1699728652 11.8031
298.15583170496 1.6073
298.313030198663 1.06399
299.206320724788 4.89127
300.195260600869 91.4031
300.275645733687 3.56087
300.353062492002 1.91544
300.401695475794 1.45404
300.437076856982 1.38507
300.754327508619 1.21941
301.071215459234 1.59575
302.456494278622 1.47554
303.136710667071 1.35206
314.156078641837 2.00509
315.139087372192 1.28875
316.1613094455 1.3838
318.197915469631 1.94878
324.143673270818 6.45927
325.188308709915 2.33835
326.168267155465 2.80418
332.123596962349 1.91476
341.127629316119 1.8213
342.152773910528 13.1464
345.243471366321 1.88502
360.160766211639 100.0
361.14537113478 1.09912
361.777939180577 1.18395
377.204011560843 5.37729
377.280169330854 1.17345
378.085270287591 1.83615
378.206108553348 1.5477
379.20610855335 1.0e-13

>collision 40.0
41.0393162361061 10.7397
42.0345473946878 9.80216
43.0190237527571 10.9878
43.0528387246065 7.64721
43.1679278796664 1.43771
44.0517181884712 4.52547
51.0268613855782 1.73898
53.0406100206809 6.91564
53.276096110909 1.19266
54.0332510297634 4.2242
55.0193004643547 14.4089
55.0544809311057 16.9909
57.0309177180334 1.32459
60.0805818039498 1.62174
65.0405835685434 2.11421
67.0539107264233 27.6194
67.4446499674224 1.22317
68.0125348734409 1.26038
68.0500388887496 5.69754
69.0341836864148 14.1179
69.0692368426739 9.44479
70.0307757290548 1.91552
70.0623763969813 1.77457
71.9906989760675 4.76086
74.0060863040976 8.47295
77.0383621306479 24.4232
79.0548058245606 84.4061
79.130390736732 1.58274
80.0497921764817 6.48219
81.0329115937033 7.12647
81.0702780694853 59.4366
81.1350906434788 1.23621
82.0643382814723 9.88964
82.1156777624855 1.82019
85.0120580312149 2.35374
86.0642153228855 3.56678
91.0544234590275 64.5153
92.0458043938606 3.60163
93.0355738100437 3.84115
93.0697132550731 71.4211
93.1555085246057 1.32587
93.1859959535481 1.28222
93.3205494963674 1.42616
94.0645637059452 21.0618
95.0842876086463 25.4206
96.0466035456601 10.5093
96.079034652622 5.69529
97.009773454291 6.38501
97.0629888852666 34.6021
98.0249329222784 1.20051
98.060016764589 7.81175
99.0285055089864 1.4291
99.9867384147212 2.94042
100.02183247001 5.5252
100.988947978427 1.45189
102.000902240287 9.71629
102.044934561257 2.54842
105.031929529499 2.17911
105.069745405258 70.0744
105.127223547789 3.32032
105.164448308021 1.31196
105.51898481335 2.1782
106.063624665814 1.61938
107.049476037012 9.25006
107.085307279389 100.0
107.152946922095 2.21435
107.180127659759 3.38688
107.339685321262 1.25108
107.518234153587 1.49185
108.077517501634 12.9004
108.250465250859 1.25675
109.00756633345 1.29476
109.064784480969 31.0062
109.136484307151 1.19288
110.060817472211 18.7659
111.033641851388 2.96744
111.078966149839 22.8503
111.128913282475 1.84944
112.020942926003 2.6826
112.075883561189 1.22131
113.003234490032 3.91377
113.034774186016 1.44496
113.998855734841 2.05911
115.05362317607 6.68141
116.013393821439 7.45566
116.06290698951 2.33777
117.068911515872 26.5111
118.064804406517 3.66702
119.08489449716 28.6014
119.131892279428 1.92466
120.041896491151 1.67762
120.083338890074 6.29765
121.021710160555 1.22339
121.064228689398 67.1269
121.097417776818 21.9359
121.160623883881 1.852
121.435315363452 1.27695
122.062896242071 12.4525
123.079419413315 30.3241
124.074342731233 4.80415
125.040219328658 2.33781
126.035647014102 3.87047
127.055111042002 1.56148
127.979254764046 26.3201
128.014921614233 5.96945
128.062839470284 7.71704
128.110278467513 1.24809
129.068954288873 7.46717
130.072145301418 7.67808
131.085522476464 31.615
132.083835176364 6.64969
133.096933250616 9.90646
134.088135327234 3.58266
135.089268045766 5.50673
136.076590984068 16.6907
137.043322207672 1.26038
137.092893001123 7.85486
137.131364585781 2.31999
137.998220157148 3.62042
138.051228397732 1.37359
139.022323097359 1.72757
140.016532783819 4.00941
141.07142813876 3.71912
142.024138844857 2.14709
142.078079699153 4.38818
142.698687378338 1.28395
143.084089125871 14.302
144.010532144224 2.35354
144.087585002661 9.11436
145.10052140967 27.0802
146.058711299147 3.32997
146.090901771521 4.59365
147.077881925216 9.58738
147.112872048197 7.72089
148.083984175822 5.48422
149.021226336162 2.82907
149.09279086648 1.46085
150.084967029586 3.28581
151.026046121538 1.96575
151.106962187285 3.63339
152.020038337371 5.96302
153.070945036141 2.48028
154.016716893142 4.08127
154.069200808751 2.02788
155.083712100319 22.2932
156.008849628104 7.76409
156.091896208775 12.1269
157.096714135749 17.5517
158.092979676672 9.42119
159.096063615425 7.05996
160.110654080442 1.77148
161.123067531002 10.765
162.091815709632 1.76395
162.126421635907 5.69429
163.052807193686 3.48054
163.111760579033 2.71528
164.052809612577 2.67004
164.107256324185 2.28663
165.067588146121 3.02661
165.127900116266 3.21546
165.166607431911 1.81242
166.081252413547 4.83012
167.082981078421 2.53401
167.353157426184 1.19362
168.084334695262 1.64083
169.101183736688 3.52385
170.102241463979 4.26148
171.11321920635 5.73336
171.267316066871 1.36955
172.111645654787 16.2775
173.097797564827 10.7619
174.109370241876 3.029
175.111937520986 4.5759
175.146083818032 1.41719
176.103153366514 1.53736
178.030511518224 2.80122
178.07487779719 2.72959
180.086119983869 3.40747
180.125701424564 1.22326
181.100867391085 1.4189
182.10812746304 4.0388
184.06846312277 1.31321
185.100750674159 2.90598
186.087516195586 1.88363
186.807178450293 1.30052
187.054197096904 1.19237
188.107330941571 1.57052
188.157206095519 1.31676
189.059071321069 1.25294
189.121735794949 1.41026
190.051001449475 2.18505
190.123531639908 8.19869
191.037499077304 2.72917
191.076613321026 2.16796
192.044801172178 3.95708
195.119683196652 1.39703
196.112838229555 2.81547
197.127324905125 1.7566
198.087674257156 4.68762
199.1044019156 1.49608
200.128722986516 1.75742
204.083328341974 5.46639
207.110052887201 1.27416
210.392628366996 1.19091
212.127081315298 2.3595
213.134533061439 3.28899
216.099409442986 4.08384
217.055718498941 1.77706
218.025291204057 1.72857
218.105203038401 1.58977
220.099393710464 1.66852
224.20570901631 2.35875
226.084149490583 1.4291
232.083372025206 1.92977
248.139535074206 1.98421
250.090208059695 3.45534
253.139182259755 1.20642
282.270720051089 1.22366
297.342578643849 1.19144
298.34257864385 1.0e-13

