>compound 1-Deoxynojirimycin
>formula C6H13NO4
>parentmass 164.091210815338
>charge 1

>ms1peaks
60.0451661414823 0.96223
68.049959236555 0.57443
69.0338743315647 1.4285
80.0500157663492 1.07498
82.0655015193934 0.857238
110.059905614066 1.33094
128.070549250705 1.10349
146.080748343197 3.45127
164.091452644828 100.0
164.208866326838 2.21434
164.243462612356 1.03198

>collision 10.0
41.0396081399288 0.662339
42.0353053887808 0.630191
55.054736325485 0.544037
58.065658762397 0.50528
60.0449437156206 7.37624
68.0496665364788 3.63213
69.034040671465 8.76154
72.0447629314053 0.688407
80.0499563258878 8.41152
82.0652664460496 6.33146
86.0599408863422 1.57761
90.0550241876146 0.733
98.0601947030524 1.29149
100.076320403075 1.02372
102.054643945057 2.92581
110.059864882224 10.0082
128.070589175896 8.20369
146.080693964941 20.852
164.091210815338 100.0
164.207795569365 1.77138
164.247290634926 0.828986

>collision 20.0
30.0335330249707 1.8466
39.0236298508896 0.75628
41.0394020824765 16.3953
42.0348721268828 9.51386
43.0186783473725 5.29433
43.0548987280655 4.58418
44.0504817907578 6.89108
45.0341138879835 3.05692
53.0394187889023 2.94046
54.0351088709099 0.593781
55.0191820322609 1.59114
55.0549767885163 8.64546
56.0507384894995 8.10729
57.034315984689 4.71169
58.0291269521783 0.699445
58.0658563037724 9.31439
59.0483786186319 1.36445
60.0451569608813 51.7832
60.1171171673701 0.864169
65.0395920818801 3.65633
67.0467228055194 4.94635
68.0500486789059 38.1889
68.1244945669985 0.622477
69.0339417810206 100.0
69.109483690196 1.74304
69.1318886854238 0.975648
70.0657967114795 2.67555
71.0495678809749 7.76892
72.0453670146827 6.37352
73.0290390131682 2.32974
74.0588229630551 2.05257
80.0498262686781 81.038
80.1315272900104 1.30144
80.1546891203402 0.699553
81.0352929486506 4.50465
82.065460343673 67.7348
82.146975374713 1.01463
82.1757957387803 0.543198
83.049543419608 2.74387
84.0450078814678 4.0087
85.0316398209406 2.29683
86.0598393973861 14.8011
87.044441883964 1.88377
90.0551274785853 3.03569
92.0496616126956 8.37574
96.044763341559 0.752796
98.060197546236 9.46104
99.043899982391 1.45346
100.075310818305 7.77419
102.054745688331 16.0868
110.059819835069 43.0474
110.153970322421 0.793309
128.070399860951 23.3295
146.080556260599 28.4968
146.19148632053 0.572422
164.091203926485 34.2493
164.203247226687 0.523429

>collision 40.0
28.0167704106373 1.70786
29.0379357580528 1.3123
30.0342025693521 3.37648
31.0172919682706 1.48856
39.0233847489062 19.3958
41.039409302177 100.0
41.0834224016476 1.71522
41.0985857821978 1.58176
41.1163863351056 0.605965
42.0347005236057 33.5578
43.018960987493 13.5179
43.053378156614 8.64158
44.0138110218037 1.91524
44.0502713670933 21.985
45.0345166410624 9.24365
51.0234357698331 0.959486
53.0392541805976 38.4555
53.0915557271528 0.709906
53.1067860463388 0.533892
54.0345049822244 4.75403
55.0187527009236 8.76773
55.0546112655621 28.6521
56.0500440831987 29.9684
56.1191573242915 0.577467
57.0342507793998 15.7059
58.0296692818569 1.88738
58.0658984691295 19.5801
58.134935775916 0.503229
59.0382786970267 3.18739
60.0449922889158 20.559
65.0391818543287 17.7378
66.0370702498662 0.896152
67.0423407560071 41.169
67.0982100985889 1.05405
68.0497639688656 68.9256
68.1251353315344 1.28455
68.1492684549672 0.686155
69.0339143006475 60.0223
69.1095322172876 0.948883
69.1302475867964 0.580384
70.0646499031356 5.26593
71.0488893733525 5.10044
72.0449255255607 3.39575
72.0795338923625 0.709466
73.0290590930326 2.06747
73.0498054002556 0.76972
74.0619987082366 1.61443
78.033327446405 3.37167
80.0498785329005 78.6088
80.1311204438083 1.39251
80.1801002729908 0.501885
81.050220248973 3.15066
82.0652107605182 26.5659
83.0484329849323 1.03415
84.0442255589555 2.65726
85.052501380336 0.898994
86.0584541456304 3.15616
92.0489184451347 4.99809
93.0538875613713 0.606225
94.0296332474413 0.590361
96.0447668740981 6.60854
97.0519556761912 0.606115
98.059281388262 1.55986
100.0751338474 0.626318
108.043728163018 0.747578
110.060086311381 1.5585
128.070566310095 0.541552

