>compound MK 571 (sodium salt)
>formula C26H27ClN2O3S2
>parentmass 515.122335808485
>charge 1

>ms1peaks
100.079143903831 0.821164
310.034787148408 0.520489
382.065476085483 23.4407
382.246061753926 0.525901
382.781701498999 0.526183
383.056457059045 0.533123
383.290958991666 0.580192
409.113495919921 15.1647
410.115662656735 0.770554
514.2167811251 0.60151
514.377927383023 0.623978
514.960417808247 0.764771
515.122810564152 100.0
515.427913098134 1.16395
515.49204891159 0.832204
515.643413565577 0.992975
515.952873238561 0.905024

>collision 10.0
72.0457728931665 0.88236
100.075641926041 9.52459
278.073623276022 2.80927
294.067398314346 0.702894
310.046732604021 2.77589
366.068619602246 0.865171
382.065519827452 100.0
382.24052079521 1.36194
382.303986131978 1.0649
382.366128526942 0.681919
382.82872082926 0.638268
383.071615723567 2.06235
383.145876349611 0.613018
409.113852280434 54.399
409.272093170185 0.834342
410.104943060289 0.540753
515.122335808485 35.6029
515.406233805636 1.00738

>collision 20.0
72.0455647323968 1.82772
100.075466864301 35.7504
100.166324444347 0.575085
266.071267845367 2.76026
278.072894257839 7.13116
294.068908650238 7.85164
310.044479004999 12.1129
321.115685054048 0.542049
338.075140456527 1.9872
364.053562939756 0.513777
366.071956416885 1.71768
382.065924047061 100.0
382.299165435048 0.866555
382.385342110908 0.658176
382.467244451027 0.55064
383.065503687583 1.94392
409.113663122872 25.0766

>collision 40.0
55.0183060837186 1.0917
72.0449348517925 33.7176
72.1222505491794 0.527691
73.0261844073459 0.665756
89.0057660905399 0.529521
100.075590241912 100.0
100.201704522901 0.651512
103.052593320713 0.683048
161.040842864824 1.10111
162.009938227634 2.09642
176.021395663259 0.528901
187.019194323124 0.595086
205.032587037856 0.604159
230.091758283665 1.1132
231.102631147895 1.05248
251.048415579438 4.36353
264.055718637474 2.58431
265.065805685066 1.3694
266.072887914497 69.9623
266.220937163153 0.963245
266.263695897608 0.506598
267.075988735414 1.15221
275.056640467012 0.644279
276.057764231903 3.72643
277.066165774764 3.81344
278.072289124409 11.3137
279.081033778616 2.33481
294.067612570823 55.9186
294.220214378672 0.828986
294.282298819948 0.503771
295.0505239957 0.627718
302.076283400567 1.14699
303.077913624536 0.859673
304.088784804388 4.73288
305.095092561506 2.40986
308.029342392177 1.28824
309.036378150298 2.44184
310.0448570919 96.8685
310.202675527922 1.44599
310.261775134759 0.831967
310.480180207721 0.526189
311.043482426912 1.32223
321.112056148529 1.12462
322.044187833019 2.50544
336.062597463684 1.34976
338.076759321615 15.9465
350.093308257386 2.01232
364.054936729363 1.72419
366.06996438052 1.27363
382.065517231931 28.6762

