>compound (+)-Abscisic Acid
>formula C15H20O4
>parentmass 265.142721524045
>charge 1

>ms1peaks
97.0276214204932 0.557408
113.059458255428 0.727446
149.096548750937 0.626735
173.131870905197 0.70494
187.111963527792 2.19699
201.126465550512 3.64924
203.143469132297 0.900668
205.121305611272 1.83128
219.135735812739 1.75424
229.121920526734 9.12126
247.132858949192 100.0
247.31976164289 1.00146
247.354629950107 0.742717
247.416816590103 0.555586
247.465120961237 0.508132
247.709849859732 0.566894
248.050674866579 0.54286
265.142721524045 29.3529
265.290167015476 0.520442

>collision 10.0
43.0197648343574 0.827025
57.0691593848498 1.34894
69.0339947496095 3.27501
69.0701963186072 0.566198
81.0679399150698 1.0861
83.0493668070783 7.78659
85.0677533454665 0.625779
91.0540083455069 0.760535
95.046461192476 0.819704
97.0283294338603 3.07312
99.0440157062852 0.574534
107.085112292871 1.82863
109.028844536069 4.38184
109.063447030119 4.17064
109.091269016567 1.76429
111.043832823184 1.60865
111.078096059208 0.826279
113.059661727526 1.39974
119.084810755715 2.08201
121.065249728635 5.74493
121.099160237513 1.76448
123.084479837278 0.575255
125.097237469211 0.837865
127.070463769011 0.825244
133.066342572387 0.709124
133.101858651784 1.32759
135.079897072721 10.1848
137.05949342605 2.90998
137.09596800646 2.31844
139.076791996875 0.946118
143.083612197428 0.5101
145.06073432722 1.16638
145.097874117478 1.20005
147.078659184069 2.43464
149.095630110782 8.8968
150.102655521924 1.68502
151.071623898072 0.887473
151.111334579932 1.45384
153.07934721809 1.14437
159.115810039025 4.80917
161.096266323651 1.68403
163.075586570164 12.8148
165.087813267183 1.36078
169.101007184237 0.65203
170.10806593529 2.10238
172.083690400887 0.554171
173.127788095901 12.9074
175.073964426967 0.551471
183.11461813692 3.22807
185.130581456356 2.72935
186.101401618058 0.89534
187.111241343816 39.65
187.234411829144 0.708971
188.110681274532 0.509374
189.107225276164 0.748203
191.069212684161 10.6562
201.127381552513 57.0002
201.254974791134 0.580283
201.295548839543 0.524456
203.140081897848 2.4696
205.12152692301 22.223
207.096385341679 0.576784
209.082265486509 3.03067
211.111970259807 5.50188
214.095465116198 0.555086
219.13825665286 14.8333
229.121576391465 82.5359
229.263759418073 1.19822
229.298431220097 0.68146
229.332305532564 0.504201
229.567232099548 0.769527
229.783404413425 0.549396
230.122949290416 0.610157
247.132601906756 100.0
247.322709302765 0.737716
247.417854547362 0.635853
247.605641094176 0.686892
247.778170820066 0.539583
247.869844398461 0.519151
248.133221927969 0.570922
264.15014715551 0.78358
265.147603368252 2.00231

>collision 20.0
41.0387301008589 8.28518
43.0191134830797 13.7782
53.0379407895483 4.00367
55.0207002586346 2.88017
55.0550013204138 5.99324
57.0715380894215 9.64666
59.0491072951425 1.5838
65.0371249169902 1.51053
66.0457727194673 0.711648
67.0541474239118 5.79436
68.9962602884119 1.38253
69.0350972242396 16.0019
69.0645387790276 3.72454
69.0942670087242 0.685069
70.0284592577257 1.07652
71.050711108749 0.957013
71.0820528449569 0.788147
77.0374742912238 2.6316
79.0199584039193 0.602169
79.0535222727925 5.57691
81.0715181724225 7.3998
83.0496043222467 20.7138
83.0829094598903 4.20254
83.136174221185 0.773077
85.0293905026732 1.21947
85.066777161465 2.03226
91.0550473515467 8.9588
91.390682400452 0.626006
93.0308663179362 4.18718
93.0696797437741 15.2371
95.0496950762546 3.02348
95.084582085122 2.05348
97.028661148041 6.14338
97.0657141348496 4.2335
105.070576962279 10.5309
107.049224973367 0.796701
107.085802582872 27.4072
107.247166184749 0.616021
108.054743828659 0.664121
109.027808089898 19.6748
109.063170075912 19.4551
109.100759023651 5.80732
109.162963729382 1.13561
110.098220490823 0.7521
111.04588939789 9.66695
113.022918360175 0.746357
113.05830051949 1.89852
115.055140588364 2.25853
117.06786052332 7.1466
118.309546224373 0.615923
119.085013474941 12.0394
119.138734233707 1.11979
121.064545499098 63.5808
121.095483819919 15.3049
121.190007844854 1.08561
123.040858733889 1.09198
123.081283443323 3.58434
125.024897573407 0.671265
125.096273412686 2.61538
126.060376356349 0.661066
128.063416203575 0.726876
129.066677752614 0.73322
131.085007342429 18.5662
132.052493899863 2.32778
133.101595118861 10.5579
133.161935486558 0.645181
135.080024684805 92.5069
135.188226285992 1.65694
135.233767065799 0.828471
135.278323869825 0.778128
135.368458577349 0.618854
135.537887425043 0.793442
136.086478452368 1.54758
136.112415504055 0.634707
137.059927006395 7.74788
137.096021882507 2.85425
138.06534657318 1.41616
139.077763268241 0.788147
141.071145469131 1.42762
142.075057089918 1.52615
143.082045244402 5.35806
144.091416618705 1.81046
145.081511272506 11.248
145.712676690831 0.647538
145.74117263911 0.616048
147.082604398917 5.65081
149.093958303921 18.1509
149.166774167241 0.604124
150.10072076748 2.7499
151.074440812528 3.55956
151.111044090915 3.32861
153.093247353452 5.20982
155.085868536962 3.75035
157.098883763949 6.88689
158.108269514742 9.09804
159.114507538289 41.776
159.202389054492 0.647538
159.274816244839 0.637427
159.60831187285 0.84519
159.677889263307 0.587506
160.089794189404 4.59417
161.094684429808 9.81433
163.077317699947 55.0889
163.190516454934 1.15751
163.22407655843 0.692103
163.32187536086 0.634184
163.499876282476 1.01007
163.564820421202 0.636505
163.766887834577 0.885432
163.860880234825 0.689171
165.092022862713 3.77553
167.080186600864 1.03764
168.093030653799 1.14809
169.088152219977 1.13031
170.10990277402 11.8156
171.077231758294 1.5262
172.086747217188 14.8067
173.127600976119 66.7064
173.305143164902 0.744833
173.354351489224 0.587797
173.465246599084 0.833137
173.618092147135 0.868795
173.680747161755 1.10009
173.770602001817 0.649458
174.001589187741 0.593074
174.601128069313 0.76432
175.109996434287 0.865496
175.150981694527 0.704702
176.084967096619 0.885787
176.121077446975 1.10157
177.082290758595 1.88045
177.127502416545 5.39124
178.074912409773 0.733268
181.082753083122 1.393
182.905121647575 0.813023
183.116432567823 10.2874
183.872393416672 0.968016
185.132034244671 6.19715
186.103125312277 27.5865
186.194880399623 0.763986
187.110920388709 100.0
187.207742807103 1.84525
187.288275399588 1.1164
187.350357131272 0.630685
187.439200394451 0.902726
187.583802894197 1.29041
187.697361974889 0.733771
187.959623635178 0.630577
187.997581216336 0.664034
188.10804433361 2.59886
188.16288013551 0.866107
189.104032965137 3.11312
190.103754765498 0.806738
190.527737802494 0.713477
191.070172254556 16.6867
191.144327875372 2.69972
191.19745329178 0.655079
193.101785404073 1.90761
196.083594713808 3.55222
199.065780497666 0.718594
200.139292914575 0.803617
201.12673453186 62.8531
201.246767524851 0.807698
201.545433361946 1.01443
201.715228916773 0.744891
201.845537485596 0.749656
202.306950109369 0.598525
202.973264133186 0.63078
203.137170851028 1.17423
205.119959184004 10.7455
207.126019793253 0.88043
209.080349233086 1.4077
211.109690624707 10.0821
211.157504915908 1.05086
214.095579568163 2.34223
219.134902081385 13.8159
229.121573505365 34.911
229.730477809356 0.638696
247.132981201178 16.9139
264.168502144676 0.801267
265.147102072854 1.17595

>collision 40.0
35.3913197514373 0.824445
39.0241062156701 2.22159
41.0395612725647 20.0193
41.084797681648 0.682718
43.0181387367662 20.3209
43.0541257828219 3.91635
43.096146703307 0.619244
43.9342534934134 0.629664
45.0339162283117 1.0308
51.0217049734949 1.48108
51.1978299338452 1.52668
52.5486009372207 0.74134
53.0390441686668 14.0264
55.0178141164241 7.26783
55.0548814789732 21.447
55.088205958496 1.18798
57.0704657559958 8.59898
59.0493284232075 3.13634
65.0391977537504 10.1187
67.01685832885 0.948012
67.0554625864493 12.3744
68.0248244649653 0.658223
68.9980366386925 8.18799
69.0327237634909 8.67874
69.0711409671353 1.35063
77.038982049029 22.6299
78.0479626112681 0.660818
79.054918547434 23.9849
81.0702496262517 6.91061
83.012447396321 1.59048
83.049954842222 14.5415
83.0828038154048 2.29731
85.0279665601602 2.40637
85.0672836739616 2.52835
90.7518986578757 0.70248
91.0539446862761 100.0
91.1399627029432 1.45249
91.1820059136895 0.946563
91.301445055094 0.801186
91.4015317297047 0.656803
91.4993206625585 1.12864
91.6470871285185 0.978959
92.0578396607874 1.03324
93.0698586502265 35.5144
93.1601506263073 0.647551
93.3947540718107 0.6682
94.0439992977568 1.16788
95.0503296036182 6.6441
95.0850953505696 5.34642
95.5100951465373 0.667452
96.0850052883923 0.95606
97.0264253562307 1.09995
97.0676981629918 2.42829
103.05247323348 6.73999
104.063079275527 1.53956
105.034882622752 1.58338
105.069870694682 43.6369
105.16713080379 0.754295
105.191142977444 0.748691
105.535966163981 0.646279
107.049350766154 6.16444
107.085158863162 31.4455
107.394354522137 0.830112
108.447558019543 0.778906
109.026642390459 3.00375
109.064426131608 11.2794
109.098750847285 3.53468
111.05762202992 2.75061
114.497226593813 0.651579
115.053846470174 12.6623
116.061247772179 6.60259
117.069588170172 18.275
117.360257959944 0.90867
118.942163749482 0.617472
119.048604810231 2.80511
119.084683584337 21.8517
120.103591969542 0.819524
121.063028705016 18.2282
121.468990726491 0.717794
122.074358455451 2.53848
123.080268874479 4.15675
127.054250716122 3.69105
128.059867808617 12.4189
129.069762063443 27.0674
130.07691176147 8.46004
131.084829185331 10.012
131.483063821034 0.768622
132.053707019324 1.14662
133.099900076729 4.62662
135.079700175908 36.9452
135.181328214928 0.73317
136.085312470719 1.60828
141.067947458793 4.74843
142.076261995713 3.70002
143.08535476919 32.0449
144.092143061326 15.8214
144.173778333169 0.660273
144.689120880934 0.661616
145.064301379849 6.92646
145.098431935129 7.70521
146.070214334062 1.82343
146.381504010894 0.752332
147.042945103148 0.899303
147.08261257027 1.10352
148.086030860994 1.64164
149.09734665693 5.1446
151.105697045977 0.624679
152.063864645942 0.839926
153.07047655616 6.33539
154.073926536849 1.58927
155.085618506696 4.56467
156.0917806321 2.53305
157.070168400138 5.08425
158.070463798653 6.70668
158.109883835783 11.4757
159.107696062277 6.88095
160.088622423078 0.688897
162.098188335682 0.672733
163.073419147123 1.03839
167.081483006121 1.29582
168.093782794378 3.06388
169.103799006584 2.01832
170.082949211587 1.41767
171.079847271226 11.6351
172.085150777801 10.9631
173.101687061471 4.45503
175.075240725554 0.995781
178.071925542339 1.05899
181.056947789301 1.19512
182.085309672062 0.950041
185.097577120206 2.82054
186.102390431217 13.5893
187.110093337548 11.5226
191.072703865243 0.801215
195.078785538725 1.46634
196.087416882203 3.55586
197.08888305655 0.93149
197.146004598689 0.682112
199.078206280695 1.27397
201.123644970159 1.54754
213.091340886886 1.2398
259.916095923959 0.741058

