>compound Pterostilbene
>formula C16H16O3
>parentmass 257.116443335206
>charge 1

>ms1peaks
111.045936843623 0.553762
133.061091120927 0.516249
239.136159427577 1.36563
256.150747032367 1.35577
256.26663862259 1.22849
257.117054804912 100.0
257.304532538062 0.922635
257.397035929629 0.533758
257.449248269661 0.650085
257.528616471302 0.515818
257.600421739973 0.622572
257.697968504728 0.659289

>collision 10.0
89.057640033678 0.688129
105.06954468169 1.01842
107.051054238506 0.889204
111.046712446275 0.998868
119.047337894054 1.0085
121.062659237923 0.594545
133.06516406209 5.72204
137.058168370856 0.746179
145.067471742269 1.04993
149.061405200147 0.526912
151.071025104082 0.538156
159.079737277099 0.707943
163.076434934577 0.804268
197.096911522063 1.53563
207.079025101801 0.552308
225.084779366157 0.719635
226.098513812997 0.662334
239.144941373318 0.642162
240.144541635877 0.637169
242.088841144552 0.650855
256.26155812165 1.4143
257.116443335206 100.0
257.262735073409 2.33828
257.309780520433 1.02726
257.387931496861 0.641536
257.418426166006 0.586015
257.556976145543 0.704045
257.923682565695 0.551601

>collision 20.0
43.0170261813744 3.02431
45.0338158471468 8.6601
45.0537250784048 1.38565
46.9864643784919 3.09845
55.0190812478275 4.09789
57.0699321533894 2.44508
67.0573088556634 1.76528
69.0690864661571 2.34832
79.0533643979423 2.17919
81.0318744492556 2.27507
83.0468865174724 3.62787
85.0641100122781 1.9777
89.0603334889579 4.31761
91.0538260899394 27.6207
97.0560431292318 1.55319
97.1002078133872 2.06323
103.053180945419 5.47281
105.032279247581 1.9024
105.070999422659 26.4349
105.132613793934 1.40625
107.049437507161 14.392
109.059640949744 2.79156
109.104003183096 2.35196
111.043199700913 14.0459
111.089524418877 2.22671
113.064705999377 2.84682
115.051338811427 1.99032
119.050001129638 28.4278
121.06435307398 22.1763
123.038574586926 1.65673
127.03728519533 2.37985
128.059113316129 3.65981
131.072666445212 1.38427
132.059113131535 1.33181
133.064419636887 74.0855
133.166560741456 1.529
133.790661323649 1.38977
134.034494949155 5.56002
134.083411495084 1.38592
134.623455551176 1.5333
135.078172309696 8.16282
137.061080809989 19.9492
138.064749132841 3.37058
139.075132430514 2.31614
141.067907109256 2.93413
145.066655473883 12.7073
148.053986592133 1.6244
149.059678385933 10.0507
151.072106782177 10.1411
153.070430601383 1.45827
154.076941788957 1.81886
157.066059874171 5.50586
159.08175861353 7.09392
160.046533303949 1.41723
161.095368250102 1.31836
163.074898415962 12.8138
164.079548823942 8.35896
165.070650343479 3.23409
167.082274979656 3.59252
169.058961941896 1.3851
169.097988712014 2.71404
171.076959076214 1.94606
175.132666807314 2.46189
177.070594216989 3.2814
178.71030901585 1.62158
179.087468968797 5.50139
181.060220332417 5.62361
181.092601928319 3.42772
182.071369773826 10.7158
182.13257188978 1.6037
183.078467151532 2.44208
189.047874652668 1.35955
192.051953317158 2.77382
193.067333416904 4.30713
194.074487604734 4.81492
195.082356339557 2.30877
196.08745819447 5.29852
197.094154568603 18.7006
199.081426937559 3.66282
208.08068166917 2.58911
210.069138540953 13.5098
211.087723604821 4.71999
212.08280948676 1.48397
224.084333038002 4.43814
225.090918695078 29.1485
226.100669581372 12.5273
227.072879676592 7.31088
228.078449816089 1.81285
229.116960329383 1.57412
239.120196862637 2.81302
241.082007947566 3.51786
242.093225048182 34.5908
256.267441222332 3.65483
257.117834580865 100.0
257.260331957906 3.88596
257.60721365406 1.53444

>collision 40.0
32.2778762634023 2.384
33.3347894927033 2.10616
41.0394567018487 5.02257
43.0173522818531 7.54828
43.0553012291979 4.09191
45.0347437436809 13.9064
51.021128231827 4.99646
55.0193567302397 6.6737
56.0506696166973 2.04778
59.0117037415778 2.54569
77.0385480427834 35.8052
79.057026955049 13.4551
85.0278828512857 2.14704
90.0492598817084 5.91297
91.054234946794 42.0689
92.0602254523434 4.12339
92.1083205231588 2.21253
92.361301265004 2.05343
94.0413317875776 4.93256
103.053713296634 11.0222
103.397819547583 2.95461
105.037105973829 4.39996
105.06852733334 24.3388
107.049583563762 46.3399
107.970222327084 2.19823
108.057523847264 2.04459
109.064356356253 9.36022
112.048048238984 3.02304
115.05525385039 5.77781
119.046825136781 7.10001
120.053447053541 3.4392
121.061743475315 11.3047
123.080289627871 3.1985
127.053756218933 5.93544
128.061017152406 12.6255
129.067974326876 5.38156
131.077520461219 4.97691
132.057622652568 6.11111
133.02691405907 14.5986
133.064516782948 6.47813
135.045395591422 5.99359
135.087619815386 3.11955
137.05932332538 8.22435
139.051045971457 5.03332
141.070236170385 5.55382
143.083830041113 5.16512
145.063331019087 2.99021
146.074859736279 2.9655
151.052001668789 5.56773
152.058547951056 13.8546
153.071489514539 35.1422
154.079748073065 4.56252
155.083455140001 9.4073
157.065324191614 8.61251
162.061725665865 2.76288
163.067901549697 2.0782
164.056913350111 3.39639
165.069894545778 59.9596
165.612876282184 2.15841
166.075336725097 7.39853
167.088010003797 5.89898
169.066251880385 6.80416
170.069386918024 3.40383
171.08031713122 22.5908
172.289848379441 2.1072
176.06280704143 2.58494
177.06695937137 4.90754
178.079686460782 3.43198
179.079596335563 3.45355
181.063615490942 100.0
181.192425047698 2.05822
182.074007184821 14.9896
182.176484006689 2.98222
183.076871215548 24.157
184.054985968006 4.56071
185.064230159001 3.58325
187.07967568927 2.20186
189.396706550542 2.42901
192.051950788418 5.16297
193.062812235633 5.28568
194.071265307819 8.98865
195.086068216884 4.19231
196.078300536081 3.56246
197.089817924262 5.70826
198.069100475345 4.93895
199.069098447622 23.2008
205.063748544552 3.1805
209.054913235227 8.40819
210.069074941181 9.77773
211.075161608406 27.9546
212.034585626559 3.3685
213.092689238639 7.83244
224.077647144106 2.74907
225.090069558008 5.15881
227.074111505384 3.08566
241.078702429425 5.57969
242.09317327319 2.35151

