>compound 17(R)-Resolvin D1
>formula C22H32O5
>parentmass 399.21419801769
>charge 1

>ms1peaks
165.050761573512 0.808818
381.202357748893 2.12537
398.285988155355 0.556674
399.214401485909 100.0
399.394042282865 1.97643
399.454814422548 0.887405
399.68726511824 0.551141
399.887213956791 0.527902
428.88721395679 1.0e-13

>collision 10.0
165.051418818596 6.06954
296.294754105445 0.782715
363.193229958397 1.25109
381.202911568829 12.0089
398.291113013357 0.635111
399.21419801769 100.0
399.393964632706 1.85275
399.44955253167 0.989109
399.547750795852 0.601093
399.627792651154 0.585806
399.800657155999 0.528458
428.800657156 1.0e-13

>collision 20.0
165.051583273825 30.5827
199.073639286236 1.04659
204.075879375804 0.925505
268.13929781882 0.695277
271.133162513575 0.77576
283.127295019917 0.62739
285.14516179819 1.69259
296.295676571202 4.20474
301.138198909022 0.746152
329.133756576437 1.95698
330.144973910639 1.78145
363.190852305256 6.56449
381.203814328475 41.6415
381.383612196498 0.656468
398.287345555828 2.4766
399.214386626168 100.0
399.465798955093 0.810694
399.559741135445 0.668186
399.663073307947 0.778668
399.820371651404 0.566882
400.105269449778 0.515307
429.10526944978 1.0e-13

>collision 40.0
38.3895438588223 12.1414
43.0550864791424 41.5708
45.0333615293539 21.203
57.072049740606 100.0
58.0652781416294 12.6775
67.05560258736 10.9542
71.0490561039263 9.93164
71.0859278088507 26.2709
81.0714522722271 20.8877
83.086520553481 30.8669
85.0985186427468 11.67
94.0214837677105 11.0828
95.0864568836633 26.4193
118.064729719909 20.6066
121.018646097939 10.2489
150.101103082805 9.93198
157.102525748277 15.5416
165.045809385844 39.4573
173.132674992288 12.6694
175.073708954089 13.5845
177.08744331237 17.9039
207.112232248736 15.7508
216.143172964036 11.4268
236.577263144327 11.1568
244.13542313839 10.4991
254.249757458576 12.5606
268.15245928015 13.1068
296.297114574681 61.845
398.277574769565 12.376
427.27757476956 1.0e-13

