>compound Bisindolylmaleimide I
>formula C25H24N4O2
>parentmass 413.196973938781
>charge 1

>ms1peaks
342.122897385014 1.55136
413.197209239654 100.0
413.284435168283 0.997934
413.312109100647 1.17064

>collision 10.0
58.0653349667285 2.09578
86.0965768739478 1.35446
130.06474391403 0.818989
225.066882894855 0.525515
340.107393820959 0.602991
342.123031348092 9.77262
368.138517072372 1.07499
413.196973938781 100.0
413.311833477653 1.08426

>collision 20.0
58.0653277604915 26.3922
84.0814169492063 0.886631
86.096668638106 12.6724
106.065326113492 4.20228
118.063550105019 0.717938
130.064880115209 10.9964
144.079447834838 0.521812
154.064346204495 1.20037
182.05961398619 4.59885
213.065534756409 2.73782
225.065612602292 6.67801
237.064194688643 0.609429
249.065537619172 3.99878
269.106591523109 1.83032
271.122824695644 1.53662
297.10108261489 2.94163
297.137015181013 1.05072
299.117135760668 2.76379
310.096755863678 0.508114
314.128562563429 5.42355
324.113240381327 1.28681
325.096270332232 2.75723
325.131691260166 2.16564
327.099592618684 0.569859
340.107531483168 6.66874
342.123434275364 73.9603
342.229471740724 0.608107
350.129752994861 0.824004
351.112871478984 1.32436
368.138664193287 9.40296
413.196689568526 100.0
413.285085209201 0.660865

>collision 40.0
44.0496488863084 0.996197
56.0498499083597 0.602196
58.0653971982975 100.0
58.098456346714 1.4053
71.0734610762991 1.18178
72.0810619394773 0.58975
77.0388791007534 1.23182
84.0810021416856 1.25736
86.0966518055216 29.3962
103.054367089195 0.919895
104.049279728737 0.545541
106.064979610753 14.7621
118.065015167185 3.17723
119.072592405999 0.84168
120.078498915804 0.555886
127.053733334998 1.33913
128.04913345827 0.760848
130.064939199203 37.2682
142.065137055927 2.75674
144.079804077329 2.3038
145.075296944685 1.39398
154.064514329083 27.5625
155.061030738341 2.04686
156.080821576692 1.31023
166.064760886872 0.880591
169.075085146197 1.38202
170.059740782925 2.83456
178.064331012259 1.17195
179.061234102659 0.817892
180.081743878504 0.694578
181.075655185667 0.696464
182.059689932656 32.7654
183.054363463261 1.2465
184.074896386185 0.696718
191.05906886008 0.74045
195.088920119816 0.750448
197.070165827478 2.79973
198.054567558019 0.649766
207.05459734401 1.62093
208.074079028668 0.72363
213.064905547046 1.84312
223.04985132331 1.13353
223.085157989855 0.728659
225.065423175291 11.916
237.065223950256 1.2089
239.079840370817 0.870336
241.086668272703 0.575478
242.097012051066 1.74218
243.093454709797 0.567371
249.065835755026 12.8443
250.073957753858 1.48115
251.081848704148 1.3303
252.078950927776 0.616721
253.088105397062 0.583618
254.094736580246 3.88524
255.099395073693 1.09941
256.098895811598 8.88
257.108155503877 0.649422
263.082070585493 0.997566
266.083226476818 1.35045
267.090988481095 4.18462
268.099156069654 9.73843
269.106882052239 35.7272
270.114451828187 2.45801
271.122518738394 8.33781
275.081482720392 0.625051
276.088792789079 3.70882
279.091714473487 3.01372
280.097778496682 0.891964
281.107977290681 2.57932
282.113283056299 2.46135
283.115768409865 0.751478
284.098353564705 0.952547
285.138610166759 2.24377
292.087622863746 1.84675
293.095714178552 1.19829
294.101896606647 3.26304
295.121716041094 5.66067
296.125400832535 5.40481
297.10210172588 21.4303
297.137148640353 7.44593
298.125041660397 0.886034
299.118184771922 6.63888
307.119591011487 1.16223
308.09223083217 1.36133
310.095946369626 3.69545
312.114050083345 0.873538
312.148241584717 1.89983
314.128123945229 4.72349
322.097763508906 1.89332
322.130124776861 0.598918
323.092159352745 2.01973
324.112543918552 4.44928
325.096967289597 4.96586
325.132859396175 3.20342
326.092439169014 2.33109
327.100472625865 2.38556
338.092322483064 4.1261
340.108108014398 7.32432
342.123506125691 9.42091
350.127196823829 1.22635
351.110670096678 2.24014
368.138463158599 1.66744

