>compound Ouabain
>formula C29H44O12
>parentmass 585.290504931752
>charge 1

>ms1peaks
337.172083253932 1.00476
355.184937542386 0.843328
367.194181132123 2.97213
369.212351284838 0.765322
373.201658234768 3.68143
385.19673258276 5.18174
403.212153032872 6.51588
404.174634001955 0.724844
420.697963110718 0.785012
421.215860126224 1.7208
439.23340875106 4.7332
448.889676108251 0.988963
512.815804418185 0.697345
549.264938749988 3.16111
567.273285749675 1.81466
568.249386641044 0.941682
584.476792847777 3.66667
584.819430588024 2.13973
585.291892741685 100.0
585.478584626893 2.23656
585.805496800653 2.25119
586.063358451538 0.686347
586.2518544856 1.17267

>collision 10.0
101.057062434765 3.16865
129.051563265499 14.9514
145.103259904909 5.44586
147.067673815195 2.96429
157.099366439263 6.94115
176.939581793077 3.84914
193.079914128526 5.32866
199.112201021118 7.05655
257.249018805752 4.07825
319.176038030067 6.45353
337.179885039703 19.5894
339.198440412885 10.4481
349.172780968156 4.19988
351.184405146654 4.33032
355.188362444414 54.6553
356.168996681577 4.16221
367.191300065038 7.47957
369.211451866502 5.90482
373.201253171764 20.9687
385.02385837892 2.77194
385.199330704042 51.9043
403.208641171255 79.4868
421.225693694263 28.1698
439.234455559574 34.0555
441.226746844212 3.68648
465.224624230745 4.0185
477.225475659965 3.15991
501.243612864868 3.37216
507.151646221482 5.83381
513.237016966021 6.49745
531.251137652427 6.90726
545.935850776639 2.89496
549.268048188293 17.7955
567.282893238308 10.537
584.455871902261 5.5142
585.290504931752 100.0
585.468970061645 5.06002
585.819900480655 4.29264

>collision 20.0
45.0341837740211 22.6852
57.0717704729491 18.7987
71.0485363040697 9.09942
83.0507801391262 14.3383
85.0281735568448 37.136
89.0595492611128 12.5702
111.119215235907 11.4986
129.056026794215 34.7532
131.080273948274 6.84962
157.102359175069 44.8025
159.068743008764 8.77209
161.096206255452 14.783
183.09923438416 6.33417
202.076266351464 6.5481
220.113335022457 9.91134
233.147947383963 8.10853
239.149518110221 6.45478
257.250015681289 16.3041
259.156066761695 8.53007
303.169703443584 9.52868
319.174253595144 46.9085
321.184450461079 6.15821
337.17855552123 40.9085
339.19420076722 26.2369
349.182515283885 31.8767
355.191785075767 59.1453
367.192222492323 80.5799
373.198223766714 29.9318
385.201579868037 100.0
387.217531318284 7.91489
403.211959953905 91.206
421.222487626318 15.3988
439.229148765909 28.12
477.247312585996 6.34609
584.48287429387 9.96634
585.303919451093 9.58357

>collision 40.0
40.9627935127115 46.4925
43.0173064194523 64.6354
57.0725899578857 61.8232
71.0516542593158 63.5072
85.0236668245843 32.1176
85.0677054472204 83.7568
89.0655006899656 42.9357
93.0695751076097 100.0
95.0422739901184 21.0783
105.066796720336 26.5158
129.068598301272 56.7174
131.084417018069 45.8197
135.081578547711 28.0807
141.07395941325 27.2614
153.05267240626 36.969
157.103239675809 89.3299
159.115038896647 45.4536
161.099466856939 29.475
163.081210271121 24.734
169.102884994974 69.4673
171.10185685115 20.379
173.092499126995 24.537
180.092741255377 30.902
181.101184868309 26.152
183.115069630564 32.3647
187.109061837065 74.6353
189.090841773996 50.8625
191.111681916984 21.2118
195.124168491586 38.292
199.111833491455 34.2684
219.101842028965 22.0271
221.129116627293 27.2827
233.133386942027 27.8538
245.128339774302 27.5414
247.149889956505 28.783
273.162311436206 50.0353
275.14711677107 30.9018
277.169646991208 33.9562
289.151577346925 22.1563
301.159720349045 38.3795
319.169705766131 30.6496
321.176545817894 43.8679
337.175675276505 51.893
339.192551736391 20.8238
341.17172728593 49.367
349.173717146424 78.6165
355.19035232206 67.0404
367.189361786503 68.8511
385.197960474359 22.5522

