>compound (+)-Warfarin
>formula C19H16O4
>parentmass 309.112120288727
>charge 1

>ms1peaks
147.08204343662 0.866326
163.038449457445 6.90109
230.95933496082 0.759729
251.069896599869 3.14692
291.103683443765 0.66512
307.936967449503 0.768949
308.976241892957 4.79479
309.112049838904 100.0
309.270924396644 1.62795
309.322753488233 1.15001
309.412207145486 1.03103
309.528179968319 1.04049
309.730340393298 0.718113
309.998526663997 0.882641

>collision 10.0
43.0216972293301 1.97005
121.02372336203 1.11043
131.041075824327 1.17459
136.971348782861 1.40957
147.079186059855 14.9281
152.939207716074 1.59311
163.037995988506 100.0
163.109152679682 3.32878
163.149046053415 1.96621
163.189338198828 1.2069
163.231510092992 0.679297
163.38433226407 0.868609
163.613884420261 0.9136
163.715261021862 0.738439
163.833236788306 0.638625
163.874677485168 0.596891
164.111943279479 0.609646
170.905904356118 0.826084
171.08417978114 0.617075
173.022224347567 0.695845
183.081310336727 0.696947
207.091767691104 0.857028
214.985025444612 4.05418
215.041345243847 0.579073
230.962541045768 5.42154
251.069715329927 42.5559
251.214021391691 0.766091
251.618056805127 0.769777
291.100282136838 4.74991
308.979764999589 1.28099
309.112120288727 86.2642
309.273522331886 1.28536
309.456205756966 0.655076
309.801291776258 0.797596
309.929591978258 0.636543
309.975374120605 0.812669

>collision 20.0
37.5438627617217 0.901235
43.0190704339772 12.4069
56.0605861596883 0.520104
91.0544367031628 0.555867
93.029027821096 1.15411
121.028012998754 2.94689
129.020276387936 0.867342
129.066470719202 1.19151
131.051351804166 0.827622
136.974838306309 5.09134
137.026855387706 0.580948
147.080255509284 14.7708
147.144988562543 0.581963
150.003572414109 0.844662
152.941432416698 2.79866
155.082657864964 0.921338
163.038579394229 100.0
163.156340074824 1.25463
163.187745001181 0.896265
163.226707005409 0.784159
163.276524909396 0.654254
163.604035641813 0.533558
163.674020614822 0.536781
165.069376357824 0.738922
171.07572635673 0.661731
173.022030753337 5.51553
183.080849864869 2.66864
187.044615792291 0.576367
189.056453608274 2.49066
205.053456127217 1.07496
223.076102820943 1.89777
230.959221810971 0.821535
249.361075720764 0.571785
251.069207823247 93.3504
251.209025610902 1.53297
251.326767750473 0.553877
251.581480633544 0.784505
251.68084265089 0.512278
251.739234141791 0.628492
251.967997250181 0.876286
252.105433521231 0.598175
291.098840067382 1.8332
309.113688288681 1.28849

>collision 40.0
43.0189234423972 36.5043
43.0724297344283 0.657703
51.0231781557394 1.22828
55.0185573032141 1.07657
55.0537158263513 0.774815
58.9618432147684 3.39118
65.038940556094 11.1958
68.9972706051715 3.23504
69.0294671112299 1.20237
74.9288380974246 0.710024
77.0390715002469 22.1888
77.2024353022077 0.520308
79.0609456344252 0.554276
89.0358315968227 1.43747
91.054138077069 10.9828
93.0337072848974 10.0149
95.048643248194 5.43392
101.0387747864 2.57481
102.048281056909 0.60343
102.932894170182 0.651129
103.054115960218 12.6236
103.102716034822 0.836118
105.033513227459 1.8608
105.068974610042 1.80042
107.048406069523 2.3888
115.055276189717 1.55674
118.042070700027 1.03242
119.050439113275 2.11788
119.093181275143 1.06742
121.027948930852 100.0
121.127495315033 1.50107
121.177053276163 0.988178
121.256345408973 0.693341
121.334836688863 0.721253
121.620838970248 0.971666
121.821922978512 0.526484
122.03192751413 0.757331
122.125871700574 0.538453
127.051317837566 1.35072
128.061419605862 1.94081
129.031028028527 2.7111
129.070451474925 15.0834
129.127144156346 0.665457
129.411827605206 0.514189
130.041479465468 2.03741
131.048285033103 16.471
131.430074779693 0.590028
136.975369451752 2.38534
141.064794601661 2.10963
145.030163699995 3.05326
147.079231579688 8.02278
149.997696468584 0.972469
152.058046507502 2.84324
153.068427891963 3.23975
154.0834130852 0.71814
155.084835094139 41.4735
155.290563128838 0.543353
155.764112074749 0.898544
155.8444080139 0.612437
157.025760935365 4.83954
163.038427553128 95.5708
163.191019039066 1.15378
163.266067704981 0.522574
163.571759079894 0.707989
163.675636867202 0.509135
163.821983677388 0.597316
165.067659768749 11.0857
166.079454687951 2.16565
166.786520414907 0.515536
167.083703053513 15.2281
171.075461609638 1.85189
173.021651528077 59.7594
173.130634946587 2.21349
173.181149141587 0.846663
173.46700170912 1.10061
173.520313974672 0.501382
174.027529872827 0.500682
174.087034082489 0.527591
175.037010357105 1.29617
177.067037156561 3.85132
178.077082149403 10.0332
178.193066218269 0.893225
179.08519742888 2.40511
181.06158612487 2.53085
183.080030442285 19.8852
183.15538153184 0.849075
183.207142882454 0.529293
183.241877927426 0.558521
189.063898334861 0.691954
194.067342434628 0.709983
195.079780705181 2.69484
205.062238731166 9.55485
207.08463657811 0.548816
221.060850306639 0.65853
223.074392827696 19.5207
233.058718907128 7.72306
234.058884239072 1.8541
249.056878665625 1.67605
251.06914542027 35.2105
251.220877659869 0.773265

