>compound (-)-Warfarin
>formula C19H16O4
>parentmass 309.111738374284
>charge 1

>ms1peaks
52.9967595034111 0.512821
85.212032331933 0.509528
147.079017710367 2.06762
147.106172409659 0.659511
163.039652050731 7.30268
205.180746134188 0.50063
230.240023998285 0.500735
230.9764619437 0.902596
251.070242986965 1.84983
269.665886257138 0.50222
292.158814658324 0.63726
308.197098339221 0.884454
308.971052821918 6.05917
309.033309375097 0.859331
309.112197713088 100.0
309.262681400672 1.94999
309.327713074848 1.23193
309.426455900348 1.05135
309.543784817163 0.81587
309.635407989843 0.815367
309.805356442538 0.714717
310.059895433575 0.62279

>collision 10.0
33.9101708221993 0.775883
43.0199988217706 1.47234
121.029059165814 1.63957
128.062590433699 0.796721
136.974199640986 3.65429
147.080242055236 16.6691
150.411580333034 0.688765
151.630710474114 1.19014
152.941088697318 1.29654
162.895310767165 1.02208
163.038065224266 100.0
163.122377742455 2.25177
163.188524119447 1.33673
163.221849011597 0.844856
163.272915590003 0.779867
163.327204681819 0.748917
163.504355955764 0.703355
163.81288197214 0.754122
165.05837175541 0.655682
189.057491403827 0.988066
195.079229425991 0.877455
214.985856769876 5.84921
226.988632470162 0.658622
230.088360755946 0.749697
230.957536463878 3.47488
231.002803709556 1.59643
231.062030442548 0.744459
231.228202646312 0.942295
251.070362308498 51.2251
251.36998190914 0.754658
260.750666469174 0.938366
273.982757004847 0.674999
291.103034207357 1.86802
308.219841513996 0.796785
308.975358424964 2.96579
309.111738374284 83.3089
309.267753946647 1.43529
309.445482073606 1.07846
309.75488965435 0.828589
309.948278970282 0.895594
310.044740349641 0.781148

>collision 20.0
43.0183960184084 13.9589
43.0636752866397 0.596267
51.0195624698727 0.749233
103.055801447887 1.35681
121.027753157601 1.9366
124.238743692144 0.805662
129.067077548149 2.24703
131.044574893405 1.42106
136.97393072412 8.21292
147.080175024568 20.268
149.517208894832 0.92163
152.946346801744 1.38383
157.028700209798 0.560734
163.037760091373 97.1947
163.151145713781 1.5009
163.191385046753 0.925265
163.235552215404 1.05228
163.442403659401 0.705482
163.679154295636 0.605977
163.872317431502 0.559511
163.967120749983 0.672754
171.073177449584 1.21176
173.026305112724 7.73865
173.066787408763 1.12126
175.036724241887 1.76837
178.071180037018 0.60422
183.080427729116 3.1896
189.05463130002 2.18317
214.99187586481 0.828508
223.06707500573 1.45582
229.941081484834 0.525947
230.247611012326 0.631726
230.957536811619 0.978765
233.061040827686 1.17
250.031251162361 0.504076
251.069896786544 100.0
251.212119522701 1.16682
251.273508918831 1.09701
251.331668925957 0.503749
251.374189862772 0.627064
251.521102660008 0.935002
251.648180626193 0.540146
251.734725276011 0.625686
251.820373446735 0.551928
251.871602480717 0.563192
251.961181223566 0.727683
253.789239267674 0.640076
291.098403717934 0.976702
291.466376897778 0.551716
309.108994279188 1.82928
309.164721121101 0.526827

>collision 40.0
43.0187629794424 45.0507
43.0799563438305 1.27006
43.0967719770642 0.537869
43.518332189541 0.504177
51.0237647548584 1.24814
55.0179417489196 1.41399
58.9592056511313 2.95942
65.0397605756487 9.2204
68.9965803678362 5.02722
75.2919950349621 0.552634
77.038325745299 32.0929
79.0538907785805 2.78758
89.0389757887587 1.52654
91.0539412138239 11.4494
93.0331343847606 14.0524
95.0126534650355 1.04202
95.0496769778333 3.85047
95.0828471540175 0.686769
102.045064127063 1.27912
103.054299173362 12.0206
103.095256424007 1.15041
105.000950033948 0.594838
105.03243179712 1.92836
107.049944693698 1.27224
119.047758680902 2.38315
121.028168604549 100.0
121.130385786848 1.58297
121.155357749789 0.972991
121.319733734922 0.636901
121.482971925197 0.980455
121.52929745726 0.647152
121.577956549499 0.512094
127.056786326743 0.825356
128.059861075928 3.2447
129.068518077401 13.793
130.042274247159 1.32765
131.048817730465 14.6487
136.976414026923 1.34493
141.070118719232 0.950709
143.085459984655 0.510831
145.029596981277 1.42228
147.079202973422 3.19147
152.058193754147 3.49631
153.072930451453 2.33905
154.075294615236 1.50441
155.085060381477 45.5228
155.172605866582 0.715144
157.024808024669 7.69479
163.038472746945 95.6663
163.13964894393 1.57567
163.248518737577 0.522489
163.379257645525 0.692472
163.555362189791 0.623434
163.777822124849 0.623753
165.067106240344 10.1479
165.353289715112 0.513188
166.072947284183 0.755739
167.083235940303 12.995
171.075246342642 1.46356
173.022927936248 68.9602
173.145292056391 1.06784
173.206093460103 0.622974
173.268813500289 0.629512
173.369243108736 0.758768
173.419308304958 0.708506
175.034805356982 0.541759
177.071216537358 1.8954
178.076311973767 7.71785
179.08341255945 5.36546
181.063979934659 2.31836
183.079341148661 25.7064
183.167383377851 0.618168
183.739202109181 0.625247
184.142967109453 0.558556
189.05129108418 1.13095
195.082467717753 3.5201
205.062683084538 10.9631
207.073786970356 1.07241
221.055645165864 0.801004
223.073919209382 18.3361
223.186693171265 0.50106
233.057554893929 9.65321
234.06320439954 1.37393
249.056509582917 2.34456
250.073527750623 0.664022
251.070194327795 25.7658
251.176917946361 0.766122
251.282053805943 0.572124
251.755366759183 0.684282

