>compound 9(S)-HETE
>formula C20H32O3
>parentmass 303.231299484885
>charge -1

>ms1peaks
85.1028064384938 0.502903
91.0543324109945 0.755266
119.084736550376 0.629996
141.090155116356 1.0457
153.091548517569 0.819917
163.147449516402 0.895518
175.145712107467 0.878069
183.11483430956 0.994392
197.13139448606 0.612519
237.18074341962 0.683494
243.205691665922 0.664969
247.167417932036 0.550779
257.190479489598 0.658137
261.956893163919 0.738548
267.21046476185 5.20306
285.220963333809 8.24229
303.231535814282 100.0
303.382699620045 1.50925
303.437027780224 0.896479
303.56005934021 0.694411
303.601077477727 0.563155
303.700169443815 0.668267
303.837106726856 0.691048
304.091739003827 0.5311
305.09173900383 1.0e-13

>collision 10.0
41.0373561121246 0.513149
43.0552255365898 2.79714
55.0555443935386 0.930067
57.0708623960951 1.77127
64.0176571039279 0.733668
67.0546017556406 2.01678
71.0884019829535 0.622515
79.054328821261 1.50055
81.0694238308344 2.13851
83.0844129983273 0.816273
85.1010013856987 4.18469
91.0542491678336 5.64108
93.069382089988 3.61703
95.0853176933387 2.91261
102.130397961725 1.12874
105.070367295516 4.914
107.084928035226 2.33094
109.100554621971 0.590841
113.059734327006 0.546144
117.067748746143 1.06011
119.086364021797 3.36143
121.060932815091 0.771919
121.099291934524 0.58465
122.076327524683 0.514778
123.094890008781 2.43089
129.0690971822 2.72458
131.085107837849 1.98032
133.102482743352 2.79071
135.092396969363 1.61769
137.133215607935 1.64106
141.079704680933 1.18434
143.085481982779 1.09421
145.103251824028 1.15202
147.113491529064 2.48252
149.093426289569 0.720829
149.128695406671 2.39794
151.146352506714 0.998665
153.090147923165 1.6668
159.11260014193 1.13013
161.133432789872 1.5939
163.14783609627 1.68919
167.11207876238 0.752526
169.101775888713 1.95706
171.113824972573 1.38406
173.096407213047 2.48813
175.147757553708 6.02133
177.0881024501 1.42957
177.163791780962 0.51413
181.123537709619 0.798029
183.115030578876 6.69718
185.135827697791 0.649377
187.109544557346 2.26817
187.144359844372 1.22086
189.162702013322 1.82568
191.102916186049 0.867256
197.127519275764 1.11246
199.149327784159 0.544971
201.155802667223 5.31917
203.172436093651 1.59685
205.122455769417 1.1724
211.145176416595 0.856267
215.145707560235 0.683037
217.161119009728 0.510304
219.146441421136 1.82612
220.926795574719 0.619272
221.154481715363 0.549774
223.166315939936 1.21235
225.160975438379 0.940057
229.168333194698 0.922623
231.175260115969 1.01671
233.155657849241 2.0518
237.181582553174 1.27019
239.182056153778 0.732752
241.198632916947 0.830891
243.209155488129 1.3181
247.16899068483 1.96001
257.195358364211 2.79054
261.179825099508 0.875643
267.208967215043 11.1466
275.195576960116 0.745984
285.220016979514 12.947
302.268008119405 1.62836
303.231299484885 100.0
303.380946107983 1.70852
303.430670486428 0.910824
303.509955588099 0.739236
303.608369612719 0.564167
303.826911181001 0.745883
304.089063378093 0.784645
305.08906337809 1.0e-13

>collision 20.0
41.0398999079746 2.47679
43.0191808157698 3.52636
43.0550094506319 34.9958
55.0190598773205 2.05358
55.0546876371795 19.7119
57.0707975001832 24.6378
58.3624078002633 2.28546
67.0545299372459 35.3646
69.032652958775 2.00183
69.070777255795 21.0852
71.0511997608859 3.25782
71.0842483621456 7.33909
73.063156198887 4.96199
74.0932345080634 2.18311
77.039972939497 2.65098
79.0566795698418 12.666
81.069793098493 47.1568
83.0494824211028 3.6171
85.0631921666985 4.58913
85.1008599442073 27.2355
91.05443906102 100.0
91.1195229898034 2.06356
91.1411011476372 2.86171
91.713140663969 1.99846
93.0699764930497 44.7716
95.0859197596639 64.7905
95.1374392378357 2.87441
97.061167149018 2.35071
97.0973951773473 4.547
101.062040825546 3.88474
102.062101982993 2.92271
102.126371473747 4.05748
105.068959699335 67.0667
105.466251911483 2.24047
107.084202731842 23.8123
109.099986383568 18.9634
111.078148926281 2.47874
111.118119201753 7.58716
113.057261201158 5.72014
115.057357858469 2.08922
117.070146874455 29.3806
118.063696486598 2.17378
119.085274251416 55.2051
121.059644092844 3.7902
121.101749183744 15.4722
122.083832511144 4.22276
123.080777481418 2.55756
123.11595024458 6.45825
127.074766149198 2.15557
127.29516534903 2.39481
129.068082288226 15.1794
131.085075377644 49.6701
133.056380504314 2.2513
133.098970605812 29.7556
134.065021744255 2.10225
135.081568609846 27.5145
137.129985520618 2.28606
141.069475647132 18.5278
142.070789168223 4.38672
143.083842477853 20.257
145.101253119977 45.5245
145.166774847694 2.35678
147.104179090211 22.5934
149.115765764339 8.86914
153.104078983142 2.11162
155.084440970516 3.89881
157.101071137515 12.8614
159.075518000824 8.89593
159.115889380036 14.2018
161.095638270237 7.34309
161.131069213126 20.2408
163.024167611698 5.04938
163.101852662632 5.6271
163.143116503982 4.21069
167.107214795049 7.45117
169.101394883211 15.6599
171.11506949849 6.06868
172.602449912338 2.02481
173.133815057313 17.729
173.181732951374 2.10266
175.146582678817 48.2133
175.22385007183 2.41909
177.102513557477 2.598
177.159624960756 7.11729
181.119367505699 3.45912
183.114529438091 13.7821
184.436722284359 2.04717
187.124480445586 16.7873
189.161285069855 15.8098
191.118066651044 4.34948
197.131760086397 15.1406
201.139525791336 26.3123
202.165966724765 3.76827
203.176493019877 4.94029
205.118153030965 4.88718
207.138091746817 2.65697
211.15052261405 9.60061
213.162764637098 7.98043
215.145912607751 8.55651
219.147359976136 7.28294
221.15045183749 5.93752
227.184745189061 2.37489
229.152960599153 2.59189
233.154603052204 12.7492
239.176266652843 5.53536
241.199359306048 5.51157
243.206563833028 14.5535
247.16971017263 10.1991
249.176901855671 2.47078
256.256662381057 4.41464
257.128815947411 3.81801
257.192196305134 15.7465
261.185772629846 2.77197
267.209414130017 23.0226
275.210955898954 2.88438
285.216621719563 17.7129
302.265426782389 9.68685
303.154152222902 11.9124
303.232754669066 92.7882
303.359280052369 2.65734
304.172961787463 2.02591
305.17296178746 1.0e-13

>collision 40.0
29.0383498711633 2.53251
38.9597484684224 2.09474
41.0398733775037 9.61228
43.0199794557655 2.79683
43.0548651786733 15.9317
45.0314996455219 3.59613
55.017671458921 9.50509
55.054441802374 28.6352
56.050803154958 1.41116
56.96277419487 1.58987
57.0329201094341 3.25964
57.071221344525 11.749
57.0998476820806 1.52027
65.0419392711902 2.24607
67.0555534002681 38.9373
69.0361493164008 1.52073
69.0699129761566 6.95761
71.0489823365727 2.59029
72.0885795686532 2.44902
73.0664772016626 2.89391
77.0385293360801 15.9296
79.0548475797879 33.2433
79.1668100767163 1.4574
81.0696924554329 33.8176
81.113485186311 1.57653
84.8565918401272 1.35017
85.0618159626608 1.8596
87.0482389395427 2.12811
88.0199015792912 1.39232
91.0537205569509 100.0
91.1359263573378 1.44887
92.0597734079996 1.87681
93.0702158160605 32.3703
93.2063344476606 1.80362
95.0836042403478 20.4825
97.0641292075205 1.87941
100.894676801155 1.28233
102.053429840155 1.51275
102.127408950867 3.56766
103.052760175707 4.44095
105.071099501002 59.5887
105.140467245079 1.59996
107.086815130181 6.14737
109.101444848411 3.59095
112.116741690481 1.53264
115.051832657333 2.41891
116.063041843374 3.55977
117.071259251668 20.3889
118.076922889868 3.14487
119.086123220968 15.5812
120.060125561929 1.52206
121.063655748785 3.59492
121.107851055311 4.66575
127.049894028491 1.70051
128.061365203266 3.49274
129.068524105529 9.30305
130.078577584374 5.73964
131.084002061777 22.1126
133.100149684121 11.1441
135.077239410592 2.8142
135.11440945187 4.09212
141.066487762401 5.6481
142.073737633661 3.91676
142.099344202957 1.75302
144.094731094882 2.35401
145.100565985819 19.9648
154.080694963329 1.42629
157.101122351337 1.66725
158.105882975356 1.60324
159.078892446022 1.89947
159.115564049539 3.77525
161.122510504356 1.58207
165.06069196938 1.3115
171.115605000746 2.60472
172.124526881585 3.06787
175.149104294195 2.43191
183.115032954803 5.72324
197.13043853473 2.30008
217.117932752537 2.15276
218.11793275254 1.0e-13

