>compound 12(R)-HETE
>formula C20H32O3
>parentmass 303.230479988656
>charge -1

>ms1peaks
81.0696278327936 0.697996
91.0538879354319 0.505903
105.0706895072 0.575701
131.084869984806 0.788097
137.130416695414 0.654272
167.105022422956 1.0848
175.145619450341 0.971114
183.115030086051 0.833101
201.138469756898 1.2329
219.137196999351 0.575486
241.194731985674 0.500012
267.211884319918 1.31746
285.219926273302 4.7306
303.231224776932 100.0
303.385333651351 1.87238
303.4432464347 0.878622
303.540483643774 0.538466
303.666758476186 0.509845
304.022816151988 0.543758
305.02281615199 1.0e-13

>collision 10.0
43.0548879517769 4.09219
55.0550661421502 2.19636
57.0699820573235 0.786636
65.0396155874352 1.13258
67.0551855124546 7.95617
69.0693315268626 8.89501
71.0866571220312 0.874948
73.0309467821297 0.55851
79.0535034705738 4.92217
81.0699316249953 12.5824
83.0495490174883 0.783669
83.0848365654524 2.48984
85.0261066599623 0.569595
85.063614809301 0.590327
91.0529635081405 7.57355
93.069431010239 3.71023
95.0844268746761 5.64572
97.0977755005965 0.865666
99.0495173395744 0.503244
101.057228674532 0.734854
105.068648188178 10.0315
107.084737965071 3.39411
109.097276763174 1.64417
111.081594081313 0.615412
117.068495384679 2.90021
119.084428305385 8.11762
121.10046706513 3.16551
123.111618364034 2.18051
129.070619005282 3.22757
131.084900087763 8.81931
133.100982984929 5.36934
135.081953760896 0.886304
135.116432133342 1.63572
137.094396045923 1.39724
137.13236376407 4.21956
141.072274998398 0.612263
143.08432531036 1.14719
145.099980391307 4.9828
147.112741363179 3.67666
149.102728961711 5.28828
151.077608663256 0.58467
153.087380559112 1.17396
153.118363327652 0.54138
155.081474204948 0.950359
157.100514236041 5.0796
159.101973062353 1.23416
161.126173064784 6.51267
163.148863127112 2.45351
165.084378141831 0.755025
167.103497794367 2.13258
169.100634015973 3.73854
171.118984945201 3.03072
173.131522444998 4.13313
175.147296819367 7.46908
177.08786757917 0.531596
177.158608080289 0.712011
179.103758257398 2.4896
183.11489714248 9.05621
185.128249830398 1.43282
187.124930635379 3.19901
189.161403450261 4.87831
191.103972867596 5.43815
193.123071832213 2.06739
197.130720840111 3.8013
199.146494195386 1.04984
201.139920491513 8.10759
203.179157193272 3.37037
205.123038391098 4.1834
207.13872502352 0.606238
211.149094094975 1.1111
213.162434446322 1.007
215.141028031646 2.94234
215.173750382358 1.37347
217.153206620732 0.620885
217.196094497414 0.72
219.134994161174 8.33721
220.930531884856 0.748328
221.151184593927 1.20067
223.166502037473 2.5292
225.170567320118 0.516896
229.15466437015 1.04083
229.187644846954 0.721679
233.15426896917 5.27437
237.184233428736 2.11947
239.182002927469 0.964749
241.193454647769 4.46359
243.203767264804 1.90522
247.170922826372 0.768608
257.19971226607 2.10204
261.187076464962 0.659205
267.211690663942 9.00021
275.200814331124 0.829262
285.220846903395 12.6862
302.303351719586 0.69071
303.230479988656 100.0
303.352588670273 2.17385
303.393405036592 1.69263
303.436930090997 1.1458
303.531887746798 0.591303
303.706084793224 0.789916
303.904437804054 0.543565
304.010349271763 0.587613
305.01034927176 1.0e-13

>collision 20.0
41.0384481973974 16.0517
41.0626673413065 1.493
43.0181252037895 1.93062
43.0541206728004 20.9362
51.0236892632196 1.87954
55.055294868412 39.9937
57.0709185654071 10.3656
59.0482677580233 5.38266
65.038884693512 2.40574
67.0547461744954 71.8567
67.438708639913 1.73754
69.033083962002 1.96476
69.0697019093212 54.5517
71.049471483675 11.6674
71.0830500827926 2.69207
73.0662859538683 3.45519
77.040015798483 9.49314
79.0535994163815 66.9408
81.070762745784 88.6683
81.1233378502883 3.28161
81.1539468124993 1.90496
81.3633917428522 1.95831
81.4812096191309 1.74202
83.0851448077876 9.11289
85.0314785975652 1.86525
85.0672257387805 5.07226
91.0539233231615 89.6053
91.1404104419947 1.66745
91.3049549520452 1.80572
93.0701335103308 57.1682
93.142380327433 1.4923
95.0852432750254 52.3485
95.134377519663 2.61024
95.7404866753314 1.666
97.0999267936862 2.91019
101.057033510808 4.01331
105.069840371017 89.9585
105.16352327916 1.81515
106.091083115618 2.01594
107.085714572075 49.7112
107.171217822727 1.7901
109.100285779397 22.9273
115.051196154694 5.36307
117.068698515906 44.1604
119.085265026974 100.0
119.163773339598 1.57068
121.063985695509 3.6984
121.100503146211 25.2442
121.1473225547 2.05696
123.092716840867 7.93836
128.069316579933 2.47082
129.067775923876 34.84
131.083873302241 89.8627
131.184166306829 2.24119
133.100752143429 45.5884
133.183579145878 1.87261
135.078699614728 10.3182
135.116222493469 11.454
141.070231702178 17.041
142.079118468706 1.5919
143.083606760785 23.3721
145.101727295778 53.5724
147.117733620287 11.4858
149.091853027343 20.544
153.092082163768 2.06829
155.083278415413 17.5954
157.100230503383 39.6249
159.114017586717 32.0564
159.182989819993 1.53661
161.091906752082 12.9013
161.130291721616 20.2452
163.149677829724 2.76978
165.127614944155 3.31941
169.101201312321 26.0008
171.113778042688 10.6896
171.88484150098 1.63687
173.132429623717 22.3604
174.10604288147 1.66641
175.144772505104 14.5508
177.149772761431 3.1329
179.098352999433 2.65199
181.120316194475 6.02736
183.114859754635 25.397
183.584728430722 2.35011
185.128032629194 4.73359
187.111319764879 12.3688
189.057398003484 1.55004
189.160049530223 8.61911
190.126822810973 3.1005
191.103127325461 8.26572
193.122654855056 5.77363
197.124819351073 8.16208
201.128378387992 28.8174
201.20876633839 2.13363
203.176180153975 4.42187
205.11820637003 8.65312
208.239480476495 2.18246
211.148109515559 2.42977
213.163166963938 2.28689
215.153494313398 3.39305
217.190111065644 2.84867
219.13511413559 15.1674
221.000553716697 1.57534
225.162608741186 1.82703
229.156091486482 2.51637
233.151350572865 5.20809
238.168209408644 2.72283
239.174606098814 2.37389
241.191352619198 2.36169
241.630870244561 1.57255
242.139434475982 3.61832
243.20767056733 3.98031
257.180623903084 5.48108
267.2063403452 8.73334
275.199419409902 2.01763
285.220703325588 5.4904
302.293987036429 3.17982
303.232130966229 35.6233
303.354919295907 1.5334
304.35491929591 1.0e-13

>collision 40.0
41.039384877916 22.7489
41.0981320204757 1.14804
43.0170814020628 8.18459
43.0547937986804 13.2824
43.3634540539852 0.98673
51.0233480643094 3.06364
53.0395072358514 2.83995
55.0220961806867 4.96477
55.0556524102864 37.291
57.0350700389655 1.68478
57.069173704167 3.72113
58.0632950891612 1.10722
59.0491130190501 1.33028
65.0381145335723 10.0884
67.0548064281827 50.6985
67.1303656008872 1.20521
69.070920197285 21.1533
71.0507023426227 4.97233
71.083830412495 1.04175
77.039016515841 22.4244
77.1163231819722 0.971479
77.6999317316805 1.03107
78.0466942760577 1.73943
79.0539265422165 47.1171
81.0695419689343 33.5909
81.1154421186505 1.98275
81.1477559686547 1.02027
83.0457532921736 1.6391
85.0622183196714 3.10025
87.0433708187278 1.72768
91.0545455461257 100.0
91.1442699330225 1.44599
91.3949501476962 1.07127
93.0687921885171 25.0512
93.137104290105 1.44391
93.5393640196003 1.91249
95.085044806851 12.6685
103.056686290339 6.73949
105.069633838707 57.4772
105.165019574781 1.29928
107.084941168754 9.38258
109.064816560626 2.91551
115.055841927979 6.93998
116.061115557096 7.96499
117.067448670767 22.1975
118.040518181072 2.35499
119.08457549093 22.8125
121.059059478093 1.83705
121.091345745297 1.74112
127.050993374773 1.27039
128.061663121495 4.88698
129.068633167168 8.47619
130.075607039788 1.35469
131.084171186383 27.3113
131.139626814708 1.68242
133.099280721848 3.71595
136.017808073173 1.13891
141.066532161258 3.93409
141.107971750491 1.49129
142.078570886414 3.25126
143.086809386898 3.5969
145.098458095205 9.51452
153.067923078255 2.44208
155.087601680964 1.97379
156.090434049884 1.35106
157.101557625948 2.60348
159.077100705775 1.49663
159.114360095068 4.00621
167.085895567841 0.949588
173.129128971566 0.971874
174.12912897157 1.0e-13

