>compound 9(S)-HODE
>formula C18H32O3
>parentmass 279.231273380194
>charge -1

>ms1peaks
67.0560365632067 0.822084
81.0706112649678 1.75832
95.085170477121 2.41286
109.101523936579 0.664024
123.116684844249 1.22102
137.1320717206 1.15727
151.146067941801 0.76314
195.139448605954 0.514005
209.153258890677 1.3689
223.165369646164 0.576785
243.208525550478 0.802148
261.221673702027 1.63507
279.231782069572 100.0
279.380582732979 1.84676
279.42934754912 1.02975
279.492856784701 0.610625
280.4928567847 1.0e-13

>collision 10.0
55.0554007353488 2.49026
57.070077968305 1.43491
67.0546663547864 30.0002
67.1303735831009 0.501724
69.070033163907 4.92066
71.0848677662882 0.724277
79.05482578469 1.58705
81.070237255529 48.1409
81.1287888907401 0.841261
81.153157055028 0.799478
83.0508656723717 1.00377
83.0855378297742 3.57508
85.0632061900972 1.44638
85.1010191046747 0.731298
91.0544756363756 1.37849
93.0698922204534 3.85152
95.085435345281 53.5546
95.1764100220612 0.899431
95.2025766963472 0.523475
97.0640069218149 1.26644
97.1009125565105 3.18768
99.0807614151246 0.829017
105.070128885558 1.95859
107.084864657888 2.50907
109.100572274565 24.7268
111.079741420024 1.07115
111.116526839732 1.48055
117.072244850697 0.835974
119.086335963879 1.76562
121.10148500705 4.88793
123.116746767989 23.1844
127.07465644465 1.25316
131.08606003379 2.46765
133.098942363616 2.5292
135.116122255837 4.5366
137.131490668815 20.9786
139.111441720245 0.931611
141.090258496769 0.998359
145.100379041036 1.81342
147.1163455559 2.93028
149.130732235999 4.31805
151.147399337838 6.91795
153.092121483805 1.03145
153.128347457999 0.813049
155.10510952963 0.525998
159.031930413103 0.508918
159.116072455925 4.30028
161.131839208806 2.92092
163.121548255611 4.14219
165.145241385343 1.95404
167.104519121649 1.18921
173.131367636031 11.6632
175.147755908914 0.742168
177.135006756291 3.52577
179.140347528326 1.95228
181.122254322126 4.17413
187.146390497989 5.11037
191.142106501944 5.61169
193.163155027813 0.583664
195.137518068076 6.87878
201.161129721646 1.59821
205.15745247792 2.67354
209.153741018129 9.67655
219.209627900495 1.15749
223.168738319626 6.97691
233.222066333319 0.918727
237.183042604292 2.19197
243.208693763334 6.24999
261.222571432655 7.04007
279.089251720475 1.10326
279.231273380194 100.0
279.375659545237 1.63238
279.432880587645 0.968482
279.524734940914 0.741001
279.768194937264 0.603969
279.890665466107 0.570895
279.986054358588 0.653053
280.98605435859 1.0e-13

>collision 20.0
41.040078956603 2.08302
43.0183795381634 1.43132
43.0552329137687 1.5757
53.0392327001127 1.04693
55.0549923192476 10.8883
57.0703531999936 2.26045
65.0369226789383 0.716857
67.05489859969 83.8927
67.1281958693215 1.41646
67.153018118351 0.764981
67.3821583418589 0.532227
69.0701314352577 8.41096
71.0503409051418 1.8908
77.0372737859903 1.15206
79.0539436387505 4.69484
81.070165681524 100.0
81.151668476072 1.64633
81.1883355824521 0.828819
81.2338036012055 0.570625
81.2842485814481 0.574449
81.3577287545292 0.589384
83.04990904518 2.39903
83.0855082962365 7.07645
85.0649004407987 1.50501
91.053799941882 4.75393
93.069491104043 10.5217
95.0856797925032 89.1938
95.1761107178129 1.71881
95.2092103294907 0.750354
95.295682643259 0.710068
95.3922092021575 0.542441
97.0652465185354 2.12998
97.0994505054179 2.77338
99.081746506789 1.04428
101.060011481465 0.936732
105.070040095762 2.00924
107.086199774205 8.47982
109.100602479937 27.2712
113.063372195933 0.836576
115.076467832012 0.518463
117.068759976541 2.52338
119.085998193338 2.36361
121.101148525568 9.66787
123.115781947014 12.6795
125.097637503879 0.682098
127.072707873635 0.80358
131.084147379937 4.47162
133.101573408391 2.83708
135.076140877952 1.70803
135.116561651448 7.55993
137.131419409843 6.88575
145.100613494111 2.53421
147.117576377556 2.45214
149.022988879581 1.1956
149.13124367022 8.30148
151.144231852592 1.72739
159.115783691196 4.46919
161.132272928455 1.859
163.138886127233 2.74615
165.156110992953 0.509034
167.107348632867 0.729357
171.117704948758 0.800663
173.132059025852 6.59014
177.123412774434 2.27432
187.147574668738 1.67891
191.143971469983 1.54887
195.134150564745 1.34695
201.043331293707 1.36729
209.149612140453 1.07963
223.167177606193 0.716665
243.20903689585 0.931979
261.218294506474 0.791718
279.094267353312 1.42658
279.235164901758 2.23526
280.23516490176 1.0e-13

>collision 40.0
41.0396263862971 9.14243
43.055073067544 2.61641
53.0404136942034 3.18651
55.0548326108379 16.035
65.040046176163 5.31832
66.0487570441798 0.772833
67.055007579111 100.0
67.1301162872663 1.6288
67.1576482820278 0.817894
67.1921982918888 0.907034
67.2657822273742 0.636415
69.0698769946052 4.69029
71.0547068066752 1.44962
77.0381855419811 2.29822
79.0544709535837 17.9104
79.11441845359 0.592695
79.9895436231942 0.663867
81.070286735925 50.3706
81.1500295124935 0.990107
81.3564325939716 0.503316
85.065660812562 1.07162
91.0551639386634 4.71927
93.0718295533704 5.96651
95.0859523637493 23.8114
105.069639260523 4.27596
107.085416129424 2.62378
109.100541832207 1.39826
115.050281076374 0.66964
119.085905939405 0.652209
121.02587499718 0.63251
123.115945374146 1.00255
129.068749342738 0.83662
131.086283435829 1.04467
135.116595803333 1.33174
149.017394128794 0.624469
150.01739412879 1.0e-13

