>compound 13(S)-HODE
>formula C18H32O3
>parentmass 279.231494633958
>charge -1

>ms1peaks
67.054531797675 0.796456
81.0691089265691 1.78476
95.0857203453921 2.28318
109.101093120266 1.38412
123.117074265171 1.39154
137.133192029057 1.49361
151.146414393305 0.670405
173.132607319524 0.599187
195.13795554923 0.558098
209.152380005052 1.15185
223.169131691014 0.657585
243.210277025606 0.760004
261.222561468333 1.37683
279.231563851962 100.0
279.381903816281 1.8406
279.43639062905 0.911267
279.542702543034 0.577996
279.590969800835 0.51064
280.59096980084 1.0e-13

>collision 10.0
41.0378888818424 0.537409
55.0545169487574 1.56232
67.0548624563387 29.1734
67.129483162 0.529134
69.0704025272836 5.56247
79.0539392897431 1.72119
81.0704710101787 49.497
81.1526159297146 0.893526
83.0510334377071 0.58791
83.0863098710073 5.54553
85.0632639389972 1.26954
91.054411125933 1.15758
93.069793088416 2.74643
95.0857223971896 56.0273
95.1745744322093 0.753032
97.0651083263974 1.47982
97.100686992066 2.9615
99.0784211113383 1.20192
101.059129563019 0.613367
105.070072653158 1.49822
107.085155517747 4.00499
109.100680678981 27.3159
111.081259510199 1.09978
111.1153157742 2.16024
113.06015122729 0.528065
115.073881470367 1.08477
117.06858139271 0.707381
119.083787560403 1.21063
121.102064647386 4.40659
123.116558285184 28.484
125.107623850085 0.597276
127.074712594117 1.75603
131.084926155823 2.88055
133.101208472403 1.9745
135.115375326334 6.34407
137.132029008761 22.4129
139.1089426662 0.657268
141.088234350194 0.914307
145.100366124735 2.26286
147.116152421025 3.08048
149.131756931156 4.39703
151.146830375821 7.31011
153.090643228471 0.659594
153.123938115631 0.748421
155.106293192231 0.590752
159.115715907384 3.00802
161.130351037651 3.7767
163.140477952458 3.25514
165.158006553281 2.70856
167.105179175396 2.34012
167.140932471203 0.765012
173.132197608813 10.8219
177.131941963443 3.46011
179.143687214405 2.85522
181.121129685729 4.59262
183.140857518552 0.652545
187.14903301192 4.86253
191.143614927363 3.60204
195.137009491428 7.67996
201.163318072219 1.45871
205.157293251931 2.57482
209.154000296824 7.97852
219.209620020578 1.06749
223.168272170558 6.34306
233.225512311265 0.716762
237.18358341487 2.77039
243.209805095878 5.20436
261.219734158838 8.30584
279.100150269656 0.658513
279.231494633958 100.0
279.430642520524 0.923849
279.484507452483 0.584601
279.638954857437 0.633795
279.85416633484 0.571743
280.040035631215 0.518291
281.04003563122 1.0e-13

>collision 20.0
41.0396865787421 1.24966
43.0209402620445 0.586637
43.0555501177421 0.674178
55.0177629291252 0.516186
55.0547105691709 9.8735
57.070043697965 1.56236
65.0392669498316 1.17108
67.0549351873134 91.7845
67.1279136178517 1.78638
67.1519024145062 0.775161
69.0372695464065 0.611535
69.0706230704625 11.8739
71.0483882683343 1.20242
71.0848888090778 0.564119
79.0544280039906 7.24247
81.0702827317027 100.0
81.1516777423976 1.71532
81.1840824407482 0.702009
83.0491105423975 3.23295
83.0853029244087 5.06486
85.02930042138 0.719076
85.0655136176921 1.88914
91.0527058264062 1.77548
93.0700588372 9.70054
95.0856911344965 82.3142
95.1744846074384 1.02493
95.2021099507523 0.682165
97.096072497575 1.9549
99.0676021429784 0.832204
101.056226933433 0.97349
105.06882346955 3.26123
107.084491018955 10.1676
109.063583662317 1.5975
109.100712381264 30.0824
109.198789329485 0.555519
111.081429536137 0.654568
111.115108804788 0.67172
117.070036081338 2.0033
119.084324711704 2.8811
121.100986664123 7.45579
123.080134229278 2.04277
123.116405337777 15.6069
125.094988165075 1.1063
131.084496830437 6.30931
133.098978275778 2.21597
135.079039418499 1.55495
135.115261780676 5.68305
137.132838244834 6.40766
145.098438559651 1.73105
147.119409888964 1.27166
149.020996263202 1.67806
149.130814153866 6.1882
151.145792227179 2.21064
159.115536408478 3.2621
161.126108809871 1.28734
163.130013159542 1.58206
173.129559840821 4.24752
177.127884639252 2.19285
177.161826391241 0.900057
181.120632664132 0.693903
187.14780042354 2.27572
191.143835921634 1.52231
195.134287728305 0.811892
209.148701195097 1.47306
223.165857030685 0.82885
243.20607643023 0.784438
261.221371592535 1.50419
279.090139583779 1.06423
279.233093288067 2.16341
280.23309328807 1.0e-13

>collision 40.0
39.0241507761455 1.41474
41.0395538334156 10.7131
43.0200194383443 1.18948
43.0567919453572 2.89871
53.0402006677374 1.70026
55.016192900769 0.59334
55.0546686492276 15.7219
57.0684523394629 1.13867
65.0382618433954 5.30578
66.0439326194303 0.520377
67.0548226956592 100.0
67.128691949428 1.46557
67.150857285035 0.935028
67.176240350838 0.706137
67.2115339914667 0.723565
67.2662592250164 0.560867
67.328814397055 0.563047
67.5669958966695 0.643599
69.0713608436079 4.13664
73.0309206908205 0.663807
77.039464448476 2.30423
79.0541028673926 17.0827
81.0700625647343 56.0497
81.1543953379452 0.957987
83.0836733445137 1.16306
91.0553196432943 7.02669
93.0695484007496 8.51569
95.0857254171611 27.8563
95.1624303447673 0.622447
105.070249944764 1.95057
107.084409815595 3.4399
109.102273463419 2.92065
116.065257332685 0.622776
119.085329149849 1.21485
121.102302435894 0.893095
131.084248035678 1.66794
133.096854463919 0.914915
149.022786635349 0.997596
150.02278663535 1.0e-13

