>compound 5(S)-HETE
>formula C20H32O3
>parentmass 303.231112014767
>charge -1

>ms1peaks
85.0983152490305 0.628137
93.0705004961014 0.532195
123.080383790856 0.974494
141.089605100361 1.46205
163.144841028306 0.519626
183.116041502359 0.786651
201.128220894597 0.9365
257.19334477613 0.542221
261.957713683417 0.730389
267.212092827399 4.28366
285.219801257668 9.30902
302.243891285147 2.34631
303.231232421922 100.0
303.432435724289 0.893412
303.510724041568 0.642309
303.618591482049 0.541738
303.713760878769 0.557429
303.946986254799 0.564342
304.9469862548 1.0e-13

>collision 10.0
43.0565184266661 2.18436
55.0555725856235 2.18756
57.0696654913254 1.12629
67.0542263203773 4.45451
69.071923636213 1.09068
77.0385620673143 0.547693
79.0537801864133 0.828263
81.0694692814296 3.04597
83.089918669059 0.872028
85.0664494290285 0.598479
85.1015388889708 4.43312
91.0543486868553 4.75074
93.0703655949274 3.01555
95.0852150664475 2.25303
97.0623841703045 1.09038
97.0957487635923 0.593713
101.059908692164 0.894361
105.07166346114 5.25204
107.083907085019 1.10307
109.10252812899 1.11069
117.069169065665 1.65059
119.083390639922 3.79682
121.100686949833 0.924555
123.080525332356 2.14717
123.114381157841 1.56799
129.066961680819 1.35351
131.083898237479 3.73655
133.101916679942 2.54474
135.07988840655 3.31574
135.107655629023 0.937171
137.131613243185 1.66176
141.073630292396 1.23693
143.086751211375 0.541073
145.100644102284 1.47047
147.114345728832 1.22933
149.094042710884 0.786292
149.133689535046 0.551374
151.15083640431 1.17072
153.088489662655 1.41325
155.083668664611 0.680607
157.100821278176 1.28122
159.09817452786 1.3342
161.131617788854 2.12589
163.147738267724 2.0063
165.088907445458 0.654593
165.160562736222 0.531312
167.103974170944 1.73223
169.09804105982 2.08819
171.116703286557 0.816437
173.110648917566 2.71588
175.148309678183 6.31101
177.090468153211 0.894962
177.1649291719 0.729011
179.110834731419 0.549674
181.121683147745 0.624454
183.116045108781 7.12778
185.127720995182 0.537097
187.135759277957 2.57862
189.16522450541 2.25085
191.108757550779 0.635697
193.114867174338 0.704682
197.130820095933 2.05654
199.143391561809 1.3647
201.13905992199 3.69499
203.176370438356 2.04301
205.12648317174 1.45879
209.153987485584 0.65125
211.144051088781 0.669262
215.154057954089 1.77496
217.162281488348 0.637437
219.149174231659 2.50332
221.155095317623 1.00728
225.162369140886 1.15786
231.171889832576 1.25591
233.152579145406 2.85946
237.186409434956 1.39079
239.181695671156 1.6478
241.191441419908 2.15051
243.208373728422 2.91069
247.166215309976 0.525057
257.189429474738 4.33412
261.185024461298 0.952408
267.209834023632 11.508
285.220594212448 19.2229
302.143655036566 1.70998
302.252548140294 2.16903
303.231112014767 100.0
303.437580573881 1.08684
303.511604348919 0.740777
303.602404712311 0.649938
303.74021716243 0.860424
303.980185256752 0.78793
304.11168279675 0.524874
305.11168279675 1.0e-13

>collision 20.0
35.9100541743629 1.56209
41.0387798967232 9.22234
43.0170801260323 4.04519
43.0549879517055 42.2149
55.018243335374 4.93612
55.0542150184261 22.156
57.0342142370875 4.74303
57.0704363364256 27.3626
59.057033156172 2.94676
65.0412173119435 2.27069
67.0543459783369 42.8052
67.1121935650144 1.37687
69.0699849153977 16.3933
71.048306272748 7.62274
71.0865829423338 6.64118
74.0955169734463 4.02831
77.0387736812278 1.78606
79.0539394004361 17.4566
81.0698014637926 68.3353
81.1540470523977 1.06049
83.0513582093952 8.92087
83.0854018811894 6.43911
85.0670061567487 4.20652
85.1016124742846 21.8797
85.1423579560876 1.81549
87.0465681588799 2.14409
91.0540305349826 100.0
91.1424712862236 1.84031
92.1509166600082 1.79447
93.0697817642509 63.2813
93.1536711950469 1.32703
95.0854128439619 35.9443
97.0677449150665 3.08535
97.100421859961 1.5647
99.0784252649838 1.85041
101.059752759182 3.53505
102.127309023835 2.73863
105.06990062739 94.4742
105.163725563693 1.88114
105.202359610358 1.41122
107.084243277442 29.5398
107.161828475558 1.10431
109.062165629725 4.97117
109.10256653894 11.8526
111.079897218367 3.95001
113.057615867935 3.34079
115.05132734103 1.80157
116.056395027133 1.30116
117.069485169857 42.2135
117.431575628393 1.08707
119.085163093303 69.3836
119.16658789181 1.50771
119.214331982129 1.11862
121.102516689292 21.6972
123.100613442078 9.25707
123.153268351087 1.14984
127.07342002678 2.37423
129.069285633206 13.7592
131.084198829065 63.5325
131.141972158182 2.54554
133.061975394017 2.78622
133.09946636606 29.8821
135.080875641857 19.4063
135.113646513855 9.61892
135.182675097227 1.18339
137.136449578717 2.67532
139.111943747307 1.06579
141.070219275457 23.2839
142.079273606668 2.18267
143.086406581611 13.0207
145.101006560961 50.7086
145.207579856471 1.16839
147.114357822459 27.3887
147.23054834908 1.10774
149.109030682939 12.4914
151.140717853042 4.85666
153.090172415182 4.11639
154.071705269778 1.65981
155.086469486496 14.3719
157.099731008172 33.4903
159.109526201874 27.6607
159.187965863406 1.23852
159.299373456377 1.47292
161.13386127753 20.6913
163.101173427768 2.42376
163.147815305015 3.39558
165.088558467971 7.95275
167.103365592054 2.59637
168.091152242872 1.37883
169.100444529742 25.3898
171.115195336682 12.1724
173.12464961341 17.737
175.146866253401 36.7572
177.090591468391 8.21
177.160468658824 6.29181
177.22239138506 1.5683
179.10133094961 1.85368
181.1073977592 1.29232
182.109235836417 1.78359
183.115760472496 29.1908
183.543631813106 1.28238
185.127019187752 7.12091
187.115503793917 21.6119
187.240316174991 1.08356
187.657156870722 1.14586
189.03214327195 1.45168
189.161724438065 21.3574
189.226385729735 1.29969
191.105441799819 6.36491
191.139043640817 2.62441
193.122380240082 5.14133
195.115353824076 1.69871
197.130197219295 12.2908
199.145623453337 3.15469
200.114398826148 2.83944
201.13236767111 34.636
201.243703183756 1.18629
203.13590447005 1.96177
203.181056472541 5.71134
205.127255413966 11.0258
205.286978318435 1.1458
206.131818970049 2.07073
209.159423127396 2.18194
211.144338991431 6.66516
213.161638739949 3.61437
215.155746672019 6.61938
216.185195083746 1.06147
217.158930229179 2.04128
218.132130879343 1.19532
219.138351310673 10.574
221.151862589828 9.78391
223.163187972745 1.40509
225.158757375681 6.31405
227.14051952472 1.39228
229.165916362044 2.05855
231.170229636928 7.8775
233.15612536822 9.22522
233.223580592265 1.11504
237.181986705152 2.58654
239.176694719654 6.42795
241.196225457395 9.66113
243.20845197441 21.979
247.167815804562 2.28178
249.190006693738 2.35998
257.193514478592 13.5959
261.175807576353 3.31411
264.209252557709 1.39758
267.208460563782 28.6907
271.154068595975 3.49372
275.197773118855 1.93031
285.221449394656 24.3486
302.142617617338 1.82913
302.206600550089 3.70638
302.276941875675 3.12679
303.231498555291 80.5722
304.23149855529 1.0e-13

>collision 40.0
39.0221010287157 1.05182
39.8284027919422 0.505444
41.0392747114418 14.2834
43.0182277990713 4.54195
43.0555181584907 19.8651
43.707693898014 0.67671
45.0339645884222 1.19879
51.0225150427807 2.49291
53.0383537731082 2.30793
54.8428557157133 0.516931
55.0182637725364 10.0775
55.0547765650904 25.7118
57.0337767686426 1.07796
57.0697972066787 6.77536
59.050007751772 1.34419
65.0377986578644 2.69498
67.0549377149252 50.4735
67.1293641327496 0.87743
68.0521595805898 1.10446
69.0301056210645 0.637548
69.0711636640678 8.04287
71.0498719621032 5.43834
72.0786624831319 0.746552
73.027879392819 1.02126
73.0653537687223 0.673802
77.0393261420394 19.0039
77.6558972832467 0.512778
78.046717868245 0.757015
79.054222474274 46.1234
79.1349094853063 0.736815
80.0613491600955 0.715934
81.0700418407919 21.8358
81.1496240426404 0.574884
81.2006448061017 0.502062
83.0501910457663 1.38994
83.0861047084869 1.77538
85.0641334409363 1.70005
85.1023724176868 0.840143
86.0937205487257 0.633319
87.0428552766275 0.821085
91.0543896485134 100.0
91.1420823583349 1.90393
91.1739683683339 0.770656
91.217477226456 0.533106
91.2581675910052 0.676054
91.2849171248277 0.559288
91.3352141916006 0.512878
91.4371363409885 0.838648
91.466810083883 0.513201
91.5576455929 0.590618
91.8648361245211 0.68436
93.0700034054143 50.5998
93.122456492458 1.536
93.1593113001954 0.772805
93.3636500953611 0.658608
93.4605419973104 0.537237
94.0606884257987 0.588354
94.2985535210173 0.584496
95.0851848695266 9.46233
97.0626620697086 0.819653
97.1029575669248 0.910542
99.0765342935713 0.673049
103.053997376678 5.01965
104.060175582495 0.657944
105.069737379796 48.3952
105.143307887198 0.742617
105.164067569793 0.872205
105.223205434379 0.619124
106.068892457934 0.512328
107.08498897068 8.40798
109.100181600308 2.90755
115.054333675075 8.24432
116.058222317995 2.07215
117.069461019138 26.5481
118.075457247843 2.19525
119.086360179589 20.2637
119.14448434514 0.687592
121.060370426132 2.56263
121.100626316199 2.94605
127.052424185131 1.91795
128.061405589915 5.8545
129.07113169118 10.8104
130.080544224053 2.91937
131.084930938279 41.0969
131.188857956674 0.891044
132.090038338301 1.60177
133.097685880479 9.42734
135.113365133483 1.44158
141.069462534921 11.1121
142.077250652728 1.68133
143.085508003811 4.58863
144.073053238925 1.37518
145.100772283736 21.2852
145.186044108147 0.567406
146.108372009925 1.05654
147.112956696035 2.89306
149.105474903226 1.15695
154.076560139622 1.44132
155.08464215173 5.51272
156.093527296887 0.618988
157.097902464485 4.23353
159.115476349492 5.32261
161.108612122437 1.16756
163.029384510425 0.532596
167.080470454506 0.612527
168.093670827888 1.44541
169.097165436978 3.00158
171.115287574117 1.75947
173.131734838634 1.17689
175.105286822915 1.4358
175.149431504255 1.37848
183.116039585654 1.44813
187.144694592487 1.03734
189.164144249117 0.881056
213.155426855012 0.543039
233.151922176124 0.794977
234.15192217612 1.0e-13

