>compound 8(S)-HETE
>formula C20H32O3
>parentmass 303.231558104188
>charge -1

>ms1peaks
105.069315263645 0.588615
175.146856755802 0.713352
183.116492173242 1.13618
201.150787096145 0.694697
237.18423295264 1.1111
267.21012549007 3.45982
285.221370505042 3.89641
303.231748046697 100.0
303.388972860207 1.9412
303.44312089168 0.887864
303.60386771256 0.517379
304.60386771256 1.0e-13

>collision 10.0
43.0550059657699 2.68583
55.055752345696 1.39943
57.070492722086 1.44799
67.0552186625803 3.91777
69.070360957208 2.4152
71.0857553398734 0.708843
77.0383064907856 0.55951
79.0545613657688 1.62932
81.0707925692168 4.62824
83.0495850146608 0.613482
83.0856372277226 0.78904
85.0651894170475 0.567733
85.1014061448463 1.405
91.0540068586538 5.09071
93.0700275812647 3.62676
95.086138492675 4.28896
101.059548110543 0.891419
105.069757829195 10.69
107.085409694545 1.62398
109.099672019649 1.28245
117.069293626608 2.77786
119.085738150235 4.36621
121.101123558278 1.95009
123.081392326137 1.65167
123.115375883648 1.50116
129.070178589189 2.54873
131.085045109496 5.43721
133.101305941715 2.43933
135.079422595853 2.69471
135.114425826375 1.26997
137.1312972139 0.906991
141.070966968735 1.85758
143.084686811761 1.11779
145.101142372974 3.22788
147.113363938433 1.29763
149.106495983851 1.6409
151.147137717711 0.971182
153.089239026181 1.27316
155.085553504758 0.886734
157.10078345312 3.08605
159.111877647391 1.32156
161.129399642518 2.48758
163.146786235118 1.12934
167.106530847471 1.21768
169.10084158499 1.57307
171.115463335166 1.34227
173.125495069895 2.347
175.147588321553 9.17327
177.091733015786 0.589703
177.164531735487 0.637597
181.118800556411 0.511944
183.116163346502 12.2267
185.133856517646 0.700089
187.125540098765 1.8325
189.162515341036 2.58769
191.107085272839 1.82082
193.123846979015 0.503868
197.131892212044 3.90886
199.149892105108 0.792146
201.149261448461 6.48443
203.178444253632 1.72453
205.122627517734 1.57027
211.14702174371 0.832561
213.163378948981 0.716964
215.14898280147 1.52288
217.158429706409 0.551798
219.137512347251 3.58388
225.170143182874 0.906558
233.153572403399 3.71385
237.185152894587 1.28275
239.178769517664 0.880304
241.195630780443 2.89848
243.207729816922 1.53066
247.169549199105 1.02097
257.203738022686 1.6103
267.210572401568 17.5138
285.221036075394 12.8094
303.231558104188 100.0
303.385849951837 1.68278
303.443577296443 0.7713
303.644267496187 0.619597
303.961699760497 0.512937
304.9616997605 1.0e-13

>collision 20.0
41.0401677018434 5.83241
43.0190628490351 3.22925
43.0550527663814 25.0268
55.0187463889738 2.88424
55.0550588638445 27.4719
55.1228155648608 0.578253
57.0709977051341 11.8885
59.0493302225705 0.989406
65.0396174635371 1.18363
67.0550379001249 55.8125
67.1303098182348 1.21282
69.0703998992395 32.3056
71.0498883245174 5.59261
71.0856065815166 3.3526
73.0653727223063 1.27182
74.0959951538206 1.15122
77.0389044747034 5.89369
79.0546134978411 32.0661
79.1339854060287 0.712229
80.0569415498478 0.585598
81.0705776081823 54.5589
81.1517772790827 0.949378
83.051064597645 4.8663
83.0860950902778 7.98319
85.0282023413476 1.69823
85.0645986359084 4.72363
85.1020552003625 2.94822
87.0446551491637 2.98666
91.0546203891264 73.7345
91.1411401910749 1.25613
91.1661286219712 0.614451
91.2788453521084 0.623857
93.0699416516305 54.4499
93.1574832696224 0.887433
93.1847286487857 0.503362
95.0509795041056 0.836957
95.0858751909977 35.9069
95.1988228617625 0.662744
97.0642767218294 1.90989
97.100422342046 1.61431
99.0451435144174 0.698343
99.08160914469 2.38966
101.058742348094 3.47256
103.056934964181 0.775976
104.059532022959 0.541749
105.069770513424 100.0
105.163369364062 1.50977
105.193534025672 0.645801
105.263457083369 0.617695
105.310276254814 0.65274
107.085399402953 22.8482
109.063351730108 2.89973
109.100951501265 9.49462
111.08160600685 1.17667
111.115914159456 0.69876
113.059926277512 1.90587
115.053269159952 3.1236
117.069533713561 32.6959
118.074731785466 0.840852
119.08528621747 50.6418
119.185853224993 0.701335
120.091372996361 0.663552
121.063907126336 4.44235
121.101337316258 14.6938
123.079791866686 5.98513
123.11500525006 4.04486
127.075785098307 2.35107
128.060823551445 1.3602
129.069255370598 24.6359
130.082959074402 0.821693
131.085431236452 56.3182
131.191560589024 0.91175
132.091249275113 0.901875
133.100686250282 23.8583
135.080060271383 11.4641
135.112873333294 6.07669
137.091491122107 0.752982
137.132185611553 2.36512
141.069970709701 21.4716
143.08476155668 12.2415
145.10040897114 37.7606
145.213264620303 0.670073
146.106569667182 0.735635
147.108619419297 11.1188
149.101983736554 8.46617
151.147343295104 1.4832
153.086246727628 1.09882
154.07565225837 0.869012
155.084931388359 11.0655
157.100405377112 21.2865
158.105370116627 0.592373
159.115974064865 22.3089
161.128424975453 13.5456
163.140327787134 3.39339
165.09089157215 1.23072
167.101196953115 1.93884
168.090716009283 1.5265
169.099502194847 8.69694
171.115388104328 12.4567
173.127002284538 15.3372
175.147805923894 30.665
175.251465764208 0.737312
177.08962131074 2.53693
177.161579916507 2.40525
179.106343439671 1.6817
181.10843212821 1.88435
182.110009381521 1.14056
183.116615707513 28.081
183.240590445374 0.54998
185.1343693955 3.46059
187.119878680872 11.8079
189.162382561499 9.94209
191.105402045011 6.10561
193.118922029017 0.748943
197.131032627672 7.28051
199.15028061009 2.77391
201.135029516366 19.7019
202.169934213253 0.638943
203.177390603925 7.04647
205.121295224438 6.28371
207.139349963417 0.851456
209.148672179056 0.73199
211.145773097348 3.18539
213.16298061249 1.60423
215.1516090592 5.35366
217.165773053558 1.90694
219.137838891304 11.4507
221.150179907699 2.66123
225.164954157341 3.70688
227.182277104061 0.790304
229.159865288671 1.05829
233.152575836958 9.23891
237.182436355741 0.742526
239.174507875154 2.11486
241.193504842409 6.29614
243.209452781164 7.03146
247.168776308796 1.94124
257.199374350664 2.64074
261.186339742835 0.819058
267.210600768089 11.3509
275.198454914551 1.80391
285.221675164823 8.15076
302.283569406319 0.729018
303.231452282036 39.5683
303.380926306241 0.73365
304.38092630624 1.0e-13

>collision 40.0
39.0236876834908 0.746233
41.0395519065177 17.7897
43.0185599370784 3.84021
43.0551697243425 12.6275
45.0346243536219 1.74981
51.0228324743005 0.979366
53.0394086642871 2.21943
55.0184196848554 3.73988
55.0549768062845 29.4632
55.1221285160401 0.594685
57.0345518053104 1.10794
57.071090160164 3.10906
59.0500446692486 1.39518
65.0397595375235 4.96278
67.0549285546905 42.6385
67.1289936321391 0.729092
69.0708872689204 9.55558
71.0490617321885 4.141
71.0848656866513 0.503707
73.063032241134 0.653434
77.039003108915 20.7137
78.0473583207454 0.642917
79.0546025755875 44.3005
79.1354119939225 0.826338
81.0700884114718 34.1981
81.1523917271698 0.556722
83.0493482624523 1.03812
83.0835632024139 0.784326
85.0294826101814 0.740297
85.0658429922745 2.98912
87.0420469400922 0.577394
91.0543517144573 100.0
91.1413852811451 1.63368
91.1685453109227 0.875946
92.0639610409866 0.560068
93.070214092738 27.7256
95.0859228242957 11.2398
103.053852969105 7.39355
104.061865076615 1.54926
105.069782879921 54.6971
105.161973770123 0.972701
107.085813180089 5.66035
109.100037961825 0.970697
115.053424105625 7.39567
116.061946432411 3.34198
117.069623175935 30.4288
118.077590610958 0.602608
119.085068901345 17.045
121.064361931402 1.86105
121.100350683783 1.97207
127.056172670757 0.750438
128.062557420155 2.81631
129.069219105376 12.3133
130.077382829266 2.89972
131.08491754059 25.1219
132.093095904156 0.652214
133.100567033504 5.43174
135.083403471138 1.32594
141.068987386771 5.65659
142.076537971229 2.48394
143.08589914239 3.95066
144.089735019108 1.48529
145.100339630828 10.2978
147.112821953982 1.05921
153.070090535349 1.19886
154.074571528961 0.670877
155.082499827314 2.57086
156.094834917395 0.636491
157.100297763643 2.39587
159.11553956065 2.62919
167.081753337338 0.744223
168.090311335552 1.05269
169.099344049629 0.588771
171.115952092771 1.15406
173.120033169484 0.686018
187.145910287765 0.743765
188.14591028776 1.0e-13

