>compound Butein
>formula C15H12O5
>parentmass 273.075617010717
>charge 1

>ms1peaks
137.023570304813 0.863938
163.039434414366 1.07893
234.030481715808 1.98915
255.062822124446 0.566575
273.075844755412 100.0
273.221595014691 2.12206
273.273311790417 1.10206
273.42696230353 0.59468
273.537967498942 0.6419

>collision 10.0
135.043534615154 0.511594
137.022788961764 6.80911
163.038757013244 12.8382
227.071493040827 0.521698
255.065834970068 5.95741
258.050569540159 0.822752
273.075617010717 100.0
273.268728887513 1.0227
273.339465239257 0.626799
273.425486923129 0.510441
273.51654157454 0.524291

>collision 20.0
53.0401196477451 0.572422
68.997550309677 0.642873
81.0341372995343 2.68274
89.0378510266395 1.94642
93.0344355564727 2.44595
107.050345925395 0.860909
109.026475318963 1.43713
111.04400305338 0.904295
117.033391165199 4.84217
123.04330601871 1.58076
135.043328257732 6.29898
137.022940287013 99.8159
137.129120660897 1.862
137.159460782706 0.730622
137.193914456271 0.51802
139.039074649516 1.68941
145.027718999549 11.7755
153.0730975409 0.620408
157.062520153128 0.654751
163.038291056139 100.0
163.154183775667 1.7078
163.194120543739 0.765869
163.261932951909 0.529669
163.348759279501 0.518096
169.063171663878 0.563174
181.064117850918 3.86105
185.059507271295 1.45969
187.075716455397 1.81709
189.056759433882 0.570104
193.060396855721 0.503518
199.07396439531 1.94746
200.981744848539 0.969741
203.070803212993 1.98891
209.057775662479 4.9634
213.054037044035 1.08805
227.070334279572 9.14679
231.064238079661 1.42663
237.052159273857 5.17389
255.065134157004 20.1203
258.051288879371 4.98667
273.075295092509 35.0131
273.16382991801 4.43319

>collision 40.0
53.0391383789992 8.53583
56.9659140113089 2.11805
61.013054369262 0.711379
63.0243388808223 2.29957
63.9986590021824 3.06318
65.0394869309382 3.52615
68.9973974311248 8.69762
69.0302195172389 1.08191
77.0389597834414 4.22664
79.0545870547949 4.16594
81.0338415889161 51.6316
81.1164455571 0.90205
89.0387029732313 31.2487
89.1042342390581 0.584762
91.0522046875506 0.723169
93.0343642428205 5.78835
95.0125603880764 0.636772
107.049051909837 3.53618
109.028277570956 9.05792
111.043323258644 1.25391
115.052629635905 1.18543
117.03305220395 26.5474
123.044232388119 2.53267
127.058186621348 0.550996
128.060442623835 1.57438
129.066510992963 1.01805
135.043174785084 16.4393
137.022795004336 100.0
137.129563270793 1.38436
137.167180315901 0.886475
137.456309895755 0.500182
139.055610930307 1.57542
141.071625919167 1.09423
145.027440957796 8.19588
152.061959514866 3.18334
153.069302467889 3.25781
156.993174457365 0.50679
157.063870430837 0.674127
163.038778902999 6.02159
165.070578235015 0.70212
172.990898845742 0.88441
181.064635864632 4.15582
184.051767313538 0.646366
197.057869503256 0.50618
200.986401578415 0.53058
209.058183622977 0.728786
219.01155487734 0.609288
231.012741372495 0.596579
245.998961790152 0.946223
247.00309869153 1.27844
249.020709286345 0.603602

