>compound 6-Gingerol
>formula C17H26O4
>parentmass 295.188401413354
>charge 1

>ms1peaks
137.060141948807 13.0924
141.129852528737 1.0989
145.01404950875 0.919484
145.06246850332 1.74118
158.962297765154 5.48164
159.025169559346 0.877699
163.072187928838 1.98899
175.075459067757 0.711173
177.089685395876 37.0358
177.18539542125 0.941286
179.069577769429 5.34664
195.09742880934 1.16432
253.964056782886 0.514923
254.068991305997 0.603617
259.17114308751 2.2709
277.178963409975 100.0
277.333933693618 1.76355
277.375289339046 0.86171
277.499946231016 0.742475
277.657661367252 0.607271
278.0179330335 0.584113
278.176250350772 0.653464
278.276932208644 0.552104
279.120277007538 0.547659
294.178524998299 2.10333
294.939576582153 8.14517
295.188401413354 10.9936

>collision 10.0
43.0533341649197 1.54892
64.9803825543192 0.911239
71.0865326614787 1.67227
71.112275828357 0.577072
79.0232061710724 0.757618
83.08569739206 1.86054
94.0411949415149 0.57569
99.0815105174484 2.34705
115.059333573194 0.644427
117.066514593814 1.73356
117.956524518062 0.592824
122.036864865985 1.09027
123.120619801858 0.7132
131.047502274405 3.1663
137.059387922387 100.0
137.168670883147 2.13837
137.219839423101 0.769301
137.329786976088 0.843743
137.53143566838 0.604818
137.623786124159 0.62157
137.981288792535 0.714283
138.455030059092 0.604818
141.125565644296 7.8368
145.063737113279 14.2971
145.127561044985 0.597107
158.96300318486 8.83724
162.066196895949 1.69052
163.073888956576 13.9714
163.990991801667 0.570276
175.073620340938 1.08313
177.090421088708 83.4689
177.266372576734 0.768085
177.47909947901 0.600106
177.700519188019 0.845136
177.827411772357 0.693168
179.070085342884 8.54567
179.490164146878 0.594382
194.092856967447 0.586357
227.143042863042 0.60098
259.167628890088 7.27956
277.180409006646 8.75301
294.180595233327 0.630861
295.172098813262 1.11207

>collision 20.0
43.0571712791724 1.39974
64.9761015324115 1.14415
66.0487979416018 2.22593
71.0857374207114 1.84831
83.0856361882953 1.80249
91.0526223958925 0.61042
94.040777494604 1.52426
99.0775693490006 1.3878
107.045692745986 0.536849
116.064379172296 0.665865
117.069817253936 1.77394
122.034270807774 3.29787
123.042349160062 0.811312
123.120512921682 1.30496
131.050203490704 4.20465
133.058855076592 1.10327
137.059558798571 100.0
137.144284169501 2.10515
137.199068833727 1.14059
137.322378903922 0.600252
137.405468252344 0.826844
137.529584028061 0.537591
138.053283603703 1.20656
141.12953996092 2.17305
145.063764202298 10.1526
148.611832546072 0.634404
151.079620565965 0.660354
158.963462958898 2.27875
162.065355482416 3.67803
163.076895862471 4.69373
171.076063237518 1.08847
175.073102973154 0.748063
177.08901415107 29.5914
179.067106467226 6.47203
189.090498711712 1.20053
203.10699945567 0.837212
259.159387423793 0.948368
294.175863069495 0.592782

>collision 40.0
34.8203490200483 0.701494
43.0562419603952 3.00421
45.034942776591 0.732089
50.0112047614435 1.00057
51.0218267451818 2.39409
55.0530000193411 1.60087
64.9765559290608 4.49023
65.0079752934989 0.820823
66.04667822754 3.49434
67.032661090965 1.20525
67.053711664795 0.967271
71.0674145289643 0.732363
77.03680809751 2.5478
79.0528611827947 2.06296
81.029968197718 1.03191
81.0713807072825 1.1979
83.083503153223 1.06147
91.0561023910906 3.53377
94.0416580276054 17.1359
103.056189469563 7.44241
115.053348211926 8.45227
117.068203485776 9.4398
119.0483329925 1.40738
122.035593620526 32.5569
122.11270600962 0.778877
122.136531920759 0.715561
131.047167183218 3.16847
137.058878753355 100.0
137.164208532359 1.81567
137.206874901033 0.898384
137.247087477784 0.803317
137.300740081388 0.66573
137.521322859706 0.81121
137.581725923405 0.753506
143.05082770206 0.710181
144.052753664831 0.831335
145.062317416053 6.26281
158.02160448939 0.682855
161.058320681247 1.36513
162.063316362946 1.50003
177.089610149567 1.10051
204.796334386042 0.811301
249.223037467377 0.993113

