>compound Oxybutynin
>formula C22H31NO3
>parentmass 358.238779783554
>charge 1

>ms1peaks
358.239514248401 100.0
358.472041714634 7.18682

>collision 10.0
54.0347444369072 0.524256
72.0814387418637 0.613145
82.065514803232 0.511918
97.028531750893 0.6544
105.033695296464 0.516579
124.112128224344 3.67059
142.1219069606 1.91265
340.226506141326 2.13136
358.238779783554 100.0
358.471932226322 8.39035

>collision 20.0
41.0396028726738 0.576433
42.0349569419427 2.02336
44.0510209789652 1.38866
47.0138327495365 0.568872
54.0349849106162 7.09849
55.0556186783721 2.3315
56.0507280147113 3.00864
58.0663483721478 2.25905
68.0502546274531 2.84733
69.0347076433502 1.90407
69.0706115388738 0.878534
70.0659720476576 1.45493
72.0817367000502 7.96898
73.0893560700223 0.770109
79.054824679298 2.31139
81.0683063874249 1.76577
82.0657530528203 5.5533
83.0853372039991 1.21375
84.0812719506978 0.705277
86.097201269023 0.534763
91.0547647247217 1.42257
94.0654862787296 2.24453
95.0753796424308 1.70675
96.0814922347024 5.31143
97.0289023764093 8.44337
105.033852064532 6.68482
107.049530261699 1.90141
108.081359878436 0.940115
109.089039149624 1.60337
122.096484067079 2.27506
124.112463721365 25.6354
124.253100811745 0.578473
125.11985107871 0.552178
129.070198290921 1.43286
142.122755864678 19.2924
171.116644451221 2.29846
187.07500223739 0.550359
189.12757039374 3.48079
199.110690222762 1.416
203.070338336443 0.534224
258.148913657518 1.62413
267.138273050563 0.759304
340.227344064994 8.88712
358.238114821667 100.0
358.4716296467 4.27898

>collision 40.0
39.0244564298738 0.771204
41.0399085161892 10.8824
42.0352576704804 8.64559
43.019146994621 3.7062
44.0511214484 9.99356
47.014372435283 13.1818
51.0243326301783 4.28003
53.0401854342306 3.21748
54.0352455873583 32.959
54.1251547426941 0.757297
55.0558561009876 11.8777
56.0507852778079 6.20663
58.0665985464547 54.0361
58.1632981181339 1.21563
63.009598242458 1.00321
65.0403674884825 0.712996
67.0542503811858 4.5729
68.0507313538709 16.624
69.0347420598485 18.3634
69.0695161358131 3.22817
70.0663109405041 2.28183
71.050914748151 0.571896
72.0820817051157 100.0
72.1870268625783 3.25086
73.0897582673828 4.41663
74.0974268510929 1.99733
77.0399615257057 9.62942
79.0551825518291 19.6803
80.0506600295215 5.29139
81.06377764199 6.90704
82.065982690743 6.1276
83.0858554759377 4.0542
84.0819719303345 1.32585
86.0973794429986 3.33186
91.0555568619932 16.957
93.069599539729 1.26992
94.065801029631 13.9021
95.075411947294 2.64773
96.0818865137096 7.06127
97.0291580055455 17.5677
103.0550730278 0.774446
105.034077495013 39.3098
105.160406535671 0.755967
107.049730142587 28.2714
107.176868762558 0.514648
108.081222370512 6.04926
109.089045342104 2.62487
115.054573377205 0.896487
117.070902946171 2.07167
121.065774324143 0.930339
122.097051448739 1.90904
124.112833868463 2.31236
127.054215330666 0.950489
128.062397399654 2.18994
129.070464935887 14.2889
141.069839426698 0.770921
142.12326228722 46.7691
142.273953786781 0.638416
143.085761343146 2.89831
157.065088842656 1.53951
166.077845015062 0.515403
171.117366470153 4.15087
173.061209085384 0.615525
181.101621643293 0.506949
189.127586840869 3.7166
199.112494562454 1.17251

