>compound Genistin
>formula C21H20O10
>parentmass 433.111999155125
>charge 1

>ms1peaks
82.221634861112 0.560609
116.60458001489 0.695197
173.968417883707 0.873295
271.0601159669 14.578
354.919022820109 0.667781
384.788315238534 0.625756
414.097258118952 0.678634
432.291472370493 0.963611
432.383301477822 1.03929
432.917042294461 2.13476
433.113042451149 100.0
433.27620285365 2.22978
433.37869525455 0.789492
433.430345543911 0.684007
433.521153753227 0.627197
433.676696807968 0.811206
433.825227085944 0.820568
433.944769739076 0.824717
434.034579319313 0.723354

>collision 10.0
271.059794489346 100.0
271.192571398014 2.17076
271.251999506089 1.07914
271.369981525661 0.582569
271.468739642214 0.820265
271.579691465028 0.534927
271.878202074033 0.578925
432.304394249884 0.752963
433.111999155125 39.8838
433.263655842745 1.5322
433.306100237339 1.05121
433.384989935433 0.506849
433.885845848059 0.538505

>collision 20.0
271.058837393199 100.0
271.27641912055 0.795238
271.371777815171 0.751709
271.426374445843 0.529151
271.588629870386 0.717137
271.753343267926 1.0113
271.956751966417 0.932858
272.042077839746 0.923531

>collision 40.0
68.9968820257895 1.01834
91.0525862168282 1.17807
121.031938464962 0.725645
145.02724278564 1.05624
149.02444873387 1.61678
153.01733124981 5.46028
153.073941134658 0.587887
159.048472880136 0.625543
165.021317731703 0.649928
169.066392628314 0.720357
173.055458962425 0.887923
197.055877171992 0.785544
215.070758960709 7.99771
243.065633878552 4.7179
253.048894740531 2.21574
271.058953695969 100.0
271.205444209245 1.59082
271.259566237422 0.866456
271.305673750212 0.591596
271.362363300673 0.935235
271.535947546311 1.08227
271.643356806839 0.7593
271.796958756167 0.665324
272.237949501881 0.532536
272.494300613884 0.559523

