>compound Prunetin
>formula C16H12O5
>parentmass 285.075945468553
>charge 1

>ms1peaks
105.664078646163 0.53111
118.146848587707 0.518689
145.025803529863 0.50502
243.942997320994 0.530356
284.857931365049 1.47369
285.075082823017 100.0
285.269087758581 0.782698
285.385701275756 0.670985
285.664516404308 0.831919
285.863832105398 1.18951

>collision 10.0
98.1070672557727 0.684661
111.042513450795 0.802095
140.550317205855 0.740398
164.918394715986 0.703521
167.033104978755 0.683302
167.979666923786 0.570102
205.066199838737 0.797096
207.087424999705 0.637511
214.063191551296 1.06851
221.133845551118 0.508941
231.166132313667 0.511889
257.072596097397 1.66594
284.330255959235 1.31069
285.075945468553 100.0
285.271757035612 1.04139
285.309890506805 1.09309
285.458488340488 1.04597
285.7234922673 0.825656
285.90553687883 0.682235
285.946198318331 0.861133
286.02564845366 0.853721

>collision 20.0
120.021056813879 0.606897
130.084321983868 0.936458
145.027540333448 0.68237
163.034968928291 1.2551
167.034216525103 4.367
178.927444254096 0.847728
186.065031999916 0.699215
187.035060498134 1.19638
205.701248284933 0.605096
211.07730492829 1.1929
229.082290608092 2.65737
242.056241674006 0.846639
257.080554951464 3.82854
267.053825336896 0.989498
270.047453136604 0.620356
284.32799427479 0.987182
285.075363568858 100.0
285.199907527411 2.28278
285.363563037733 1.08053
285.586874197805 0.85684
285.743077699945 0.998148
285.929384718757 0.619609
286.0207371671 0.938507

>collision 40.0
54.8112205121246 2.05809
55.0162702043084 3.97965
55.0553537983207 3.10355
58.272270910863 2.14662
65.0390047782076 14.7484
67.0161222519779 6.60051
68.0227825295617 2.47058
68.9995742733048 5.30854
77.0412635782205 4.00829
83.008370301576 2.06695
89.041240853919 5.96114
91.016914147294 5.67373
91.0543247799006 89.0325
95.051804768005 6.07073
96.0226114804432 4.57784
99.0370533046995 2.91948
105.054187817405 2.79861
107.006521017407 2.21141
107.051984228884 3.00051
108.060697987494 2.71096
111.040625389709 8.74828
115.054685816479 10.9244
116.062835202062 2.14938
117.03377513734 2.03651
118.042506512508 3.52194
119.047931055884 17.3973
120.018526646373 4.7317
121.039479018628 3.15351
122.712488681244 2.47153
123.01553854214 8.95912
124.014307061557 22.1332
125.010837604937 3.16664
128.063103812793 2.49783
130.073825110683 3.33511
131.04713870947 13.8944
135.005589740287 2.61023
135.042903483316 11.3226
139.049713850986 4.52107
140.061002876729 6.84837
141.070977868107 17.507
145.028829469999 14.334
147.042122882538 2.20736
148.013123373325 8.60409
148.054658669562 3.16974
150.026349274671 2.30355
151.051322026622 4.98566
153.072700337253 4.34034
157.065965832627 5.51558
158.063965444507 9.63186
159.041687014626 9.86487
159.075629270359 2.69787
162.026300791569 4.30373
163.041076840402 15.5698
163.276804345518 2.17664
164.043228619496 6.56528
167.032359869795 92.0568
167.122289139359 2.22411
168.057633131121 32.3275
169.064056577053 19.3512
170.078470325097 3.47299
173.051655071154 5.19094
173.100327961704 5.7524
179.035413286724 7.57278
183.079893309099 11.9119
184.041557616623 2.81184
185.049119917038 2.61495
186.067192030403 10.2585
186.102957466183 2.90675
189.053570743953 2.25343
191.015523651696 2.86953
196.054710410743 14.9075
197.061479958965 10.495
198.064073407793 7.37367
199.07024303856 3.19428
201.077727821416 4.22902
209.0542307953 2.15639
211.076366777975 12.2531
212.039940277259 2.70094
213.053084388996 4.22682
214.061296462913 30.3087
223.037267315993 2.7717
224.046906048449 42.5151
225.054962373038 11.225
229.086125821438 30.9815
241.050087657724 23.2216
242.055836885501 100.0
242.458168515519 2.32406
252.038025939687 3.4699
253.050329102016 1.99874
256.084761374702 5.20845
257.079696103834 7.75629
285.077879909298 26.5843

