>compound Sinapic acid
>formula C11H12O5
>parentmass 225.074021800294
>charge 1

>ms1peaks
91.050100751928 0.777106
119.048452868622 0.734705
146.984227683464 0.876984
155.074789303935 0.699533
163.036348798325 0.546036
175.04344731592 1.62082
177.054161469986 0.70164
184.996024628175 2.43887
185.495428155979 1.23918
185.990582732777 1.92143
207.065121421065 33.873
207.14035386306 1.86105
207.173718012505 0.974997
224.065405639262 0.824628
225.008824378218 6.10264
225.075793983475 100.0
225.207190034627 1.7781
225.242835885355 0.896876
225.30276307604 0.657205
225.464208876494 1.13497
225.588505237379 0.742074
225.713100213236 0.631403
225.806917873513 0.943903
225.915472570677 0.755353
226.014442525954 0.532361

>collision 10.0
91.0511840048319 0.873956
103.052013334331 0.975075
107.977264600983 0.694137
119.049135491878 3.75631
121.068408657409 1.53639
123.043837147896 2.40878
129.033369889161 1.0989
140.049062501695 0.685258
145.985585839209 2.20944
146.4883249699 1.38261
146.992577351898 9.10957
147.042519803689 6.07159
147.482367546332 0.963072
147.597179602824 0.753202
149.059379360901 1.269
153.058266656874 0.594437
155.068266372103 1.13265
175.037821879015 43.4366
175.162158448049 0.531384
175.199738220322 0.592708
175.464117973802 0.550676
175.639056945 0.527097
182.974471978071 0.611334
183.064196772343 7.84759
192.045303832158 1.2208
193.049296137057 3.31609
207.064798569617 100.0
207.165210933177 2.37484
207.233948593792 0.905104
207.265542623023 0.824378
207.331306634591 0.564536
207.378544962787 0.845095
207.503237415078 1.17114
207.781275612577 0.549934
209.043636849905 0.668197
224.081489125145 0.882311
225.012021570106 1.71559
225.074021800294 10.3175

>collision 20.0
26.7580575580491 1.86469
50.33374658381 1.90589
55.0180507093023 3.53252
61.0108548142285 3.31437
62.9890894191496 1.52124
76.0301023668172 1.52797
77.037071188246 2.51218
91.0549489933157 49.384
91.139778620528 1.72972
93.0783613656146 1.95161
95.050295761426 7.09358
103.005920289284 16.9631
103.051698579888 4.30808
103.079348787748 1.62634
106.977229070424 4.90454
107.082922083319 1.63739
118.040752535371 14.7235
119.048978413443 100.0
119.126168303012 2.35613
119.373710210172 1.71339
120.054379125971 1.85786
121.064171245069 6.34207
123.042567988743 20.7146
129.035266964787 20.9022
131.051677473826 1.83562
132.016580528117 4.02868
132.050464212936 2.55393
134.039242082615 1.5583
135.945399250011 2.25933
136.045621538571 2.87997
137.051686208829 2.34878
137.955271734044 1.83255
140.049587685066 4.03824
145.026703301047 5.36703
146.036658001005 2.83482
146.078210329591 1.94175
146.996315576781 11.1552
147.043058728368 81.1393
147.105840671485 3.84893
147.155421287268 1.56573
147.865692881315 1.57813
148.049274372475 3.63519
149.022401899866 13.9703
149.080852650209 1.96429
151.937153067384 2.37704
153.05195100771 6.43097
155.070429551172 8.20633
157.025543512391 1.63631
162.032927724584 2.22368
164.045884041584 17.0604
174.029007341169 3.97124
175.038388469751 73.6778
175.85151196246 1.56499
179.07314750928 8.98492
181.084671388437 1.57965
183.05814517235 2.48969
192.04262936041 53.5866
193.056533888704 2.99442
207.064000228813 30.7687
213.961921358244 2.06481

>collision 40.0
41.0361217179795 2.40131
45.9884051443873 2.01751
48.0037751482377 2.92923
50.8266868468051 2.21364
51.0231827386287 4.84297
53.0007929763292 2.08668
55.2038189546 2.23051
57.0225380213794 3.0973
61.0132787626326 3.93479
62.0142443058113 5.51983
62.0363509582553 1.90799
62.9911051506332 9.05453
63.020771997268 4.7063
65.0387577131354 64.3719
66.043784146715 2.30117
66.4503554007012 1.86764
67.0530745338428 2.95436
68.9806144554647 2.61214
75.0237786690491 5.14234
76.0316545768649 26.2068
77.0409709326468 22.9735
78.0139046725537 4.93262
78.0452738001422 6.67832
78.0734370740619 1.86187
79.0227523148801 2.18072
79.0549202812614 27.4973
80.0622233602884 8.21453
87.977782881725 2.05922
88.0324746657525 6.54452
89.0386097855784 31.7174
90.0448450736374 22.0055
91.0536838024541 100.0
93.0321340356146 15.1429
94.037567505417 2.53712
95.04831283861 7.56734
101.038369417991 6.4249
102.049632841568 2.26109
103.006021161924 10.5856
103.04744572649 5.07269
104.026656402424 12.1556
105.0339691756 3.28261
107.047652800944 9.82977
108.055558980177 3.52834
117.033778225352 11.7045
118.039238468459 34.4577
118.089019567397 2.37778
118.714854320045 2.47381
119.047977827823 20.9058
120.056812472812 2.36529
121.028418498082 13.6147
123.077921295192 2.45093
132.022078844046 10.3656
134.037508550631 6.17423
135.045227604539 6.83417
136.920313414875 1.87423
137.058207733901 5.56961
140.045172303367 3.78877
144.011502514553 1.86135
145.024342468046 2.93142
146.036104134217 2.32089
147.041272736141 7.70675
149.020933542925 31.2311
163.041612195162 7.30368
212.938867149054 1.84765

