>compound Galangin
>formula C15H10O5
>parentmass 271.05949885869
>charge 1

>ms1peaks
271.059613553698 100.0
271.209923423121 1.75001
271.25429243929 0.82623
271.303886183556 0.608045
271.451491161372 0.554785

>collision 10.0
271.05949885869 100.0
271.253947274939 0.882764
271.339942482997 0.602439
271.422879114088 0.533932
271.508449299141 0.626753
271.659394104045 0.577112

>collision 20.0
105.033376088226 1.86572
131.049433796006 0.508836
137.023514772846 0.529434
153.018653987354 1.4155
165.01832730139 1.38719
271.059271760059 100.0
271.210577874732 1.49248
271.253720474633 0.868376
271.308264835708 0.66586
271.370667397758 0.537225
271.618244446561 0.522722
272.053485020893 0.509634

>collision 40.0
39.0226683149113 0.705881
41.0415088091557 2.45006
43.0191257015281 3.24708
51.024908783338 1.24427
53.0400181922319 2.86559
55.0174990499967 1.26863
65.0380786815746 1.74399
67.018991238811 8.95817
67.9678812799144 0.598471
68.9973489765 47.8374
69.0325770536287 7.87235
69.0746430317168 0.877793
77.0390628331394 42.4436
77.1008820643315 1.28042
79.0529730336514 2.57986
81.0331796084686 4.48677
89.0401488931238 2.80905
90.0452226625549 0.655114
91.0545933383647 16.96
92.0267446077445 1.09732
95.013243258713 1.9242
97.028362456756 0.647862
103.052952003804 3.8052
105.033453732733 48.1232
105.120636231018 0.654242
105.172164104615 0.611787
107.008514929614 1.03477
107.044132729927 0.57819
108.022158913017 4.12007
109.027622761634 5.53231
111.012449088269 2.03681
115.054155287058 15.8331
116.057393394964 0.560259
117.034127396628 0.612402
117.070375261591 1.41662
119.046418693357 1.38401
119.08863631769 1.11999
120.017996206187 0.732391
121.052326664462 0.763164
124.014178493598 1.11953
127.054098316078 2.93901
128.062814563485 3.55502
128.092289419926 0.719732
129.066562343861 7.5979
131.049211587432 9.49845
132.055674055176 0.559607
136.01452950422 2.0349
137.023941993323 11.4627
140.060572989732 0.639308
141.06930893904 35.5349
141.181166653417 0.737761
144.064055903964 0.545756
145.064304934013 3.60432
147.001751412152 1.02961
147.033858672495 0.633689
149.026487234393 0.72511
151.050819513578 2.15747
152.06115923475 4.0228
152.105741597277 0.63854
153.018182169104 100.0
153.125032220381 2.37668
153.197510001612 0.713517
153.233090052877 0.562932
153.278199090327 0.578445
153.425630063428 0.574789
153.540632851968 0.641011
153.745882193216 0.669682
155.052247958666 4.3637
157.067917684518 0.55185
159.073345401863 1.86347
163.039153319676 0.772369
165.016575748353 17.2744
168.052576790686 5.3883
169.064621928191 5.24424
171.037838576629 0.793764
173.054294253097 1.26337
179.044815564837 1.74906
181.004288852072 1.25064
181.062663358125 1.34527
183.035889814282 0.708305
187.036334023448 1.48938
187.08097528014 0.853846
196.050436623339 1.83184
196.092879324934 0.564436
197.059069712967 22.1483
198.066178986311 0.799625
200.044286503816 5.14641
202.058297681349 0.615236
203.064947109668 1.36965
207.045414346994 1.64146
213.053710911949 8.44923
215.023145927165 0.946789
215.067816833155 3.79425
216.073745320134 0.968013
224.040856594269 1.04732
225.056604442925 2.89182
227.063628344827 0.947454
229.043668300419 1.0285
241.044842454863 0.569359
242.056009383175 5.49207
253.047943976952 0.665766
269.040025998557 4.5992
270.054513500394 0.903469
271.060359020188 33.4307
271.18119424755 0.669154
271.321274111665 0.531904
272.049800591326 0.864994

