>compound Glutathione, oxidized
>formula C20H32N6O12S2
>parentmass 613.160315631154
>charge 1

>ms1peaks
231.046273842802 0.504239
355.073308065903 0.80114
357.066679531864 0.758767
484.117602192595 2.98837
612.179512654285 9.87203
613.160317775778 100.0
613.348993072898 0.782639
613.54703460835 0.630369
613.856793318692 0.524766
614.157472551443 1.78347

>collision 10.0
130.039764575565 0.650373
177.032063254376 1.51826
208.998775675123 0.637815
221.085226089267 0.863807
281.047437271777 0.543111
355.073348650152 10.0836
356.062079608499 1.92953
357.064761654729 3.02594
358.071845258601 1.09626
409.087692558145 1.74692
484.114571726577 23.3461
491.053606250857 0.762009
538.126854691636 1.40516
595.146557477468 2.26993
612.184051157133 7.6438
613.160315631154 100.0
613.353637265687 0.877407
613.809336519034 0.58189
613.940176717006 0.536415

>collision 20.0
45.0152985874355 0.730205
73.0462453712024 3.41689
74.0549731966139 0.867556
75.0411263573542 1.05762
105.979230945648 0.578681
111.089575266472 0.671622
130.050258581029 2.41357
141.932248538786 0.798324
143.044498304275 0.584657
147.064622765051 0.714252
155.087699034565 0.563652
177.032695762541 6.89787
179.044274041798 1.59069
181.066081951141 1.25224
185.044910474811 0.647489
199.07231421906 2.79544
209.002346046441 4.16486
211.020571946451 4.34061
221.082068561211 1.70486
222.085545940463 1.70294
223.084780681403 2.16794
231.041822817756 21.1029
235.019219574922 4.93649
256.093196303787 0.977446
257.083113603715 0.954353
265.033097468489 0.835133
267.003887886105 1.15729
268.001834252518 0.875977
281.046423034026 0.971151
282.060568380445 0.621148
283.047189364687 1.79313
288.066249122279 2.86021
298.051852673133 0.8112
308.086816963911 1.9846
322.053019505402 1.32431
323.027437818796 0.885743
337.066690387562 1.3189
340.061103972226 2.49754
355.072684070981 100.0
355.654744103926 0.972111
355.988283741375 0.610581
356.069091208352 5.17804
356.14946528699 1.09319
357.07014127726 9.77163
358.066242951761 3.54154
375.08895195076 0.804505
381.08046447383 0.70932
391.071160760719 1.45264
402.985021081855 0.714871
403.075783505569 0.72752
403.974098020843 0.555516
409.082116646462 14.3073
417.042592974524 0.651462
421.089282884388 1.54289
431.077240507786 0.641139
459.304176258153 0.721344
466.107071032262 5.70292
466.166669362614 0.591777
484.11615849513 53.989
485.121642243094 1.21262
493.12229002609 0.997132
503.083880141869 0.600119
520.104311574587 0.710357
522.07380105128 0.560441
538.125226917323 12.1569
550.123698390442 1.6401
595.148368965886 14.5353
612.187717085034 2.36296
613.159162231202 48.1586
613.327572788508 0.556538

>collision 40.0
59.0598864001289 0.952411
62.9833391940152 1.47301
73.0468915430205 11.7025
74.0060155853429 1.31135
74.0488479492296 2.25955
76.0396310166577 7.35156
84.0423227072059 1.17153
85.0386467327945 1.80231
92.0182497139596 3.76458
98.0055404866496 1.14867
99.0535498418856 1.07334
102.002983420124 1.21793
107.99395175066 3.09776
109.07919486469 1.81638
112.037973792623 3.04646
113.036138329513 3.42918
116.008771738932 0.859681
129.067556522613 1.84804
130.049762059722 25.0795
131.043938214059 18.6497
133.043291251618 0.713226
135.057008661503 0.767257
136.043903870556 1.40336
142.049137597991 1.0762
145.059944940609 5.23754
147.069589063528 1.61674
149.064823777083 0.813993
153.061608758415 2.94174
155.079601887427 4.03222
159.025739046985 1.17767
162.018256413092 6.06013
169.054230236048 1.65537
170.021710480959 1.0185
177.03259304327 56.5145
177.109503895544 0.84282
179.00471730301 0.696737
179.04520178899 10.4495
181.062264490056 3.56782
185.038294103017 6.1323
198.091192953696 1.03945
199.07116129876 10.1316
201.033599028139 3.04775
209.004139389275 8.23734
211.019524277006 13.8128
213.028064329874 0.697976
219.024489912971 0.824702
221.079498936801 2.80888
223.072041529323 1.07435
231.042863065972 100.0
231.493532684563 0.872907
232.043050289265 0.949677
233.058592244311 1.54795
235.019700481049 31.2132
239.07061970261 2.19924
242.05286428238 0.859335
243.040469097947 3.96956
247.01367267959 3.13807
256.095034292681 0.967811
257.076145963787 5.12198
265.031073206317 7.01968
266.994523722544 3.4445
268.00314461227 1.67476
268.995721973909 3.97355
271.014127790712 1.16522
272.068311702704 1.06619
281.054643858146 1.92249
282.055836742655 1.42032
283.055761951112 3.12874
288.063859415788 11.2744
291.062675793476 1.24136
298.053135066417 3.20688
306.076401945459 1.09527
308.09026920628 3.09865
322.055717086492 2.9065
329.957969509817 1.70907
346.04591015674 1.23125
355.073334074457 12.9419
356.070825585196 1.30983
357.062671674545 2.8249
363.073249601424 0.863664
401.991608549397 0.931036
402.98461313618 1.52594
403.980701286248 0.906841

