>compound Procyanidin B2
>formula C30H26O12
>parentmass 579.153169047875
>charge 1

>ms1peaks
127.037265929421 2.5384
139.035388701809 1.33368
247.060843313352 0.754337
271.055540520822 0.634545
275.063551566601 0.588238
289.070201971864 2.52041
291.08793634053 7.05843
301.072922823941 1.09237
409.087179121076 1.87721
427.103501312917 3.92245
561.136253748306 1.06355
579.153169047875 100.0
579.367205931399 1.57933
579.451364768409 0.821705
579.551717402228 0.696881
579.634340278693 0.504102
579.713316805915 1.11799
579.856903253371 0.80191
579.948698260338 0.756752
580.007278521065 0.755978

>collision 10.0
123.043144264627 2.0748
127.036921543871 15.0306
135.109900709115 1.3574
139.037382435323 5.34238
151.035221581431 0.89944
163.041680806856 4.48422
165.050269488137 2.65187
233.043113811708 0.635883
243.064176261193 1.22569
247.057927379597 9.04525
248.062173955061 1.06937
259.060493010874 2.53512
271.060927189442 6.00818
275.050523339108 5.62996
283.057181019581 1.7872
287.05592961823 4.89357
289.068783263424 33.6254
290.068069958956 1.38269
291.085805599464 55.6165
291.295870654007 0.719625
292.089803721605 2.21325
299.051953090726 0.659199
301.069196263933 8.66559
301.131251457093 2.17732
303.081154153823 2.18521
313.06547182518 1.0706
393.102397012836 0.92978
409.092107151839 18.9218
409.204960248043 0.631169
411.102322366603 3.81687
412.105664603779 0.59014
425.118442726698 0.640452
427.101329030981 38.0592
427.267093015338 0.866677
428.095852510492 1.62568
435.100211079397 0.821069
436.16527822675 0.606097
439.101708961217 6.49513
441.117713136582 1.45414
453.120095045334 2.70467
543.130876308242 1.31394
561.124363326937 1.86041
578.668998743018 0.587785
578.927054835594 0.758602
579.146430105542 100.0
579.353544183873 1.22472
579.435897607446 1.45512
579.516386635823 0.688593
579.899335839323 0.708028
579.991330596046 0.594679

>collision 20.0
43.0164572948604 1.45713
55.0159945208125 2.58551
123.045349969079 31.9317
127.038931168541 100.0
127.141803412877 1.4595
135.042241705783 1.43216
139.040381164766 44.879
149.022037023793 1.46145
151.038829757317 3.70904
163.039485052886 38.3197
165.054475563198 11.3141
169.056927473464 3.06658
203.068228828594 1.91267
205.056085719475 1.73074
231.052304149388 1.48747
233.036624494619 1.27507
243.06884441247 2.37131
245.043605779793 3.2781
247.058189140818 25.2105
257.038451354501 3.08395
259.058880263036 20.3241
271.059761882497 37.4617
271.570564920187 1.33227
273.077858668647 4.46346
275.054611463049 36.4473
283.058219791726 3.6121
285.074225046156 1.66182
287.055262800391 34.1035
289.072563625671 46.6822
289.221514030424 1.70377
291.085107734454 49.1304
291.489696423608 1.29843
292.095096064395 1.22515
299.051266847572 6.64731
301.069359622452 43.3773
302.06916281259 1.50715
303.089328105266 7.90145
311.060042719983 1.37039
313.065700724677 2.7087
325.072200813154 1.9772
333.119474161539 1.39645
335.114108639588 1.24121
409.090554619965 60.9684
409.244069726073 1.24465
411.108023854722 15.2806
421.088471421254 4.51453
421.157997422552 1.24472
423.093835923773 1.55893
426.080733451764 1.66988
427.10369144019 33.3863
428.037071133519 1.34282
435.107935044639 7.26036
439.104657323199 3.12042
441.122088703767 3.02972
453.111876513248 1.83925
543.130959919279 1.24786
561.13972778535 1.95958
579.134830542079 4.97806

>collision 40.0
51.0238485821061 1.99284
65.0386021165374 1.33158
67.0498709405283 1.57889
81.032233068189 1.45561
89.034842730107 1.18032
93.0335699749245 2.0087
107.047716628927 2.07093
109.026884754835 4.68769
111.001633226405 1.38318
111.043173981739 2.56491
115.051429506268 1.09369
117.032732887262 1.06789
123.042381265289 37.1504
127.037322303981 100.0
127.112370130163 2.41918
127.138875339335 2.34433
128.038340695543 2.23922
135.043433576776 30.2274
137.021108190309 3.38938
139.038067816018 69.8828
140.038174235095 1.55866
147.042512893866 6.4254
149.024039714673 6.70074
151.038785646799 7.45918
159.043630344152 3.59749
161.060508571654 6.9242
163.037865662895 51.4068
165.05732368673 5.0199
167.03312926239 3.22804
169.056942194345 1.24247
175.037338695138 1.77335
177.052205827041 6.22251
179.032688296305 3.258
181.050547461274 2.18281
185.056832956914 1.4606
187.03772011732 9.43439
189.050855157806 1.7101
191.03179300953 16.5311
197.061570531212 3.66651
201.053021080037 4.0947
203.030541690348 6.56315
203.067244475147 11.437
205.051266256259 4.68684
215.04983814579 1.93162
217.040448332084 1.65932
225.057923938096 2.84576
229.04983817995 10.6055
233.042596005736 13.2228
241.049943429218 4.39295
243.06490945869 11.6467
245.045803478507 13.6602
247.056547691558 18.0863
249.082244233494 1.1861
253.05200150677 2.05843
255.06346800924 6.34801
257.043860701831 16.6683
259.057059665474 10.7898
269.041911116321 10.4106
271.058322167716 13.4815
273.066424679066 2.43488
275.053503275868 6.94567
283.058002606756 7.46142
287.056033483833 31.1177
288.052118277209 2.64329
297.078901366477 1.2131
299.052360057141 6.31334
301.069374005087 3.09147
323.041656105643 1.03161
346.942391658956 1.07092
391.081105752432 1.43117
409.089665118885 7.70742
411.102385773334 1.58046

