>compound Amentoflavone
>formula C30H18O10
>parentmass 539.095964109412
>charge 1

>ms1peaks
539.091642162996 100.0
539.304712053084 2.44838
539.421173670273 2.48913
539.668635111924 2.14357
539.822448954818 2.05543
540.096604977544 3.25552

>collision 10.0
539.095964109412 100.0

>collision 20.0
403.031168135711 4.77734
539.091866660227 100.0

>collision 40.0
153.020721176776 8.81957
319.060507092256 17.869
377.069789169686 33.8613
387.089108760473 18.4294
403.043009207222 40.9691
497.103881711601 11.1026
521.082858228941 8.63192
539.099517813887 100.0

