>compound Phenacetine
>formula C10H13NO2
>parentmass 180.101963377391
>charge 1

>ms1peaks
60.9840028983356 0.711879
98.0125728136488 0.949502
99.0936155178048 0.699916
101.130285676784 5.15711
101.33325481389 0.58931
101.39471503512 0.696279
101.48505890702 0.698645
101.53692973905 0.794495
102.005829927854 64.369
102.130628056578 2.94426
102.81448564982 0.545909
102.998966932916 0.880098
110.059914023062 2.17148
111.044786595614 0.551572
119.022500583132 0.859635
138.089129986531 3.14346
139.994609614725 0.510759
140.499217447924 1.77193
140.994373243911 1.22372
162.090533718554 1.73785
163.096435877711 1.14706
179.11583417105 5.5083
179.183132386138 0.916766
179.553407731301 8.55774
180.018798079143 67.7431
180.102080703958 100.0
180.181827004748 1.20954
180.271943677736 2.09362
180.381212378157 0.518832
180.550162391623 1.25283
180.735443716078 0.680991

>collision 10.0
43.019952871527 0.901645
54.4699553070134 0.51603
80.0453636396556 0.96926
82.0642911828156 0.633732
87.522359323044 1.12897
92.0485979631953 1.44365
93.0327897607937 3.6079
101.129904714818 3.39951
101.396546122927 0.758059
101.477275920887 0.659246
101.733420474487 0.818694
102.005226470271 61.4443
102.133563572895 0.888297
109.053975012717 1.1307
110.058113687161 19.1314
112.508568540208 0.588125
126.530271056981 3.36164
138.090444976728 18.5922
140.549725721857 0.863026
140.998395932547 0.974156
141.048649921113 1.38336
152.069224443678 4.66432
162.091736418641 6.34552
163.092541457466 0.841912
179.136487291076 0.932929
179.550476463477 0.586675
180.101963377391 100.0
180.272519900864 2.08083

>collision 20.0
39.0237361549325 1.47251
42.0372184244531 0.611047
43.0186393456097 5.70259
62.4833293136787 0.990913
65.0395629701741 8.37391
67.0539288135393 1.68961
70.0269912869314 0.891055
82.0631871039181 2.46653
87.5304472402708 0.711664
91.0539803266062 6.5332
92.0497675753336 10.9671
93.0345437309646 16.0255
94.064944243225 0.679942
94.4765263927987 3.89755
99.0164223089867 1.18395
102.003711148399 9.6571
102.437985016678 0.601874
109.052649691512 3.48222
109.241752231825 0.889599
110.059500027871 100.0
110.187786514397 2.43636
110.368077071387 0.737823
110.969835103342 0.609626
111.040936268964 1.89425
112.238513293542 0.64753
117.056477734179 1.09661
119.017217654109 7.04041
126.529647583177 2.51233
134.055832527017 1.30022
138.090871899433 38.4917
138.234278822051 0.932375
152.06863764398 5.73483
162.091193485488 4.98598
163.097245723357 1.46384
163.150551490621 0.754088
180.102004995014 24.9126
180.272579890472 0.752779

>collision 40.0
39.0252072656052 5.91185
41.0406327197906 4.0596
42.0353035726545 3.54066
43.0198191854319 17.1873
44.0127645300028 2.57253
44.0503547554774 4.21346
53.0433557555233 2.85698
60.9537766774332 3.53732
60.9854099088732 5.51522
62.9912263017676 1.66235
65.0386554420989 100.0
66.0480800451058 2.06088
67.0438252185017 2.35789
80.0491163144906 10.5894
81.0590051210184 3.39512
82.0645464385236 14.5587
90.0349783930385 3.70833
91.0559886727769 8.97651
92.0490396397528 18.9934
93.035859638792 55.8078
107.042549206906 4.4182
108.04535458021 4.94732
109.05304538273 19.3632
110.063108251726 11.2002
131.287049979314 3.91367

