>compound p-Acetamidophenol (Acetaminophen, Tylenol)
>formula C8H9NO2
>parentmass 152.07048399569
>charge 1

>ms1peaks
69.0440234518917 0.515078
74.0962998588184 0.681059
109.05268188788 1.75669
110.060136862771 7.5357
111.978387089305 2.32201
112.966452324012 0.847514
150.983478761719 10.3014
151.097992405291 5.16763
151.478885344504 3.62905
151.987619058807 3.36114
152.070720365603 100.0
152.228310429895 0.989411

>collision 10.0
43.0202803174788 3.34126
62.9906306748666 1.16263
65.0453418050609 2.51705
74.096571325238 0.895909
78.0085673301822 1.09896
78.0992700196539 1.05346
79.0207267557986 3.14991
87.0281727950435 1.72262
93.0327498015518 5.18996
109.053848331489 6.98522
110.060675456022 48.7863
111.97535004066 8.76171
112.476642794453 1.11719
112.973441511653 3.62027
134.067686944331 5.7402
143.468007406285 1.43847
143.963099175877 2.0339
145.940202356044 0.939724
150.984696922171 1.06243
151.090185904847 4.34154
152.07048399569 100.0

>collision 20.0
43.0193378682998 5.36514
45.0352445834329 4.70989
46.997072164068 4.67352
52.0213581127948 3.08734
58.997716239976 2.3733
62.0168753075517 2.15657
63.9960934593831 2.84717
65.0401364039171 25.3769
67.042425858466 2.81488
69.0442406906415 2.24275
78.0140061362733 6.39046
79.022456592813 2.62323
82.0658294607265 6.11595
92.0512875936251 16.2572
93.0348337072483 25.2098
109.056290391045 4.70354
110.061119171517 100.0
134.059479086821 2.72568
135.066282500973 2.28709
148.971376369392 1.60327
152.07042833283 14.1247

>collision 40.0
39.024440626376 33.3724
42.0344383753398 7.69869
43.0184557156295 34.5543
44.0157547950077 4.86525
59.9887255218275 7.26423
62.9916520991012 6.12401
65.039393253597 100.0
67.0422359533702 4.6091
80.0508747286397 21.6835
92.0522670623636 5.09613
93.0396164016629 11.8741
109.051596000788 17.9774
110.063698030787 4.39844

