>compound Oxymetazoline
>formula C16H24N2O
>parentmass 261.196335327402
>charge 1

>ms1peaks
44.0516062230463 0.967776
157.325920524686 1.02984
205.141135495467 0.551976
243.159413932817 1.74293
260.230526621764 0.835266
261.117165651009 0.579509
261.196909857613 100.0
261.928191271151 0.784644

>collision 10.0
205.136106612948 1.59598
261.196335327402 100.0
261.244276756729 4.50373
261.911367765518 0.803325

>collision 20.0
44.0495028763201 5.001
44.0625880652832 0.6542
57.070181322979 3.00354
85.07675593613 1.10621
107.085654617246 0.783057
115.059776576041 1.37
135.085091879989 0.744441
159.081232363697 0.983123
176.113650974566 0.536296
177.126823881825 1.83608
178.013298118715 0.65272
191.14380994445 0.83014
205.133674534998 9.63363
231.147509707846 0.838572
246.17382162415 0.786417
260.39202162688 0.731122
261.19617932944 100.0
261.275485897704 1.28393
261.300611724548 1.15504
261.408074778483 0.782265
261.961393023163 0.523926
262.000553599601 0.535254

>collision 40.0
41.039180711242 9.20444
43.0196742929353 5.90638
44.0495020245672 100.0
44.0618786080801 3.53366
44.0691742148486 4.02191
55.0524890294327 5.53581
57.0704653182351 43.7929
69.0753214801892 3.94257
71.0592942048947 7.74882
77.0432784068924 3.06233
81.0576424274688 2.73575
84.0665084002081 4.99479
84.0739837590172 3.66622
85.0761102627961 13.788
91.0547078464781 5.39113
93.0714435151768 2.46605
97.0768868585757 2.98827
107.087042994856 9.41964
108.080729325191 2.42494
108.092282368664 2.68726
109.105344493701 3.07942
121.06150689815 2.84868
121.101197534956 6.2412
129.074814751625 3.48455
133.100573483642 13.7883
135.079370921771 37.9121
135.111370156677 7.89966
136.090325132081 7.03131
137.096148589924 7.83914
143.088911699588 3.21514
146.073188223283 4.05006
149.108048366991 7.03941
149.132161227601 4.07021
161.093952863686 14.9304
163.105615307528 3.53284
171.088403144388 2.73473
173.107125028308 2.56964
175.098795340459 7.71689
177.12792087007 4.33203
188.108397770784 2.9199
191.144681497917 7.98374
201.137429724371 4.26178
203.117434779264 3.47776
205.136043471209 15.212
231.148787836766 22.4508
245.170058662278 3.43469
261.195574121697 11.7685

