>compound Acacetin
>formula C16H12O5
>parentmass 285.075839821236
>charge 1

>ms1peaks
285.076400490543 100.0
285.228289151569 0.565355

>collision 10.0
242.056416633069 1.29787
270.053888985794 0.582774
285.075839821236 100.0
285.229302190733 0.668515

>collision 20.0
153.019297983837 0.890334
242.057082001884 6.40525
270.051815309901 7.06145
285.075969830432 100.0
285.223922670481 0.551049

>collision 40.0
43.02041706027 0.704793
67.0185359613743 1.2308
68.997844679212 1.21257
90.0448934570304 1.22487
124.013427109241 0.511867
133.064709801233 2.64646
135.044576347544 0.617485
153.017790585837 21.3379
159.042075179254 0.585348
213.053332999714 1.3064
241.048453707748 2.40081
242.057523225179 100.0
242.196865391724 0.542167
270.05308014874 10.81
285.075638922583 5.33942

