>compound 2-Aminophenol
>formula C6H7NO
>parentmass 110.060467737847
>charge 1

>ms1peaks
39.0239846221482 0.723444
65.039533501079 23.8612
65.1137636586822 0.61877
92.0500870021429 34.8253
92.1373712726447 1.12731
93.034196369901 4.10232
110.060830020329 100.0
110.155566556662 4.77723
110.185935258096 1.94019
110.214515794544 0.849987
110.257239951351 0.597145
110.283225425085 0.700021

>collision 10.0
39.0240432146879 9.20625
65.039584827208 90.2906
65.113695335128 2.98143
65.1357425599492 1.33068
66.0355675062292 2.62517
82.0658976695711 0.82466
92.0500237211381 58.6939
92.137483753922 1.88002
92.164554146932 0.723514
93.0340478989947 6.60842
110.060467737847 100.0
110.155453832931 3.62264
110.186671545205 1.3335

>collision 20.0
39.0240507737665 22.7982
39.0808121615925 0.562459
41.0394479617779 0.51932
63.0236232089387 0.611367
65.0396091132618 100.0
65.1136477010572 3.4722
65.1361002393573 1.55039
66.034954393844 3.70422
92.0498877391852 42.0011
92.137351420642 1.22397
93.0338349811374 3.45806
110.060029047971 13.5446

>collision 40.0
37.0079488855144 1.54097
38.0161947622854 2.94875
39.0240521294623 100.0
39.0809851418473 2.65533
39.0985977012218 1.00225
40.0204320513809 1.40884
41.0371957231159 0.563116
42.0345606096277 1.60514
50.0161989116394 2.69121
51.0237706837681 3.96843
52.0193210855047 4.07513
53.0029737696834 1.41413
54.0347574951785 1.08611
62.0158502912345 2.97395
63.0235699199309 7.12498
64.0249868645206 1.65719
65.0392295829614 67.8946
65.1136325173749 1.44408
65.1354350973754 0.70998
66.034760985081 4.57125
74.0155200527007 3.78489
75.0226720568991 0.846836
76.0186461570096 1.07351
80.0497028523918 0.520378
91.0409903030287 0.828854
92.0499233187985 1.74308

