>compound Baicalin
>formula C21H18O11
>parentmass 447.090480358697
>charge 1

>ms1peaks
271.064277418711 8.39904
446.893764792114 0.823661
447.095553703317 100.0
447.408499066818 1.44354
447.560464672535 0.709388
447.610592128633 0.582051
447.898730651708 0.794416

>collision 10.0
271.059362317742 100.0
271.195074910648 1.59429
271.247088918098 0.679805
271.282621299228 0.541218
271.721921717191 0.650264
272.07078425647 0.938003
447.090480358697 45.7143
447.284481414385 0.719068
447.369895919118 1.30371
447.753095920226 0.786455

>collision 20.0
85.0254742941318 0.733474
271.063572359849 100.0
271.254826700646 0.683319
271.292395973204 0.511823
271.575748701474 0.677708
447.094664487699 1.51844

>collision 40.0
41.0355328119127 0.605697
73.0402338977169 0.710772
103.047929324068 0.692521
105.032041025626 1.576
123.003243533178 1.98438
197.065684575788 0.544423
253.043514104881 2.90195
271.057822819585 100.0
271.203510126248 1.3144
271.264872861388 0.596799
271.595101963107 0.573682
272.066618592262 0.965985

