>compound Wogonin
>formula C16H12O5
>parentmass 285.074077219398
>charge 1

>ms1peaks
270.0539787751 1.69468
285.076731320107 100.0

>collision 10.0
270.050140460882 7.70796
285.074077219398 100.0

>collision 20.0
105.035490403319 0.918923
151.056179176151 0.636723
168.004590050498 0.529522
179.050688726183 0.859414
242.058126830268 0.702201
252.044592863471 1.14936
269.04124798774 0.561979
270.054629338857 100.0
271.054567607252 0.533935
285.078179464278 96.5785

>collision 40.0
55.0195789786526 1.03822
56.0250759551171 2.23424
66.0098808330098 1.12462
68.9968742985299 4.48505
70.004281705306 0.794615
71.0118246497985 0.655133
77.0371196537412 2.98517
84.0208498985946 5.12323
95.0115187931049 0.690317
102.047643259274 0.567584
103.051866659492 5.50102
104.061123678878 3.12616
105.032179211356 6.18172
112.014610533902 7.53267
115.05302389391 3.6683
116.061214758377 7.31642
117.066844080215 1.48123
126.043759344044 1.37327
127.052900587207 2.92881
128.059306963661 1.13053
129.029904061245 0.784344
129.068079641877 2.39884
130.074375974328 0.650431
131.047259953617 9.15646
139.000093325374 6.44203
139.051411577006 6.52451
140.009111219519 11.0767
140.059441549261 7.98458
141.067097296398 2.83501
142.043817871907 0.680114
143.046674474021 1.03585
144.054974424241 11.5999
145.062027838216 1.5621
147.040615915912 0.570597
150.045477028682 0.997813
151.051863143995 20.777
152.060584463424 1.29384
154.037078593715 0.525829
155.046780055901 6.44314
156.055546474681 0.5606
157.061947025648 1.50429
158.074817423812 1.03957
167.045741218378 0.513099
168.003177706868 17.0996
168.054430090216 20.8183
169.06233782692 0.659263
170.036082754621 1.59438
171.041333156055 11.0169
172.049046627675 2.19927
173.057215126388 1.50619
179.046712528893 32.7015
185.059245465379 1.98773
186.063562745791 1.51241
195.041260472273 1.04902
196.049366695638 4.65853
197.058777859504 3.24945
199.035726974867 3.97958
200.04420207946 3.8091
210.030333018262 0.563573
213.052075547846 7.3695
223.039368060867 1.05312
224.045124623883 5.73708
225.053562795781 0.626225
241.046084337391 14.3585
242.054420192142 12.1624
252.039085167998 13.5534
253.044410858111 0.552743
269.040515216722 10.517
270.048995919779 100.0

