>compound Codeine
>formula C18H21NO3
>parentmass 300.158828621647
>charge 1

>ms1peaks
300.158818841348 100.0
300.316099173298 4.42674
300.372406399951 2.01975
300.445638957424 0.741257
300.487007567392 0.694258
300.527810172108 0.754664
300.615893619941 0.534387

>collision 10.0
300.158828621647 100.0
300.316134815485 4.54449
300.372719214068 2.10096
300.445824776836 0.775812
300.486262927848 0.733069
300.528154724466 0.809608
300.570332377923 0.53835
300.619638770959 0.510629

>collision 20.0
44.0504418831098 0.624255
58.066054593363 1.90365
161.059459588346 0.652684
165.069638326971 0.64691
183.080014547742 1.24902
187.07794789225 0.774646
193.064996711867 0.651464
199.074679644321 1.43007
215.106445819335 4.18061
225.090480017709 1.90288
241.088216973994 0.56837
243.101303757431 3.58303
282.148555860558 1.83553
300.158996876223 100.0
300.316076950647 4.15679
300.372544290029 1.86266
300.442748825143 0.696823
300.486388120509 0.646625
300.527666253125 0.698715
300.571139566577 0.505507

>collision 40.0
44.0506014386475 37.5734
55.0187507549249 14.9187
57.0343641086159 10.0921
58.0660137675006 53.7953
115.054265589233 12.9185
128.061851329403 13.3216
129.069743670201 9.63528
137.059031052042 16.5469
141.069483850858 25.3611
144.056934554921 22.878
152.061569559938 15.7659
153.069371673126 59.6415
154.07751393087 10.5409
155.084831219502 48.8526
156.056491869418 13.5102
158.072290583498 13.8545
159.079380652181 17.5618
161.059645862325 34.7864
165.069484143277 100.0
166.077168534697 11.7126
168.056549280656 19.4117
169.065243437243 9.43938
171.079849823036 50.1309
172.080885003865 13.7291
181.064834727625 57.6117
182.072072535487 19.6248
183.079441398281 46.6155
185.063099669065 19.5314
186.06725348413 9.87116
187.079748075385 20.2257
191.084959338478 12.7242
193.065632488086 21.0621
194.072101123006 24.3912
197.075029058341 11.6465
198.06800586177 19.5597
199.074875900411 65.6406
200.082599079025 12.0623
209.063147882674 16.7836
210.067640170743 15.9035
211.075525203071 9.99096
212.083115679563 10.5458
213.090186534893 16.3921
215.105759572733 36.727
223.075467250754 18.5111
225.090381893608 33.3574
241.086564766911 17.484
266.117017846909 10.4018
300.158502444882 27.5981

