>compound Morphine
>formula C17H19NO3
>parentmass 286.143429233197
>charge 1

>ms1peaks
286.143575854822 100.0
286.295384875085 4.0177
286.348123493104 1.64831
286.42394340125 0.626326
286.502221226184 0.600816

>collision 10.0
286.143429233197 100.0
286.295197941337 4.02408
286.349133016543 1.60923
286.461007909176 0.579347
286.502033518312 0.646492

>collision 20.0
44.0503207542291 0.581004
58.066056962135 1.47493
155.084588228197 0.50136
165.069891997705 0.60496
173.061147608172 0.807529
183.079763339536 1.04361
185.059481149221 1.06692
201.090391980131 3.47987
209.06491213894 0.664293
211.074908860548 1.54713
227.072475421363 0.501812
229.085151666566 3.21728
268.132536038814 1.18983
286.143288951469 100.0
286.295043597782 3.67229
286.348759634145 1.46778
286.458873285507 0.557726
286.502350597241 0.601322

>collision 40.0
44.0502705197386 33.333
55.0185619642823 18.0474
57.0344117680582 13.2282
58.0658641950994 40.3773
77.0384898972723 7.61417
91.0544642585297 12.5144
115.054008667465 15.1259
117.069386334571 14.591
123.04355964042 14.9963
127.053966795167 19.1723
128.061650243193 16.823
129.069317344654 13.7738
131.048457325719 7.16194
141.069092283704 15.1936
144.058089528689 7.6833
145.065025864352 26.5599
147.043874957848 28.8964
152.061486746273 21.4159
153.069251747545 81.1482
155.08488102342 63.7547
157.064174541108 75.3454
158.073335857975 6.35964
160.053756488168 6.86641
161.058833284973 6.73108
165.069528304257 100.0
166.078185535743 12.8803
168.056290631163 9.2663
169.063930149565 8.49278
171.058675409781 13.6843
173.063883475657 24.4002
178.079410934014 9.91694
179.084464359799 7.75579
181.0647414993 75.9006
183.079622556208 43.6131
184.051914221564 15.9269
185.05888518926 55.7199
190.077595523139 8.33151
191.084581038325 24.6109
193.067480555162 11.7491
194.072594927645 8.29257
198.067691431262 10.6953
199.074656168079 17.1498
201.089270837585 37.0458
209.060414327761 29.1474
211.074574420642 25.4968
227.070162610105 14.1064
229.085484619277 9.10794
286.143078348701 27.9565

