>compound Imipramine
>formula C19H24N2
>parentmass 281.2017447969
>charge 1

>ms1peaks
86.0969726089984 3.84237
281.20205329283 100.0
281.354645306631 1.61155
281.41297907624 0.538565

>collision 10.0
58.0660766114762 6.52234
86.0970211658737 75.6387
86.183470808451 0.70327
208.112168613558 0.987826
236.143204677958 1.27983
281.2017447969 100.0
281.354542508028 1.082

>collision 20.0
58.0660144367953 26.6533
86.0970894649659 100.0
86.1832923970591 1.21752
193.088188549286 0.665012
208.111544123679 4.47316
236.142623501652 2.04024
281.201242509815 2.93545

>collision 40.0
42.0342378663153 0.61733
43.0444499663688 0.563082
44.0496095900656 0.789409
56.0503264028122 0.617745
58.0660327918138 100.0
58.1366512428004 0.802931
71.0735573030793 0.880817
86.0969425949105 53.9846
192.080108589693 0.726613
193.088319853902 14.8814
208.111895479175 6.7988
220.111950273287 0.547276

