>compound Demethylimipramine
>formula C18H22N2
>parentmass 267.185415622208
>charge 1

>ms1peaks
72.0820258446064 4.3008
267.185415622208 100.0
267.331008790959 4.4014
267.385523557277 1.82508
267.490175626212 0.74297
267.531979862174 0.836342
267.579243099152 0.611647
267.64686370324 0.541591
267.687535891939 0.543275
267.732625317879 0.519649

>collision 10.0
44.0502951965856 2.96917
72.080877466612 97.4285
72.158716201988 3.58839
72.1829893849637 1.57087
72.2611923390377 0.536618
208.109540537243 2.73149
236.140493301731 3.88055
267.182422309496 100.0
267.330397986436 3.59404
267.384419727829 1.50003
267.488568519814 0.581874
267.529769467307 0.63777

>collision 20.0
44.0508006371764 10.7337
57.0582239718225 0.636613
72.0817484564244 100.0
72.1592233171163 3.80031
72.1838256681517 1.69189
72.2236160817059 0.544939
193.088260455423 0.87554
195.104114540881 0.544168
196.111940238746 0.821428
208.111781556056 8.44245
236.142938681563 3.21494
267.185339422465 1.86042

>collision 40.0
30.0341033809296 0.604949
41.0400882301602 1.45446
44.0508545947958 66.6576
44.1120216390459 1.63272
44.1307035100912 0.746344
56.0510938984342 1.36005
57.0584524561939 7.60072
70.0664617396956 0.64865
72.0819639879473 100.0
72.1590963721387 2.71832
72.1851562472418 1.14352
91.054881822128 1.65632
118.065148846415 0.63166
130.065371351189 0.579356
165.070747305576 0.50649
167.074358980566 0.585268
180.080505359576 3.23843
181.089804642739 0.549118
192.08073954545 1.77752
193.088200729086 30.7401
193.213747206491 0.517735
194.095977930096 3.80504
195.103846964106 1.26457
196.111351969014 0.855889
206.096257642583 1.05181
207.104025524719 0.678425
208.111663521621 10.9579
220.111484550917 1.88151

