>compound 6-Mercaptopurine
>formula C5H4N4S
>parentmass 153.023457116974
>charge 1

>ms1peaks
74.0966992539859 1.53111
119.035425799309 3.82706
126.013166219663 1.25491
135.116448311173 0.674458
152.142111864456 1.16727
153.022886093891 100.0
153.136473852954 1.87347
153.169287767039 0.863298
153.340443736956 0.503738

>collision 10.0
67.0295204370743 1.17864
71.990898892403 0.660362
74.0974031341221 2.24979
79.0235934551743 0.59773
92.0259921242809 2.01162
94.0403355930614 1.62577
99.0038568459204 0.586673
119.03551035959 29.4191
126.012502467994 5.55971
135.117190321875 1.06271
152.141688606362 0.985909
153.023457116974 100.0
153.134680370847 1.77268
153.172256767891 0.82886
153.364502742895 0.543079

>collision 20.0
44.9795343012664 1.25738
55.0291252707184 1.11765
65.0133407770255 5.2632
67.0289055372078 8.9444
71.9897016850526 3.23602
74.0956270363277 1.89914
77.0146139730266 1.01673
83.990351721305 0.501392
92.0236478541361 20.1646
93.0313520454347 0.563676
94.0393546293014 3.68228
99.000542257154 5.61241
119.033968899566 100.0
119.13378313854 1.59524
119.164487161075 0.834033
119.245109265743 0.556808
126.010372618255 17.616
135.117176564891 0.967501
135.993678993136 0.779827
153.021168038901 76.4554
153.134530627751 1.22741
153.172359419784 0.556244

>collision 40.0
28.0190105355856 0.902955
38.0034581339457 3.63796
40.0190604912055 14.7296
43.0306616608683 0.894293
44.9802846411064 14.052
46.9957871862254 1.60855
53.0144617001293 2.84872
55.0302958312483 11.5115
56.9801423929283 3.45452
59.9905455801439 1.13265
63.9990397170635 1.83892
65.014130812617 100.0
65.0859191790285 1.70633
65.1091446854625 0.808174
66.0209739324016 5.25687
67.0297447773067 33.0876
67.1049846188902 0.569357
71.9906213255011 17.1133
74.0968305498592 0.77465
77.0142210386712 8.82438
81.975326782613 5.08023
83.9906462554059 3.26782
92.0246213402341 76.538
92.1133319732742 1.23254
92.1377186474596 0.604758
92.3942471332245 0.592643
93.0336931831181 1.5604
94.0402930922043 2.94304
99.001169124265 9.27395
108.984949078038 0.586814
119.035044924171 50.3369
119.134005682101 0.840593
126.012450821244 8.1608
153.023459966679 1.08675

