>compound 6-Methylmercaptopurine
>formula C6H6N4S
>parentmass 167.038014274271
>charge 1

>ms1peaks
119.035691407318 0.638077
129.013406421329 1.25781
145.987643328887 0.880795
166.104391405269 3.64157
167.037949961332 100.0
167.197247345453 1.25434
168.021570175414 1.45403

>collision 10.0
106.040894280202 0.601258
118.087492440298 0.519437
119.035864959662 1.74071
121.501903353575 0.689405
126.013083452423 2.43415
129.013519894561 0.718689
133.050760467337 1.14375
134.057939443586 1.42189
152.015450474021 2.11613
166.108308425535 2.4815
167.038014274271 100.0
167.197194482397 1.46698

>collision 20.0
42.0351048859284 0.522759
56.0515336548624 0.713015
60.0562756983179 0.507984
65.0144343302582 0.568786
70.9844756868409 0.999606
71.9892885857242 0.584155
82.4936070284015 2.65163
90.0060904786007 1.51386
92.0195679556696 1.03941
94.0412978003426 2.0395
97.9925731006558 0.736934
99.0012749135925 2.54946
106.040060280131 5.99291
107.046978028403 1.08245
113.012044388857 0.671215
118.085884037329 2.08348
119.034848442903 20.3573
120.079659213518 0.753251
125.004913926009 8.39136
126.01113260078 26.6514
133.049730705701 4.67367
134.057793372759 17.2415
140.024881319569 0.975872
152.014207862242 27.5773
167.037124352093 100.0
167.19716104105 0.925749

>collision 40.0
29.0009465791354 1.00702
40.0199101192806 3.55093
42.0340692285465 1.43845
43.0289590774572 2.23969
43.4874130904168 2.06256
44.9798741295547 7.11156
45.0322125283372 0.91091
52.0180855238975 2.68158
53.0241720376303 0.991198
54.022214143543 7.95599
55.0303580477783 2.93707
56.0511278853419 4.85476
56.9866177829506 0.987524
59.9901166038932 0.944438
65.014474669476 12.644
66.0214503820036 4.27714
67.0287788826609 9.28684
67.1430268977529 1.09922
68.0337840223511 1.08423
69.9734922775786 1.12744
70.0420259792171 4.18967
70.9833348657849 55.1422
71.9912612258272 11.3607
72.9998429879323 0.970739
74.4777541924557 3.09565
74.9844721691843 2.42021
77.0171660264427 1.92609
79.0292029727288 2.04128
80.0353445571913 1.96854
81.0332959468504 22.9215
81.9861349147844 1.57124
82.9822557554065 13.3079
85.9702291238499 0.898509
92.025042835382 26.3012
93.0314100342591 7.88918
94.038859883865 2.59276
97.9940870678923 42.2209
99.0014299661704 9.61581
102.002406558229 1.95211
103.052085359879 1.94371
106.04020173204 4.22385
107.04748763841 9.03395
119.035720607426 19.3032
120.042474642503 6.45542
125.004430913574 100.0
125.144361266878 1.46197
126.011507120575 14.6626
133.051361067308 3.01853
134.058558395046 6.46838
140.02873407266 1.99203
152.015247894271 26.1039
167.03437928918 0.890531

