>compound Stigmasterol
>formula C29H48O
>parentmass 395.366729246429
>charge -1

>ms1peaks
57.0711358632002 1.95524
69.0712992786361 1.37878
81.07064666865 2.83822
83.0856677107394 13.2966
97.1014703817239 1.44285
139.147049264283 4.01967
147.115223423424 0.84809
159.115259646093 1.20139
173.134094440381 0.532168
177.162220340789 0.953943
187.146282353864 0.591409
201.159360732742 1.0417
203.181694725035 0.926195
255.209710606244 10.4644
297.257177505899 2.95367
311.269960345128 4.07331
394.352750682131 1.61919
395.367360160615 100.0
395.60310657795 0.792155
395.695001638366 0.736575
395.816378521201 0.599632
396.127983016739 0.506699
397.12798301674 1.0e-13

>collision 10.0
55.055380820549 3.73526
57.0704679450846 16.8161
59.0582384936672 0.634855
69.070702666637 5.99615
71.0855231708092 2.86006
81.0709299113203 10.0141
83.0855740191133 63.7257
83.147841805438 1.4262
83.167116786653 1.17798
83.1943143614999 0.613281
84.0923937422402 0.724699
95.0878213578431 1.17735
97.101738876752 9.02918
105.069184975582 0.796667
107.0858298621 3.14631
109.100130983466 2.53609
111.122556047243 1.24233
119.08492780648 1.15112
121.101008791074 1.24834
123.118094060796 1.38045
133.101755373594 1.50269
135.116941394981 3.70655
137.133648242931 0.528157
139.147678922616 5.4371
145.100376215747 1.26886
147.116261574365 9.37055
149.132339932351 2.91054
159.113966465496 1.01971
161.130139896 2.45124
163.14715440145 1.2371
173.13142182395 2.01564
175.148356228878 3.76715
177.164644086302 0.802925
179.170708354288 1.42689
187.148707787683 1.49932
189.162281769296 2.27147
191.184006873296 0.785674
193.191334878291 0.636569
201.161649349389 4.49186
203.180151527433 4.34878
205.192408648778 0.790627
213.164009257088 1.2385
215.177103452713 3.22424
217.191091911551 0.890453
219.206558748053 0.824024
227.177482790518 1.69798
229.195540217339 1.49529
231.20837656128 0.869802
233.224012823604 0.93893
235.245020355672 0.616205
241.194566281219 2.04025
243.203259763588 1.24736
245.22098885191 0.632307
255.211892418941 17.0037
257.227621733484 1.51519
259.239348719674 0.762205
261.25713409005 0.846493
269.225247355502 1.77252
271.23613627029 0.751962
283.242777363138 1.21084
285.25160751907 1.91497
287.269401011803 0.784537
297.25591424901 9.13776
299.272671342647 0.926379
301.287236578687 0.645529
304.984442574117 0.907424
311.273041993233 8.56555
313.290983548298 0.611182
325.285618700771 1.15423
353.947489063143 0.610876
394.258113384332 0.823534
394.349483434079 3.68028
395.234869347516 1.69204
395.366729246429 100.0
395.545862048031 1.98338
395.610222226744 1.74394
395.743725024545 0.830458
395.838689997703 0.540267
395.909269699558 0.582374
396.142097986626 0.642906
396.272627940957 0.913564
397.27262794096 1.0e-13

>collision 20.0
41.0425029585713 0.914207
43.0555067787059 2.70261
53.0387508614656 0.849561
55.0546152615053 8.27424
57.0703455257576 25.4933
57.1189137516991 0.615899
57.1419511658452 0.577008
67.0558882295603 2.38392
69.0704408483799 16.9348
69.1314528148954 0.509565
71.0853297198209 4.32548
81.0703615980038 18.1278
83.0860280869276 100.0
83.1499102435883 1.75518
83.1707600093488 1.72584
83.216100437676 1.29568
83.2789207948994 0.587192
83.308213299367 0.574511
83.3586938446643 0.665829
83.4819973672319 0.555348
84.0918889254137 1.79543
85.1023100253273 1.52482
91.0558143814732 1.12176
93.0698200013285 2.68168
95.085748461518 11.3609
97.1004201486026 14.3148
105.068828189313 2.53491
107.086833858444 3.40582
109.100720043613 9.46446
111.116847963814 1.04056
119.085751393957 2.53696
121.102246555234 3.34303
123.114262716321 6.5997
131.086796812076 2.5539
133.102182295245 3.94345
135.116204223097 6.08725
137.135479375814 3.25747
139.148135325609 1.24236
145.099745386555 1.43803
147.116544829487 13.4098
149.134051728558 5.52714
151.151437138347 0.597085
157.10201872057 1.31169
159.114851865578 8.02894
161.132787153245 8.85408
163.147116417017 4.6257
165.159437914908 1.85673
173.132992396068 6.7305
175.149277815194 3.09949
177.163689568663 2.30492
178.145219898952 0.56275
179.174490421355 0.976156
185.130408213077 0.576647
187.148472004623 2.96521
188.198123216226 0.652492
189.165876395347 1.62547
190.155033945914 0.59845
191.187239315425 1.10219
199.145376113492 2.26593
201.16605167944 3.25662
203.177848382945 5.10922
207.031264178587 0.727314
213.160822358315 2.16227
215.178191530244 4.57562
217.188963248432 2.65526
221.220439887265 0.808771
227.181169221395 3.27224
229.195488773524 1.70837
231.211240544642 1.30856
241.200498396615 4.18507
243.206417748093 1.52731
247.242616632063 0.696763
254.193986197303 0.610796
255.210456572775 12.1286
257.226278038549 0.661668
259.239161256484 0.996124
269.222847123157 1.91069
271.234714480413 0.956384
273.254874396711 0.863726
283.241953907812 1.69369
285.26023150923 1.68945
287.275911028012 0.576426
297.258669615852 10.3907
299.273749629244 0.86525
311.272609635706 4.61123
394.290623898833 0.921816
394.357536155828 1.33676
395.228171529383 0.853101
395.368416455898 39.4989
395.58715145639 0.561171
395.698269352505 0.672507
396.69826935251 1.0e-13

>collision 40.0
41.0394872381785 16.6345
43.0547509401992 16.9929
55.0550021288596 97.6791
55.1244682627567 1.82346
55.1420490775583 1.12794
56.0632454373686 1.02359
57.0711499743281 45.8784
67.05500106063 12.6606
69.0710119712697 58.3466
69.1419253826695 1.55795
69.4211002266178 1.001
70.0714939456097 0.931936
71.0848532595906 12.0587
72.0860611770356 1.05933
77.0391162089225 2.85497
79.052180787457 4.98386
79.0760086009984 0.894231
80.3413199407306 0.920154
81.0698751489418 31.6898
81.1252336464723 0.995531
83.0857509239986 100.0
83.1441988404994 2.27544
83.1714031736397 2.33485
83.2115981396212 1.03824
83.2913603398498 0.943923
85.1054815901816 1.19776
91.0558557747557 4.63467
91.0989115608558 1.48743
93.0697959805902 17.2959
95.0859816662146 30.0117
97.1007131547404 10.698
105.069113798624 22.9654
107.085503596085 8.59568
109.101760102427 17.7827
111.118344508675 3.09936
117.072131579206 2.02398
119.084918941141 12.9564
120.085543647069 1.18846
121.102342929748 8.90909
123.119224511565 6.12715
129.068502939837 2.30376
130.07550752856 1.06153
131.082571983406 6.43412
133.102597950901 8.74643
134.102631835361 1.81092
135.116588507502 7.29342
137.126791084177 0.906105
141.070211458487 1.10142
143.083049148311 3.56965
145.10108474908 8.37718
147.115926530578 20.7803
147.192747891409 1.0033
148.701525504276 1.10131
149.131749936479 4.67612
157.100854391265 2.7614
159.116936325339 13.1068
160.127340098559 0.854758
161.13320342548 11.3673
163.152944061622 2.38996
171.119173680972 1.48414
173.13006316012 8.0597
175.146686574479 4.5394
182.544266683452 1.22884
185.130220903012 1.72202
187.150539506676 4.76588
189.162759139223 3.9833
193.194699374461 1.1436
198.140411235774 1.52873
199.146928763471 2.69088
201.161466881366 3.4458
213.161115602436 1.95143
214.167736366752 1.61696
215.173739024484 4.7161
227.177220714003 1.58858
229.194624337075 1.08007
241.190139018278 1.81376
255.209474492103 3.94988
311.257444377288 1.65205
334.099962810463 1.49974
335.09996281046 1.0e-13

