>compound Chlorpromazine
>formula C17H19ClN2S
>parentmass 319.103473735988
>charge 1

>ms1peaks
86.0969961403224 1.56622
319.102573131958 100.0
319.266614467132 2.10368
319.324257335513 0.673467

>collision 10.0
58.0662683153241 3.1477
86.0970678759185 15.2104
274.04411621959 0.575822
319.103473735988 100.0
319.266916193656 1.56491

>collision 20.0
58.0661429178494 35.7957
86.0971326717924 100.0
86.1829931072113 1.35564
214.041260347784 0.595986
239.076302281943 3.42168
246.01347749419 5.11207
274.044707462548 2.6151
319.102957424409 35.2097

>collision 40.0
44.0498927516535 0.998959
58.0661479704692 100.0
58.1360570097061 1.04303
71.073686563488 0.759292
86.096845229009 43.0047
198.036190833899 0.712281
206.095249328532 0.839952
210.036640023634 0.511203
211.044017921866 3.39855
213.033096765253 1.29835
214.041316361318 9.9471
224.05247241047 0.508913
233.0057690387 1.33565
238.067543856651 0.756677
239.075486912373 2.69167
246.013319726751 4.02089

