>compound Herbacetin
>formula C15H10O7
>parentmass 303.049585740071
>charge 1

>ms1peaks
77.0342945709441 0.663512
302.03659020264 4.13965
302.175067383708 0.860116
302.239024680818 0.504533
302.933129002704 1.157
303.049585740071 100.0
303.24409640534 0.965938
303.345646987943 0.563488

>collision 10.0
121.028008641793 0.600789
167.004831125294 0.511286
169.012633921838 1.48762
219.056815415613 0.56119
302.043960396444 4.63626
303.052287054865 100.0
303.198580217601 2.05366
303.277187822921 0.610069
303.42145913046 0.940957
303.502987566504 0.564693
304.008107945088 0.599219

>collision 20.0
68.9979331737442 0.650644
107.048002809587 1.0242
121.029704373924 2.28173
147.037249959032 0.789476
163.044146707358 0.56968
169.014046070245 3.31964
174.070352187163 1.06657
181.007084339349 0.5292
201.043112659289 0.571299
223.033800135154 0.686227
257.041734421908 1.14796
274.043194191147 1.96839
275.043283484853 0.602288
302.037250019895 2.70292
303.049485461662 100.0
303.275546249879 0.664197
303.367938267071 0.678766
303.475747626117 0.534267
303.63078869934 0.696745

>collision 40.0
39.0226906654476 3.80464
43.0184522896172 5.11343
55.0186593188801 15.6092
65.0395705827969 5.02092
68.9975257683402 23.307
71.0153904919848 3.27593
77.0354995276502 4.527
79.0563927203316 3.28343
81.070873333748 2.08325
83.01027309998 4.47177
85.0281542190826 2.75704
93.0320188088639 18.0265
95.0125499567537 8.68318
95.0441067822138 3.5049
105.031180578269 5.83831
106.039923300579 2.72974
107.047567484551 13.7517
113.022084432999 8.38112
117.071264452447 3.3566
119.05149161182 2.08197
120.048038262987 4.18561
121.027330974905 40.1052
122.030702119649 4.69747
123.008387260204 19.7349
125.022779321743 7.55596
127.052591713624 9.72245
131.049029161469 14.0746
135.04481437873 4.69829
139.000243422282 4.21762
141.014905596733 2.54203
145.070822707427 2.24099
147.04657043524 5.66963
150.034106505832 2.19153
153.014396012554 10.2472
155.048878518323 7.41644
157.061229472748 2.39178
158.039402233253 3.27619
159.042054828233 6.8635
161.028177992164 2.59976
169.012482331997 100.0
173.058001185226 8.47737
181.008607746145 13.4983
183.044240402175 8.57346
201.053590599602 7.80719
213.055089904902 2.66241
217.044505065747 2.17806
229.045006577722 7.59296
239.029753212018 2.29057
245.043025498497 3.17604
247.052792074321 4.43692
274.046664121553 9.38104
275.052551542921 2.91266
285.046802842268 3.05731
302.043486941655 2.76348
303.049120895136 13.7904

