>compound Guanethidine
>formula C10H22N4
>parentmass 199.191961386092
>charge 1

>ms1peaks
86.072004925739 2.02501
140.142925492715 3.25854
199.192063805922 100.0
199.364697675692 6.79178

>collision 10.0
44.050580649205 1.01937
55.0552753396937 0.758673
72.0816478588473 1.03865
86.071911548948 29.1104
86.1894510670352 1.0281
140.143356350476 48.0308
140.287508037292 1.76025
199.191961386092 100.0
199.364526649686 5.25267

>collision 20.0
44.0506220362334 5.50216
55.0553314205675 6.07329
56.0505436454743 0.621495
58.0660045757477 3.66336
69.0705880043771 0.609286
72.0815756545467 8.93545
86.0718925309815 48.3948
86.1894492892957 1.90792
98.096744187169 0.531466
140.143400072615 100.0
140.287985956325 4.62972
199.191042469005 4.85881

>collision 40.0
29.0388286541654 1.6305
30.034241636533 1.00806
39.0240827883178 2.53341
41.0395393412005 9.13532
42.0352746211244 1.33325
43.0302134797084 5.69568
43.054664601709 2.85505
44.0506007022235 64.249
44.1339545991231 2.48236
53.0397084032919 2.25137
55.0552329762857 100.0
55.1486883917731 4.05123
56.050435068165 16.7315
57.066854627813 0.516718
58.0661241906565 23.21
58.1629283638529 0.672501
67.0545962594376 1.64244
69.0677787153624 4.95589
70.0663964467057 1.52714
72.0815781650158 37.8952
72.1884017774498 1.26493
81.0703039091653 0.594589
83.0830380514696 0.725082
84.0811789175667 1.03889
86.0719416678848 54.2382
86.1894560982419 1.65181
95.086608030236 0.640874
96.0809008486346 0.590779
98.096071529137 2.44623
126.127816804505 0.623479
140.142994282224 10.4138

