>compound Xanthohumol
>formula C21H22O5
>parentmass 355.15145292843
>charge 1

>ms1peaks
179.031943205225 8.75673
299.089225500576 25.9894
355.15145292843 100.0

>collision 10.0
179.032302573337 89.4489
180.033206075227 0.522945
235.094197992517 2.53338
257.078454202443 1.33834
299.089216920982 100.0
355.151127854705 34.8473
355.318221761718 0.522975

>collision 20.0
179.034145737599 100.0
235.097656339969 0.516153
257.081164379717 1.47808
299.091614547319 6.28787

>collision 40.0
53.0389446752267 1.83593
55.0183114207513 1.54189
57.0339404693976 0.552907
59.0138813567364 0.965424
65.0390847024303 1.60771
68.9974643509196 0.954461
77.0386369969746 0.885332
79.017384778326 1.67353
80.0255622412155 0.571098
83.0488902655691 1.83995
92.9959735855683 1.02954
93.031299791735 0.957862
95.0481569955943 3.15215
107.049583103018 0.505616
108.019925889203 2.55946
111.042581696535 0.952188
113.021993705711 6.17823
121.027332240631 1.81566
123.043099538203 1.95532
125.021404781947 0.518655
136.01432574962 1.10002
149.023946867742 0.513872
151.037536211711 6.47543
161.021583455721 1.57383
179.032181771161 100.0

