>compound Clindamycin
>formula C18H33ClN2O5S
>parentmass 425.18853364397
>charge 1

>ms1peaks
126.128406165681 1.59673
425.187816928778 100.0
425.365617146996 5.82
425.455940194075 2.58898
425.62285861777 1.49216
425.687741332901 1.11728
425.768338772261 1.0655
425.819161122893 1.02933
425.866382049899 0.974861
425.930496302217 0.904558
425.990855061443 0.871201

>collision 10.0
126.128248947669 14.3545
126.231104675791 0.509151
377.186889872438 2.76521
389.213593307393 0.645419
425.18853364397 100.0
425.366646952741 5.72815
425.457430449118 2.52307
425.624299077306 1.41492
425.6879777777 1.06999
425.772382935818 1.01402
425.820720851788 0.97464
425.867197687814 0.938415
425.928325824443 0.855559
426.025440692426 0.786778

>collision 20.0
126.125635489547 100.0
126.228310466056 5.17188
126.26368046239 2.64787
126.315075363683 0.96827
126.339992919633 0.919821
126.365664620665 1.10138
126.405148125612 0.60648
126.474291821022 0.534343
126.499844725292 0.505689
299.194772015111 0.510587
335.171266694942 1.88261
377.182252027723 11.4116
389.208314479389 1.81912
407.174460187268 1.21781
425.182579600845 59.8314
425.367646618925 2.93209
425.445536218107 1.33619
425.571408958014 0.535834
425.622474862802 0.598846

>collision 40.0
42.0351673153155 0.700794
69.0708790915337 0.686306
70.0662293008891 0.873647
82.066017870847 0.620381
83.0751625325154 0.647451
124.112621636735 0.603785
126.127142441019 100.0
126.229735551977 5.47643
126.269541467257 2.55142
126.314438453961 1.12182
126.339984403482 1.04523
126.366751092722 1.20959
126.406451095262 0.682163
126.449188825131 0.623872
126.474996595973 0.636142
126.499774002104 0.5842

