>compound 1-Palmitoyl Lysophosphatidic Acid
>formula C19H39O7P
>parentmass 433.23296195402
>charge 1

>ms1peaks
313.271228183068 0.928638
433.233146011322 100.0
433.416170804249 1.63681
433.486144087112 0.955413
433.573650945792 0.686155
433.672480326502 0.655312
433.773023330762 0.637316
433.820735737231 0.594457
433.961508719324 0.687361
462.96150871932 1.0e-13

>collision 10.0
120.967383712167 2.33574
195.000760584903 1.72325
313.271698384003 6.72545
353.264265715444 0.805464
415.221745614248 2.63339
433.23296195402 100.0
433.487622358292 0.801087
433.547126189241 0.619565
433.674942400661 0.71946
433.816121668463 0.649368
433.89985484018 0.71404
434.229567131383 0.508161
463.22956713138 1.0e-13

>collision 20.0
43.0191545772824 0.814086
43.0541227873965 1.64833
57.0349733191938 0.546995
57.0709838527065 4.5652
71.084878588197 1.83166
81.0719525328141 1.40706
83.0874321880608 0.963192
85.1015369604665 2.31053
95.083072890588 1.80287
103.07790448502 0.533066
109.101575609307 1.12439
111.039527264855 0.558332
120.966032463571 11.8155
176.989504161179 1.64299
195.001826525716 11.0728
257.247779432285 0.590716
313.274375323018 45.1604
313.476551736687 0.573954
335.258444276755 1.42904
353.26695777452 5.46161
415.223566988533 9.50901
433.232213128111 100.0
433.417970573254 1.51498
433.478076657747 0.633614
433.549459567081 0.674937
433.716381939446 0.810836
433.864409360383 0.659633
434.049732143293 0.684208
434.225255084821 0.907623
463.22525508482 1.0e-13

>collision 40.0
41.0375640636461 4.55828
43.0171635989865 2.06981
43.0556187356074 36.5215
45.0330704225286 5.38765
55.0546035907087 8.28244
57.0350990712167 22.5256
57.070724660557 100.0
57.1406648089972 1.68401
57.2667765432944 2.14559
65.0336250538133 1.8937
67.0121130873457 3.6903
67.0548834249605 6.18958
69.0717276621218 19.1864
71.0857304079943 65.9019
79.0497700503007 5.44073
81.0720144082105 8.11638
83.0502099706465 1.7353
83.0838445293998 7.92453
85.1029171578302 26.1549
89.0580644298183 2.50597
93.0713607723825 4.65296
95.084165811794 26.0387
97.0662283100278 2.06158
97.1028728948642 4.30771
99.0469482975498 2.65165
103.079472295273 1.74771
109.103356133243 7.89082
115.038887485777 3.10631
117.082612042798 1.69645
120.966624737629 17.617
121.096345839272 3.73225
123.116180565297 5.90923
133.103202724969 1.64848
135.055827391798 1.73047
137.126620678474 3.12183
151.104408209095 2.90677
169.095844990569 2.11008
176.99651112115 4.3757
194.998576359852 18.7473
199.05510288409 3.01157
201.10470249027 1.98614
248.175246009615 2.75827
313.271070245973 11.3284
342.27107024597 1.0e-13

