>compound capsidiol
>formula C15H24O2
>parentmass 219.175644599608
>charge -1

>ms1peaks
95.0876631582005 1.00731
107.084907370556 0.577152
109.105747723857 0.882638
119.087711380834 0.593341
121.064512410214 1.08565
135.079785655505 2.78703
145.09922022524 0.67568
149.130346489832 0.548743
159.11714101751 0.676857
161.131978860369 1.2523
173.13066823205 1.49727
177.130064682393 0.586315
201.165131205116 9.59178
219.176294050266 100.0
219.306204244009 1.23901
219.355729559837 0.576083
219.39279653332 0.502567
219.460804757794 0.520626
219.546506445972 0.592722
220.54650644597 1.0e-13

>collision 10.0
57.0723956044418 1.20273
67.0538193784833 1.32011
69.0705692053712 6.78998
81.0716580405019 4.3118
83.088067237037 1.51213
85.0635962873342 0.760145
90.9739315816318 0.631563
91.0542191981425 3.10424
93.0717756065995 2.40169
95.0858845391911 23.3852
95.1762285249272 0.5468
97.0635603999971 2.46931
105.069227363718 13.14
107.08599187076 8.6067
109.063740512276 1.94493
109.101600902955 6.54049
111.080661944675 1.59609
111.114792826546 1.13532
117.068667716266 2.74009
119.084779476805 9.43278
121.065342571761 30.7843
121.096468826713 13.1333
121.163001080381 1.0035
121.42194487276 0.587703
123.080376243584 2.38999
123.1158285863 5.76544
125.097173170099 1.25718
127.107845222035 1.44857
129.066536580381 0.713565
131.084169750887 3.32092
133.103347797454 3.47907
135.080101105021 56.7038
135.18603648867 0.932395
135.306424231018 0.53057
137.097263629578 0.827931
145.101521673768 11.001
147.116595006615 3.9316
149.097265751359 5.81695
158.103317706512 0.570018
159.116542843248 9.67715
161.129293241233 9.96851
163.112570518646 4.17917
173.133131066382 43.8903
173.438051491383 0.662635
175.148720100037 2.53249
177.132021519831 1.78376
191.179398922478 5.48227
201.163730963416 61.4001
201.29009079732 0.891673
202.158080771456 0.60518
219.060641032972 0.626457
219.103110546727 1.12255
219.175644599608 100.0
219.302651282188 1.38368
219.392675460548 0.680527
219.647604600484 1.03932
219.757839104488 0.763408
220.75783910449 1.0e-13

>collision 20.0
41.0394238461395 7.05764
43.0202952381374 2.10113
43.0553949660741 4.05371
55.0154289688832 1.02026
55.0559089098116 7.56687
57.0724776674958 2.47282
67.0547272106598 16.1801
69.0318232805427 1.48312
69.0716622560049 39.893
71.0523763740666 2.97584
77.0387618955885 1.41995
79.0557309669495 4.55184
81.0728577103234 11.5211
83.0857505727357 2.92343
85.0683995970048 1.3112
91.0539314236192 7.46169
93.0702524157567 10.5301
95.0865782622843 33.2578
97.0669067016321 6.86905
97.0966997868859 4.43497
103.052414412044 1.03607
105.07204116703 22.7223
107.085945237367 25.1155
107.177872266998 0.869186
109.068449045329 4.2647
109.101397085407 18.2438
111.081206516077 2.07816
115.052495566318 5.63032
117.07218741077 9.90238
119.088408672292 25.5183
121.06768387014 69.5544
121.162850167411 1.7143
123.100767843386 5.69691
124.117618313722 0.88856
125.098469191696 1.64208
129.070870408302 1.90334
131.087874766405 12.6994
133.101802794965 4.9696
134.955700886496 0.947723
135.082452533894 100.0
135.181606146439 1.77069
137.119652030892 1.22597
142.082361980802 1.61278
143.085731611412 2.38892
144.095743172011 3.43426
145.103900069158 30.2904
146.111070916735 0.925723
147.115918544293 4.64288
149.100355898236 5.49942
149.129065608976 4.89865
151.096510155585 0.892012
158.11093180391 6.54272
159.11954593606 28.5682
161.133908052893 2.92055
163.134281871042 1.31114
171.119369890399 3.28389
172.133380243819 0.869186
173.133748624155 54.8479
175.147953525868 5.12423
183.069366743712 1.27388
191.16856836656 0.846994
201.163078928556 12.7756
201.229498010258 0.951085
203.144988238434 0.987443
219.176486708666 15.7303
220.17648670867 1.0e-13

>collision 40.0
29.0394847059177 5.0205
41.0395720532218 55.9816
43.0196949825631 16.194
43.0556480503292 6.73473
51.0235020332958 3.98516
53.0409008245221 6.80116
55.0169803600283 2.91454
55.0541022238436 28.1433
56.9645908301531 2.11523
57.069063801074 2.79911
65.0387636675675 16.6769
67.0548309549065 30.3148
69.0322136394134 3.38016
69.0703749444808 20.959
77.0400850036164 52.7169
78.0436926334152 2.95579
79.0538551736275 30.4704
81.0708443889114 14.8594
91.0540054242817 100.0
91.1142107323105 2.12175
92.0686214788828 1.52174
93.0705621477625 25.8278
95.0440214312307 2.15314
95.0867667693089 14.0075
103.055259965882 14.2635
104.058515802191 2.0081
105.069885496833 61.5874
107.087796645126 15.208
109.065071122539 1.64002
109.09738002732 4.84531
111.080346092342 3.35952
115.054813810205 51.1107
116.060221057869 6.74174
117.070153382308 13.4218
119.047917413486 2.44318
119.085565544219 26.6172
121.064319557424 23.3073
121.115541767137 1.83806
127.050877650405 7.97716
128.061502974681 12.3933
129.06944554293 22.0836
130.077304358021 8.54611
131.085001040856 11.5834
133.10084744798 3.03606
135.078593971371 18.7431
141.067774809507 2.30941
142.07384780517 3.47738
143.084753433219 23.3557
143.548766874551 1.37211
144.093832785088 6.53864
145.101579494361 9.17321
157.100300295216 5.3989
158.105619923915 7.66449
171.11366380746 2.24982
173.131331974665 2.28191
174.13133197466 1.0e-13

