>compound Geranylgeraniol
>formula C20H34O
>parentmass 291.267799873306
>charge 1

>ms1peaks
79.05306669551 0.50138
81.0703380859044 1.63697
83.086724216486 0.724674
95.0866801755857 2.26426
109.102466273723 1.4509
121.100740627427 0.950709
123.115879225114 1.52983
127.112282117639 1.14463
135.117790033452 1.28982
137.135027892593 0.95814
141.128524191356 0.576638
149.132427786871 2.46255
163.148737595869 2.31878
177.161799188002 1.83546
189.167845654644 0.679273
191.178919597114 1.74084
203.177961604787 1.24489
209.192008097565 1.01938
217.195886727952 2.6508
233.23119936755 1.11702
235.207845173976 0.541576
273.260247401702 16.4961
274.26100707309 0.591557
291.168150981196 0.920986
291.270694767292 100.0

>collision 10.0
43.055624729097 1.33033
55.0535078005919 1.08846
57.0717432251077 2.74447
67.0539200877146 1.8185
69.0712312744658 5.34551
71.04962632234 2.41616
79.0550051939807 1.17145
81.0709043428566 9.56954
83.0864743408138 3.71799
85.0995564739732 0.721557
93.0703739435627 2.36715
95.0853051728216 16.9665
96.0885523614448 0.621471
97.1002007801804 4.27712
99.08169918538 1.28099
105.06652854475 0.874247
107.085131882586 4.21966
109.100554215212 16.1397
111.117475871225 2.57299
113.093131623398 1.53543
119.082814539441 1.77599
121.100204093358 7.00239
123.115911074431 13.3616
125.093712206339 0.707141
125.131359626935 2.0262
127.111274383642 6.89513
133.099526663865 2.06441
135.115189070131 10.7652
137.132392057552 7.01055
139.114908293101 0.596518
141.127491294668 1.92447
147.116292876526 4.40854
149.131303687619 16.5289
151.146848165168 2.93684
153.125196163253 2.07112
155.140745746909 0.803395
161.130272474255 3.60124
163.146483334029 15.5813
165.161226474738 2.90252
167.141905217684 1.46031
167.181785665267 0.766819
175.147443041811 1.95207
177.162829422667 10.7011
179.137514599184 0.951655
179.171476052152 0.930662
181.159568854892 1.29549
189.163289160911 3.42386
191.178191879842 15.0543
193.199564468858 0.726807
195.174029788879 1.59206
203.179171808159 7.77127
205.193997720567 1.9575
207.17203402575 1.37453
209.1881852503 9.21361
217.193052177356 9.69036
219.208063957737 0.542889
231.205451839535 1.89368
233.225876515038 6.47284
235.202572393608 0.716991
245.225895031255 0.609318
261.262552666188 0.967259
273.256482696386 51.5621
273.403274101482 0.761073
274.264976606562 0.721252
291.163169201033 1.94673
291.267799873306 100.0
291.419160284813 1.4839
291.540418085704 0.752256
291.632283113142 0.53006
291.972415298725 0.685185

>collision 20.0
41.0398697672196 4.57652
43.0186338467158 4.9731
43.0547384161291 15.486
55.05499344455 16.1546
57.0707329832135 15.3891
65.0360579531591 2.20871
66.0435771674462 1.1518
67.0549853228267 17.0871
69.0320528506776 0.686752
69.0709275455807 39.6085
69.1450594964863 0.719803
71.0503495952025 8.27094
71.086077132417 3.33145
71.1206790481575 0.737691
73.0648172849247 1.06924
77.0363313765057 1.75789
79.0544351822686 7.87843
81.0699655583763 83.3942
81.1498938212743 1.53932
81.1784418229815 0.621426
81.3480987621902 0.893668
83.0848990237393 16.0273
85.0633167100725 1.80602
85.0993835239727 1.77585
91.0521563535517 3.55463
93.0694039570871 25.4065
95.0142533802226 0.811554
95.0852014051565 100.0
95.1730092166288 2.09255
97.0645585629793 1.71402
97.0999380553642 12.3487
99.081783470552 6.08883
105.07038161837 12.8386
107.084363702047 43.0998
108.092882518659 1.2971
109.062233794533 0.969212
109.100917593666 85.695
109.192074512856 1.42331
111.079125390335 1.47326
111.115392448592 8.41613
113.098754725296 3.95055
113.130492590841 1.58801
119.085595931247 17.2941
121.100501040605 44.7269
122.105015915034 0.958864
123.115985198102 51.8175
123.189475081011 1.59084
123.217897023807 0.720352
123.277863278541 0.660156
123.591989950193 0.575984
124.439577955726 0.661085
125.127329148049 3.73982
127.110007478484 10.1657
133.099501376123 11.285
135.116113537416 41.3535
135.2216077944 0.64617
137.13115647138 16.7754
137.213729076145 0.57588
139.108020800571 3.20506
141.129012458829 1.61722
147.116142997658 18.0759
147.221267591154 0.633144
149.131817089576 37.9653
149.210093625498 0.801093
149.244255619626 0.604909
151.147882063801 8.86708
153.126282909787 3.94634
159.114653124226 0.611457
161.057510642085 1.32299
161.131725991321 15.2697
163.146753974782 35.2561
165.162819610205 2.15095
167.141704747589 1.48941
174.134996610178 0.97079
175.147518794244 7.55526
177.163337903159 15.4838
179.15424752389 1.45074
189.163016336809 13.0106
191.17807968467 38.281
191.275513382027 0.647866
191.551472880744 0.764747
193.188635278792 1.47253
195.171195702541 2.42484
203.176266264978 11.1498
205.195009783634 5.95138
207.168708127048 2.41775
209.18751343165 5.88545
217.192700933094 15.3739
219.217331953787 0.852408
231.208722519712 1.68279
233.227267632793 13.9635
245.222908772379 1.73207
247.230930546154 1.1012
261.258616605824 1.3247
263.270851012013 0.877027
273.258516454085 24.6707
288.793436999898 0.591487
291.151137284235 2.44875
291.267227514059 37.2451
291.396928880311 0.960971

>collision 40.0
29.0384096742575 0.932376
41.03959236409 40.8031
41.0986342575341 0.705426
43.0185924534823 3.75897
43.0556500477178 36.3457
43.1134008376364 0.728032
51.0246753991536 0.89448
53.0409954928392 5.31247
55.0167549025088 0.829647
55.0550133460755 71.5883
55.1221137243869 1.42662
57.0349045467621 3.31988
57.0714299506075 12.9722
65.038228539897 1.6548
67.0548279555034 58.3685
67.1285507793896 1.23196
68.0551903294178 0.987312
69.0703761071484 54.3466
69.1422514739827 1.10194
71.050236383752 1.6056
73.0668526710967 1.3269
77.0403386156317 14.1554
79.0550131146824 38.5593
79.1179147274163 1.38937
81.0707102193431 100.0
81.3831588843524 0.704746
82.0731787830173 1.36196
83.0488597725639 1.17232
83.085829554921 9.34647
91.0550415427356 28.9261
93.070299138778 50.8093
93.1565604508771 0.793396
94.073527115637 1.27813
95.0866234691317 74.0255
95.1745506713814 1.39212
95.2928940335202 0.793042
97.0629659668338 1.4956
97.1000347832364 7.49616
98.0933461701694 1.10127
99.0744018024859 1.2109
103.056323268912 1.31447
105.069996759706 32.1227
105.13681603341 0.9023
105.16217873305 0.911967
107.085061217342 48.3094
107.178150268829 0.765798
109.101253788844 39.1856
109.19431537549 1.00521
117.075765898996 4.30224
119.085897582455 17.4686
121.102301472599 15.1166
123.119527531797 10.4007
131.086238593399 2.56726
133.062021909493 0.777696
133.100307134978 11.6527
135.117310421601 10.5527
137.132973762799 2.12433
139.118954468404 0.687579
145.094200845085 0.816903
147.115151124929 5.37579
148.122562880704 1.49914
149.130890868278 7.24179
149.584905712339 0.771681
161.135721510934 2.40815
163.155228619498 2.7233
174.14296896815 0.845306
175.145190050039 0.765343
177.164097221296 1.60889
189.159653218383 0.916701
191.176828637766 0.97055
291.248992915353 0.840305

