>compound sclareol
>formula C20H36O2
>parentmass 291.270400249339
>charge -1

>ms1peaks
79.0540521612171 1.43809
81.0735847444774 1.86349
93.0674604447873 1.73428
95.087951292151 1.77107
109.100496411551 2.62002
110.102633030391 2.0676
111.114444443705 1.63518
121.099054831083 2.68298
123.11764950388 2.90394
125.137607363584 1.48318
127.109539018535 4.4873
135.113921085651 3.06636
137.132096196987 2.35457
149.132755774032 8.12727
161.133923271359 1.90687
163.148686677118 5.42238
164.157793997368 1.43419
165.163129127738 3.13949
177.161471316367 3.07363
189.159369420461 1.71828
191.178476893334 3.99116
203.175446870565 3.01191
217.192571927663 3.04059
235.196484554948 1.37903
247.240622289064 1.568
273.25817607065 100.0
274.253735504992 3.81518
291.270400249339 82.5045
292.27040024934 1.0e-13

>collision 10.0
57.06753184228 2.1294
67.0544495611478 6.0931
69.0715021120228 5.97799
71.0885077032987 3.94963
79.0543087614496 2.08832
81.0703697338533 8.85363
82.0731615010227 2.30044
83.0882678259025 4.27028
93.0707172202689 3.15966
95.0843070278891 21.1182
97.1006700282474 2.11218
107.086002191302 2.97731
109.104907089967 17.4774
111.117006033881 9.55588
121.10254917933 5.28109
123.119008607185 10.2605
125.135848219888 3.41473
135.112814566639 2.47682
137.123921255179 2.7355
149.13203110564 20.7602
151.149885077994 3.49037
163.149842376361 34.6337
175.132423138889 2.30924
176.146327770749 2.76754
177.162659507125 18.0628
189.168002985375 9.87819
191.180515043882 12.9285
195.177355730993 4.32538
201.079438048671 2.07096
203.184106148051 10.2254
204.179217881052 3.46444
205.200665401281 2.02432
215.188519654212 1.83832
217.201906641964 8.63567
231.211836151255 3.41098
235.207247675641 2.76754
273.261115457015 100.0
273.433520747671 1.92966
274.265042417376 5.66197
291.273380839826 38.8863
291.601475283194 1.92966
292.261006912692 2.41064
293.26100691269 1.0e-13

>collision 20.0
41.0377124796058 6.49871
57.0703512175198 14.946
59.0487107127683 13.3857
67.0546810366066 16.1522
69.07029553354 18.2046
71.0831445435545 15.6562
79.0547551162551 7.51164
81.0705746785146 74.6871
93.0684130512303 21.6723
95.0862340624301 64.3488
97.1003217092899 9.86841
105.073040867476 6.9058
107.085585254432 42.8998
109.101277727029 61.6456
111.120859999956 17.3644
119.084978614333 32.1506
121.100013153921 53.0244
123.115831339599 55.7932
133.10115856165 21.8224
135.116441824001 33.2305
136.115647417478 6.16675
137.13561839831 9.62416
147.112207908711 15.474
149.134073177014 73.3134
153.127810743468 9.33918
161.132919630563 11.2848
163.148109994534 100.0
177.164589459404 50.9316
189.159983376742 29.8723
191.17707656794 22.029
193.196457796434 8.78437
203.182425740292 9.39355
217.200915372317 12.0927
247.253953449562 6.45802
273.255385780321 59.5923
274.25538578032 1.0e-13

>collision 40.0
41.040602094801 41.4977
43.0578916667222 25.0332
55.054584512373 47.0168
57.0708379099255 13.8922
59.0477566992497 11.7404
67.0535666459422 42.3211
69.0702831392706 92.4414
70.0745792176183 8.70227
77.0386058568722 8.71637
79.0556024633967 27.5107
81.0727672762755 87.2103
83.0838095233835 8.04873
91.054000314623 10.201
93.0706878167804 41.1815
95.0856030650346 100.0
96.0851817117633 10.6952
105.069389321067 20.2005
107.090839663659 56.9624
109.101078009949 34.7398
109.130156646811 9.99218
119.086917748299 12.519
121.101847646 10.8096
123.118492902956 22.2099
131.094657184961 6.79085
133.102934650586 5.68567
135.114519208285 11.6345
147.112836452991 8.75325
149.13098937388 20.5487
150.13098937388 1.0e-13

