>compound &#38;beta;-Sitosterol
>formula C29H50O
>parentmass 397.384160753854
>charge -1

>ms1peaks
135.117120408306 1.01019
147.116893568126 0.765681
161.132272877454 0.900927
299.273436103542 0.500333
397.38432517634 100.0
397.56032276005 2.06831
397.620928818065 0.953794
397.678340865196 0.728581
397.746816149935 0.575093
397.916912109676 0.541115
398.91691210968 1.0e-13

>collision 10.0
57.0706933977451 2.10168
69.070462652498 0.783755
71.0863076269275 1.61633
81.0709264689852 1.72433
83.0864387428652 0.879584
85.1018354118288 2.22849
95.0861036203304 1.71111
97.1018980638992 1.29994
99.1174022455167 0.567238
107.086173554799 0.801271
109.10215592974 2.04183
111.116901949331 1.5309
119.086712727633 0.549955
121.101003926751 1.38298
123.116652962258 1.35517
125.131504119245 0.84212
133.102815396136 0.83669
135.116855496553 4.15307
137.131709862388 0.740178
147.116862793122 5.49454
149.132074830168 2.53567
151.147965632674 0.998993
161.132086397957 6.40531
163.149455866735 0.977882
165.164234773709 0.913617
175.148865890547 2.77249
179.179040477051 0.597403
189.163895468465 2.21051
201.16428135991 0.817151
203.179390868148 2.06255
215.180731525849 1.30734
217.195510276057 1.5434
229.196011592462 1.19521
243.210896437702 3.37292
247.243589904547 0.76232
257.226892367359 2.16098
261.257538759376 1.78897
271.242416791521 0.675519
273.257678113476 0.546108
275.274576955434 0.740766
285.257559604202 1.18436
287.27502382747 1.427
299.272943463053 1.20428
301.289724982106 0.91286
313.287260068897 0.548615
315.307030594115 1.34154
397.384160753854 100.0
397.562257383039 1.98608
397.619514977004 1.03829
397.710737292241 0.646689
397.804085734153 0.581053
397.940087006177 0.576123
398.94008700618 1.0e-13

>collision 20.0
41.040104844472 1.08438
43.0548782705533 5.30207
55.0553621298116 3.82495
57.0709148671633 18.2104
67.054974966657 4.65012
69.0709467993128 12.2825
71.0865346191328 16.0905
71.1380607070178 0.612457
79.0545103925402 2.28025
81.070440807294 21.25
83.0861690825929 10.0186
85.1019907062283 14.7996
91.0542988575847 2.16272
93.0703971209677 7.12357
95.0861219270388 24.5653
97.1016158627916 11.1953
99.1168808154602 1.34907
105.07034061345 6.29534
107.085849843132 9.10568
109.101607179663 26.5805
109.19561278482 0.525326
111.117350335373 8.80818
119.085565698316 7.1774
121.101627960929 11.8601
123.116980889024 11.4915
125.132839959502 2.55284
131.086598125654 1.05163
133.101524686478 8.83828
135.117197240097 28.0431
135.224104667996 0.627235
137.133098032222 6.73516
139.146297005101 0.690707
145.100391350696 2.19399
147.11710411806 46.787
147.228127302975 0.846555
149.133281381822 16.4989
151.147838926643 5.59969
159.117197810189 3.0097
161.132805970696 42.8869
161.248512724194 0.753663
163.148017860835 7.4754
165.163705980562 3.62675
173.133525549887 2.58543
175.148252055121 20.8604
177.164210262705 2.67225
179.179636914824 1.51787
187.146823004047 3.07696
189.164129349173 10.9631
191.180520691881 1.31531
193.196294559465 0.867134
201.164265379242 7.36988
203.18000494456 11.3955
205.192771441424 0.69779
207.210493635192 1.32838
215.180443651392 10.1395
217.195891022502 6.51416
219.212276970961 0.84411
221.227114506472 3.02336
229.195227399954 7.15183
231.209450219236 1.09315
233.227549360493 2.17702
235.240603470217 1.33475
243.211920364209 10.9832
247.24265767464 2.67402
257.226719631419 7.2365
261.259845749384 4.95024
263.276425783335 0.556428
271.241691054008 2.08996
273.257856770747 2.2793
275.273141062574 3.60574
285.256379298678 2.52252
287.274239791184 5.93913
289.287091064763 1.9614
299.275469925258 2.75412
301.290673617659 4.1957
313.291636974716 0.687215
315.304850696576 5.68339
327.30311919733 1.19252
341.320839916172 1.68231
397.384305945611 100.0
397.564183719819 1.76691
397.616218812175 0.897465
397.686976553611 0.732021
397.778982023536 0.529064
397.930761003847 0.684485
398.137324697888 0.59058
398.263032682985 0.534799
399.26303268298 1.0e-13

>collision 40.0
41.0394468106296 10.137
43.0555551557272 43.2318
43.115791625916 0.779635
53.0386586462613 0.909602
55.0552664033958 43.7613
55.1233084321326 0.824283
57.0712558193928 50.6856
57.1407561113298 0.984648
67.0548602160571 52.3083
67.1283097181876 0.874321
69.070620126713 66.1853
69.1471146982334 1.26407
69.1752099695008 0.609157
71.0865110187055 23.5911
77.0387925259394 4.5529
79.0548861667232 25.928
81.0705237991653 100.0
81.1524785273259 2.09948
81.1760090721109 0.924278
81.20510860532 0.695684
81.412695609959 0.508722
83.0861256903935 25.8755
85.1009742056519 9.44325
91.0547697736824 29.0543
91.1306218377374 0.863845
93.0706177701909 46.3559
93.1593606255645 0.807483
94.074874573723 0.742404
95.086124334044 87.8834
95.1765034655243 2.21209
95.200684947138 0.931388
97.1017815418644 14.5999
103.055616806268 0.634269
105.070098801841 66.8407
105.163185717139 1.09998
107.085997169839 39.3436
107.185079025365 0.781666
109.101604894315 68.742
109.19771997111 1.24283
109.221362842911 0.686027
111.117247671228 3.70184
117.06959886295 3.42017
119.086024600252 47.0305
119.182328607288 0.729602
121.101298216469 25.0601
121.204974172815 0.538652
123.117328800368 17.1709
129.069269835196 1.03307
131.086580317194 8.21293
133.100795853714 36.8359
133.204568468364 0.657838
135.11702214618 34.1018
135.223009287937 0.546862
135.253728619326 0.508319
137.130874178718 3.77096
144.092153019948 0.675612
145.101619907774 11.4603
146.109515874692 0.921038
147.117201033227 74.0696
147.226284739026 1.16493
147.258052179348 0.662522
149.13335828843 13.9119
151.149400235356 1.61593
157.1054075913 0.541275
159.116915722648 10.79
160.121478440657 0.63153
161.132509641876 44.4311
161.250199999485 0.946908
163.14810641707 4.52065
165.168085796037 1.01396
173.133608189051 5.32163
175.147530725205 16.1199
177.164207176605 1.34734
185.131844176032 1.97853
186.139792849305 0.934587
187.147455163864 7.22915
189.165372776577 2.93507
199.150265661938 0.696766
200.155346609969 0.532543
201.164515571288 5.21437
203.180914342037 2.20846
215.17869488744 5.89537
217.194897164254 0.662832
229.195846057952 1.9053
231.210343338178 0.549245
243.209807835298 1.18738
257.227795237382 1.0239
287.275663706977 0.563321
397.383116190861 0.816003
398.38311619086 1.0e-13

