>compound 2-Amino-3-phosphonopropionic acid
>formula C3H8NO5P
>parentmass 192.00154331296
>charge 1

>ms1peaks
46.0663582974545 0.704634
145.999961242163 2.07999
146.984954274091 0.6315
192.004528003716 100.0
192.125720366348 1.80865
192.170524770313 0.702123
192.222780479052 0.580378
192.267796606632 0.524908
192.520213701204 0.513726
192.612095332576 0.577944
221.61209533258 1.0e-13

>collision 10.0
46.0649744592866 5.95271
66.0263393410456 0.763798
101.967494172218 0.827247
145.995819994247 54.2541
146.39067558885 0.927977
146.977909735763 5.9375
173.986581775655 1.44515
174.979682003686 1.19942
192.00154331296 100.0
192.12665618627 1.41978
192.175013481438 0.877961
192.586126566002 0.755094
192.841961945081 0.761776
221.84196194508 1.0e-13

>collision 20.0
66.0287157145083 33.9404
127.987698115267 25.61
145.996640650157 100.0
192.003905456183 22.8678
221.00390545618 1.0e-13

