>compound Myriocin
>formula C21H39NO6
>parentmass 402.285891114093
>charge 1

>ms1peaks
384.274151705204 1.06646
402.286062604192 100.0
402.462469704178 4.2623
402.530477160154 1.80852
402.658145594267 0.700517
402.710144383788 0.743629
402.781420791416 0.580786
402.898153403776 0.537195
402.972195031666 0.531002

>collision 10.0
72.0451790804852 1.06328
90.055415743837 1.16689
104.03421693112 1.29541
113.09560411109 0.51205
267.231404057467 1.51297
320.257911986681 1.01594
322.273983271476 0.527208
338.268388029273 0.924952
356.279123936037 1.01675
366.262668547286 0.537525
384.274123570232 9.17943
402.285891114093 100.0
402.462514133144 4.18673
402.531821654193 1.76795
402.711410071506 0.709426
402.772540021383 0.555706
402.872858006513 0.544005
402.956802320543 0.512263

>collision 20.0
43.0551328090575 2.50199
44.0505777136532 1.47204
57.0705464046336 1.6464
58.029388690862 1.90459
60.0450347050834 4.2574
67.0547802518242 1.08869
72.0449748168415 20.0015
79.0545183165919 0.986773
81.0700148904047 2.1467
83.0853336163438 0.815666
85.1015125628024 6.25194
90.0554168125668 15.1241
93.0699691593792 1.64716
94.0651743132271 0.829417
95.0856799298233 2.61619
97.0652046813488 3.0945
97.0992746810073 1.41422
98.0599178997186 2.30343
100.039563760056 1.71477
104.034210913542 22.0077
105.070164002246 1.02746
107.082597274172 0.803065
109.100533124955 1.39408
113.096003167226 11.4722
118.049886849811 2.33405
119.085555410775 1.13112
121.100913151152 5.16972
133.100397780134 2.03294
135.116290360604 1.50334
146.044691170499 0.801246
147.116171460039 1.57732
149.13206224 0.862543
159.115993046159 1.01666
161.132301671714 0.990087
231.210532218631 7.51645
241.215974200957 1.98709
249.220662906586 2.28735
266.247494889632 4.5596
267.231359648735 12.9187
290.247426431787 3.48099
292.261399843435 1.97478
302.247754041833 3.04092
304.262926673995 5.86964
305.247308395851 0.998242
308.258221576767 1.18368
318.242073483565 2.48302
320.257946523039 14.3087
322.273328348196 5.89503
330.242954590423 0.802125
331.22664511213 1.51854
336.252979605554 3.14729
338.268391066591 10.2779
348.252728499854 2.46169
356.278565287291 5.82159
366.263242520894 4.42238
384.274406567095 37.3143
402.285172647532 100.0
402.46211107534 2.38782
402.528770608049 1.12971

>collision 40.0
41.0395620657099 4.12374
42.0348586829904 8.98791
43.0552203561279 60.8196
44.0503777713659 23.6203
55.0551120955942 10.4749
56.0502801887177 7.99224
57.0342387446671 3.07178
57.070728922746 24.2436
58.0294749588475 35.4152
60.0451288982792 49.2348
67.0547820668275 19.7779
69.07045914604 8.50889
70.0292226531534 2.55894
70.0660336544799 2.8523
71.0500609600834 2.49531
72.0450830852637 100.0
77.0393256514042 2.51202
79.0545931305713 16.2976
80.049898546082 6.25812
81.0701397883292 19.0776
82.0655317882305 6.03119
83.0130663074951 5.54135
83.0484422858151 2.85823
83.0857370485994 4.14588
84.0808903172356 2.76084
85.1014735517101 29.3219
86.0599376068357 4.0545
88.0392693803302 2.58264
90.05510110894 6.08033
91.0543633317967 11.4115
93.069885822246 21.0347
94.065427332029 10.1462
95.0854787409029 17.1657
96.0808132724722 3.83441
97.0651540095158 5.76786
97.09988262437 3.4293
98.05948625087 3.84947
100.039471457627 6.99628
104.034248168225 35.3589
105.06977374067 9.98394
106.064822883432 3.48865
107.083747573524 6.76937
108.080133756475 5.02167
109.099813529137 5.83451
110.059519511127 3.2298
113.095922642901 13.8904
117.068989710934 4.48347
119.085390600929 6.94623
120.080786478304 2.92002
121.100301515521 15.45
129.069338885436 2.94735
131.084981562453 4.4651
133.100141866807 6.03067
135.114165030332 3.13876
145.100503957065 3.32625
147.115536191099 3.46763
157.09983860309 2.92256
290.24689703527 4.06364
292.262507800988 2.97447
302.247683814636 3.66859
304.26298816282 3.2076
320.257410873385 2.86904

