>compound Fumonisin B1
>formula C34H59NO15
>parentmass 722.398690196827
>charge 1

>ms1peaks
722.398690196827 100.0
722.627530441209 5.55777
722.729082837976 2.49031
722.891212195859 1.09374
722.96275269677 1.1723
723.03670825449 0.900485
723.151789700988 0.926467
723.21220597355 0.840106
723.391191433522 1.14219

>collision 10.0
704.384523600625 0.705653
722.399049786342 100.0
722.627512808022 5.80164
722.728967005884 2.62781
722.888282912433 1.12035
722.964763510284 1.17674
723.03956372916 0.966045
723.166077385847 0.914722
723.21512256665 0.91845
723.283999849942 0.87276

>collision 20.0
334.310775497148 0.800248
352.320800244055 1.17799
370.330251587331 0.633047
528.352372693794 0.650826
546.362335855515 1.04641
686.37375568492 0.954279
704.384566134755 4.72888
722.39855427423 100.0
722.627592838056 5.39564
722.728351921647 2.41181
722.888960521559 1.08672
722.963961977597 1.07535
723.042339422717 0.897796
723.218879904475 0.870624
723.282219345643 0.825708

>collision 40.0
43.0550418330012 1.4627
44.0504238909111 6.10298
55.0549603316755 2.58257
57.0342748610158 3.26437
57.0705028706953 7.49407
58.065484258007 1.33648
67.0547611585173 2.51447
69.0703867039508 6.66526
70.0656356092237 8.52682
72.0809913894193 2.57999
74.0605476479322 25.6935
79.0545136349061 1.61239
81.0701404361625 11.7143
83.0858357616626 3.87489
85.0654961781248 1.79159
85.1013766111557 6.51277
93.0701486678954 5.09352
95.0855902581607 12.3388
96.0810729927 1.70261
97.1012067309537 3.57481
100.076011288128 3.41641
105.069988008919 3.80015
107.085443830891 6.67856
109.10105560222 9.28174
111.079987342278 1.36746
111.116014999495 2.29056
113.023465185836 1.31121
119.085233221156 3.09098
121.100829092018 6.32423
123.116464615015 6.07444
127.110856541228 3.26385
133.100874265593 5.92777
135.116500878524 8.59912
137.130876549184 2.94941
141.017708058042 6.84661
145.100733001468 3.08776
147.11640530328 6.70888
149.131619788583 5.74969
151.146712654007 5.61692
159.028413419794 6.57016
159.115889264608 2.34661
161.131990254432 5.25005
163.147378007485 3.93024
165.162581447907 2.8206
168.137712235563 4.43559
173.13221331719 1.41351
175.147337742528 4.79347
177.163054405708 2.45394
186.148215873242 11.9082
187.147730952266 1.52698
189.162939706151 2.80875
191.178998145351 1.80195
192.173532219995 1.67225
201.16321839398 4.96156
203.178659237094 1.65336
204.16002702396 1.99464
205.194375542696 1.57711
210.184347726212 2.92651
215.178440240638 1.40964
236.200643910399 4.44559
245.226116339449 2.06309
254.21134178251 5.28352
259.241015468036 1.50444
272.221067558551 1.64327
279.267721746661 1.37103
299.271952037475 3.57715
316.299019998326 21.5723
317.28341164383 3.34571
334.310427610284 96.0005
334.474113994341 2.0933
335.2963345456 2.80062
352.321078031256 100.0
352.488821766254 2.26182
370.331333691134 22.547
388.3412699801 1.93826
492.330908528188 5.15972
510.342188956914 19.5809
528.352798810937 25.2897
546.363718799059 9.42813
668.362984881902 8.72315
686.373846111348 30.1796
704.3850599639 49.5804
722.395099151766 33.9861

