>compound 2-Methoxyestradiol
>formula C19H26O3
>parentmass 303.193727554943
>charge 1

>ms1peaks
103.007386861411 1.85667
135.113566190245 0.556843
137.058411032212 1.52119
146.994707939709 4.70005
225.009764602216 100.0
225.144331048795 1.50406
225.21080888576 0.662405
225.278833080762 0.51132
225.335876736966 0.621078
225.489820873798 0.793872
225.557446454511 0.691674
225.623215548619 0.550678
225.804574107738 0.546996
225.916657540775 0.528708
285.17945805654 0.606666
302.184781080186 3.0709
302.244307096016 1.97902
303.023865311676 56.8757
303.194245819201 46.1351
303.402752873394 0.873354
303.526703125308 0.556197
303.627781138928 0.807261
303.770630914429 0.55515
303.833978177856 0.500869
303.9457213639 0.527289
304.120262495136 0.630309

>collision 10.0
103.004907872689 2.68634
135.115452056515 9.61611
137.058125647748 11.657
146.996382432082 24.1735
147.107957830328 0.569009
151.076914870838 0.674602
161.128437101964 0.634192
163.075730136147 0.568463
179.14087557078 1.02735
189.090332900734 3.99795
203.104532905203 1.57043
215.106679839686 0.7023
225.009689803139 100.0
225.197966874575 0.983857
225.242512602321 0.760628
225.337477418275 0.542489
225.389090330525 0.547587
225.537025410474 0.733679
285.183548984747 7.02166
302.183564069281 4.92976
302.246574544507 1.36166
303.014894495138 1.05556
303.193727554943 32.7262
303.34815460304 0.564105

>collision 20.0
66.0487031956748 0.662914
67.0525367649274 0.8292
79.0552345368877 0.839289
81.071546513052 2.04999
91.0530776611604 0.69019
94.0374137105706 1.20137
95.0843661311813 2.47377
103.0053658046 11.7182
105.064895248556 0.966384
107.086827682299 2.61622
109.064701861542 1.10189
109.098400138802 1.1463
119.082850533304 0.766629
121.099243394974 2.09041
122.033817819312 0.514713
131.045749427166 1.50731
133.102266974449 0.599084
134.936544199616 0.522331
135.116922294335 16.8102
135.681388664407 0.584927
135.945273200701 0.701773
137.059597628079 84.5986
137.165735701179 1.27872
137.20520820464 0.554024
137.261524819194 0.56648
137.499972396202 0.632129
137.713337977835 0.566511
146.995639356422 100.0
147.10776169226 1.61081
147.137529672318 1.15804
147.183948057618 0.601905
147.258870443012 0.707468
147.442859540215 0.797049
147.489059288908 0.542181
151.072544801442 1.71155
157.060047949028 1.73958
161.130212978591 1.77658
163.07273246674 2.98901
164.075888463529 0.963578
175.071674330871 1.77656
177.090141553223 1.42436
179.145396353605 1.41051
181.019030346063 0.575076
182.972559968146 1.56073
183.076122928938 0.890344
188.072836619768 0.854803
189.0881792504 11.8113
191.104286556709 0.661662
193.563906080282 0.650993
197.099475842214 0.787409
200.07438972081 0.595728
202.099950505269 0.865748
203.105794484541 2.59685
207.11511116386 0.602556
209.896413613954 0.742832
215.105530110641 0.994169
217.123053171441 0.680075
225.009090337144 18.6208
225.107316497244 0.662914
225.168387424465 0.548758
253.162766249871 0.599084
271.162568627079 0.509272
285.184874401571 3.57998
302.186411666352 1.6717
303.194182465911 4.19258

>collision 40.0
41.0380327084508 1.66895
55.0550639287494 0.737823
62.9263730638722 0.50859
65.0383147646364 2.45903
66.0482191207951 0.899676
67.055086553476 7.58527
68.9814476880324 1.00709
72.9406681926197 0.644333
74.9333641604775 0.531397
77.0407144482229 4.31934
79.0546382331004 4.934
81.0310327284926 0.983054
81.0706017675572 7.09577
87.9840145386396 1.49971
91.0547672304564 5.83818
93.069482361653 4.60957
94.0405935534066 12.8502
95.0854164925215 4.75315
97.0659377630117 0.727617
100.99182377196 1.54709
101.995435137117 1.16015
103.006666455207 60.7849
103.05202372354 9.12338
103.100480310688 1.22848
103.121199768286 0.702101
103.434228432607 0.715793
103.513858774492 0.509635
104.005781152047 0.659423
105.064062168224 1.59365
107.047267057406 3.5944
107.083172028239 6.62578
109.064497445335 7.47614
109.099279397859 3.88072
109.769684012005 0.566696
117.068478376896 0.581945
118.068906681428 0.779425
118.999302154081 1.52876
119.067427823772 1.63522
122.036700729422 17.8136
122.317057877235 0.573033
128.059609699779 0.61338
129.067229547784 5.67652
131.047839569788 1.71867
131.973986150403 0.551753
133.10196256392 1.29462
135.11480697446 2.5579
137.058762755802 100.0
137.165077285 1.3094
137.196351066187 0.872934
137.226197498713 0.611984
137.320914419668 0.57169
137.357386315402 0.546567
137.568296520113 0.681267
137.659717965064 0.519646
138.062291337306 0.91295
146.996867689065 8.82864
147.072640784753 1.06007
149.054537378819 0.780374
155.087122545544 0.856193
156.086882009511 0.540377
157.064831913166 1.0694
160.047930936966 1.00635
163.078612004955 0.764235
165.0725705893 0.720647
171.065472017099 0.613629
182.971799458619 0.667059
188.073240335154 0.895113
189.089595487355 2.4431
196.08766431436 1.18606
199.145363027212 0.842574
215.102313680441 0.543659

