>compound Ergothioneine
>formula C9H15N3O2S
>parentmass 230.095352799121
>charge 1

>ms1peaks
127.033168677042 1.36262
186.105864149867 4.17008
188.978279928226 0.633657
230.095546054136 100.0

>collision 10.0
60.0818470774446 28.421
68.0500223575666 0.731282
69.0569947163383 0.801186
100.022112239525 0.759444
127.0322440032 50.0307
143.027632691078 0.796999
147.950741585627 0.948548
171.021136549893 1.73715
186.105373251853 100.0
230.095352799121 77.6956

>collision 20.0
42.0339627456726 0.928658
60.0814882204826 23.8566
67.042673439513 1.033
68.0501091448294 4.08992
69.0577979888914 6.20521
83.0607216260863 0.565172
86.0066041909386 2.51755
93.0447751573937 0.615849
94.0522484977803 0.835758
100.021463476847 4.9752
103.961846730983 0.544868
127.032054025202 100.0
143.026962604905 1.58896
153.012160445341 0.504588
171.021368682336 0.849294
186.105586299254 9.12827
197.059225025148 0.635727
230.097414637417 0.837116

>collision 40.0
30.032894960348 0.539068
41.0395329322629 33.0777
42.0340528459681 10.6871
43.0421189961704 10.41
44.0513111303561 2.35314
44.9781989977127 1.26841
45.0581191076043 2.11262
49.4964440491172 0.516225
54.0339846966276 4.60735
56.0497406066771 15.8133
56.9423121598515 0.829266
58.0653202199702 5.33415
58.9964632326925 9.56728
59.0739124867777 0.531957
59.9918946630722 10.0888
60.081980884346 52.2751
60.1250584376903 0.79189
60.9364113275735 0.697207
62.934572377419 0.86595
66.0344030426489 3.77333
67.0427198929628 51.7697
68.0506951020524 68.6858
69.0577737516795 100.0
69.3155149849846 1.17327
70.9951220249285 0.574773
71.9935126287175 1.19286
73.0131647204201 1.07976
74.0052655776458 2.67786
80.049920742857 0.560268
82.051502105358 2.29229
82.9939005725816 0.672136
83.0605475236854 7.65251
83.9894743903725 2.08223
84.043826447531 1.98666
84.9596069904108 0.683373
84.9884838460976 0.508453
86.0057522068007 5.82445
86.0945735829936 1.03525
88.0202325844883 1.05838
88.9384417034668 0.509783
93.0442412749698 12.0154
94.023932616933 0.607985
94.0526539748036 22.4494
94.0965058144835 0.597699
95.0613480532115 6.66241
98.0066681741405 3.26286
99.0084533191794 1.50644
100.021591214739 30.7584
101.01730149672 1.70491
107.990014639031 0.565346
113.016263048572 3.10266
114.022004766936 4.11576
115.03295066616 6.67384
115.218480125183 0.74794
124.087549206182 1.19579
125.014951649379 0.505026
126.02406279335 1.7357
127.031993504023 49.2123
129.011680446391 1.20977
136.087607702122 1.48488
143.027520387742 6.5062
154.047346138236 1.25133

