>compound Dacarbazine
>formula C6H10N6O
>parentmass 183.098892337787
>charge 1

>ms1peaks
46.0660977386697 9.66151
123.042365338824 1.46332
138.04121408315 2.49118
166.072230658298 11.3095
183.098892337787 100.0
183.21985789217 2.20964
183.259569355955 0.989167
183.501278147814 0.552192

>collision 10.0
42.0342980599417 1.33388
44.0501411249177 1.07186
46.0655574928614 17.2808
55.0290005998021 1.40204
56.0497553829346 1.2175
65.013352286623 0.76452
67.0294105872204 0.872729
68.0372487428916 1.06102
69.0445148921926 5.5513
81.0441243787868 3.50459
83.0600119409813 2.57022
93.0073822639672 0.554567
93.0431539224398 0.532541
95.0232227769713 7.35729
95.0559530300266 2.62143
105.4810471613 0.663914
109.038527064031 0.932988
121.01279089247 0.980933
123.041276034038 38.813
123.141400027733 0.625989
138.039471619923 19.1329
166.070422324821 100.0
166.187616513128 2.09317
166.223152210862 0.857652
183.096777049434 3.35557

>collision 20.0
42.0345161644513 2.85599
44.0505620253237 2.3778
46.0660135769771 6.38736
53.0152040364229 1.00625
54.0345470753786 0.971857
55.0297082158764 6.52146
56.050576454112 3.32793
65.0141089932908 11.5022
67.029775796989 4.84309
68.0370468268734 12.228
69.0452763186909 5.35844
80.0376108407603 2.05387
81.0449112342855 6.16745
82.0405011262391 0.866144
83.0604007656748 6.38451
93.0088069415318 6.10515
94.0396942483395 0.844459
95.0243396929804 15.6289
95.058002169759 8.60876
96.031790944482 1.80068
97.9713031808447 0.694658
109.039153508582 1.26191
121.014523570338 7.32534
123.042596375729 100.0
123.143703367843 1.84066
123.176589456182 0.890827
138.041928154016 2.85696
166.071901458662 6.06326

>collision 40.0
28.0183433045032 0.616714
38.0037100676272 3.08527
40.0190291628622 10.5019
41.0271510479728 2.6179
42.0344260910368 4.09881
43.0308050519353 0.509341
44.0503814057636 4.89462
46.0658691020882 5.81219
52.0191853282076 1.97951
53.014426005294 26.4728
54.034755274067 1.86178
55.0298849770778 10.6932
56.0503023620999 3.26582
62.9910488885835 0.524781
65.0141494567645 100.0
65.087667553978 1.9435
65.1097997872265 0.90682
65.9977120492453 2.14953
66.0222923964946 0.651143
67.0294109445367 15.5629
68.0373277166547 61.409
68.1129432593992 1.27519
68.1352079662614 0.645239
69.0271890748892 1.98928
72.0458657074597 0.676675
79.0293810316462 3.60375
80.0373293189585 9.94013
81.0465464021692 1.22031
83.0600993448959 2.22372
93.0083858608248 2.11348
94.0394183635874 1.84801
95.0245096315018 6.81892
95.0556562993869 1.71709
96.0325732757682 1.31751
122.034770102732 0.559366

