>compound Cyclophosphamide
>formula C7H15Cl2N2O2P
>parentmass 261.030586831633
>charge 1

>ms1peaks
106.041433080563 1.05805
156.041286859613 3.4004
182.055265709107 0.678106
221.017398288409 2.08304
221.523783271961 0.566948
222.012529879642 0.508012
260.027327054666 1.35536
260.524858601875 0.565062
261.063051852846 100.0
261.221915231389 1.89123
261.270750106847 1.16481
261.329596825743 0.872667
261.487302783166 0.75145
261.644020394475 0.854347
261.735406239294 0.730014
261.85258129853 0.736417
261.942748238913 0.659353
262.016715673194 0.52084

>collision 10.0
58.0651273811323 4.95604
63.0006235351406 0.612548
84.079585830499 4.98125
106.041254503655 15.4326
120.018717758115 1.11491
138.962260105107 0.53884
140.00182720903 4.73373
142.018802057711 1.97691
156.041334559332 38.6713
163.097081562881 2.32972
181.106643304294 1.57793
182.057220063359 12.1324
204.019929488929 0.908026
216.978237211157 1.42135
218.970364567239 0.526869
225.056742439253 0.962054
227.052591342405 1.02866
233.000410312158 5.55593
261.04778523603 100.0
261.218936617767 1.93911
261.264064314719 1.11015
261.300043123536 0.826609
261.351737887421 1.03855
261.406551007526 0.740736
261.452613316088 0.720162
261.499818933405 0.827122
261.560694545745 0.747098
261.638193027899 0.828942
261.700553578454 0.702263
261.761012216309 0.625344
261.817412960624 0.807795
261.896492405838 0.617195
261.98881949744 0.503714

>collision 20.0
30.0317301897682 0.503513
41.0381084269204 2.11538
44.0480386342173 1.33832
56.0489149153857 11.0475
58.0645778747738 44.0675
58.1180229972258 0.920814
62.9988121439356 4.43698
70.0632075046036 4.43451
76.0739887505697 0.818889
78.0073628884963 2.32497
84.0795305767025 58.936
84.1610251280596 0.830998
91.9890757341911 0.808446
94.0036033390353 1.21907
102.091002640723 1.90471
106.039967793822 100.0
106.134646153928 1.64756
106.16061422539 0.987334
106.184576974963 0.677891
106.225849946403 0.613237
106.480185101282 0.548295
106.571198585637 0.579994
108.037763957532 1.36391
120.01840400499 22.3612
135.06281003448 1.09965
136.965887502894 1.4264
138.96158487613 3.48829
139.013099712338 2.38888
140.000288602234 59.5292
140.105263562135 0.838665
140.960546129837 1.27852
142.015742446095 17.9366
155.992865844688 1.42392
156.039382907454 47.9361
156.151961624146 0.6942
163.097393363989 5.57726
171.001890824012 0.818648
181.107468615539 4.74927
182.055132656316 26.0051
185.017898866688 0.682256
199.037849062578 1.04561
204.013756344556 0.618437
214.975558446306 0.656797
216.975654527562 1.16681
218.973726378963 0.880167
225.054810457141 0.995734
232.998968843465 21.085
233.093528525701 0.603233
261.030586831633 48.1348
261.121279104461 5.40276
261.178486418316 1.72547
261.270942146313 0.562552
261.467883532257 0.542604
261.637293299248 0.575586

>collision 40.0
27.0227357287492 0.641713
29.0370146310004 2.02291
30.0327293740801 4.36155
41.0381662212553 15.3169
41.07034136026 0.542829
42.0334596890066 6.66045
44.0495345816917 13.6115
46.9694923884775 0.582274
56.0492228396101 72.9868
56.1182799384286 1.16307
56.1398835196252 0.824251
56.23430223561 0.505953
57.0564533962865 3.37669
57.1064663323725 0.539878
58.0650415353882 77.3056
58.1576021910653 0.666159
58.2188864966545 0.535774
58.3552857446012 0.557156
58.571963783233 0.533098
58.9517625376013 0.887909
62.9994975831183 100.0
63.0712564913477 1.51809
63.0935496866026 0.940666
64.3599632765766 0.553028
64.9801642797602 1.42705
66.9922071191226 1.06079
68.0509355654911 0.535177
69.0583668330407 2.50965
70.0655024836032 22.686
73.979240629502 0.502264
78.010329985516 17.7153
79.0193894605333 0.928613
79.9905849690039 1.0553
84.0801890974401 50.1346
84.164190195786 0.899642
89.94095459395 0.800321
91.9902538413303 9.13819
92.0567124943987 0.67973
94.002088247477 4.35754
98.9829231984374 3.18459
102.011069768113 4.56259
102.091822087017 1.63522
104.026068954692 2.48067
105.064919085333 1.64359
106.040957465026 73.0025
106.133510909584 0.98309
106.231987250016 0.566548
106.437258574612 0.551682
108.038332716419 1.88917
111.972423044934 0.595578
114.001328765597 0.820658
120.021966296105 5.85128
121.942192513535 3.02104
123.950930348321 2.27593
136.016289238959 0.73823
136.967726543493 3.57594
138.963474040224 3.17698
139.011904157058 1.77874
140.001686178283 29.9151
140.106509441428 0.603751
140.9616166037 0.710973
142.015099806918 8.90358
154.023053709249 0.513232

