>compound Chloramphenicol
>formula C11H12Cl2N2O5
>parentmass 323.017772030466
>charge 1

>ms1peaks
84.078164141209 2.1962
160.576839637337 0.618694
164.966521515064 0.856377
165.06175907637 1.2955
207.074241960856 1.60186
241.000620867654 1.28352
243.986280538889 1.27952
244.126225887027 2.2216
244.978754532853 1.84734
245.108833571572 0.592784
274.996261910854 20.4389
282.121084327057 1.05401
283.091801211241 0.743619
283.59801689882 0.527623
284.088318343363 0.925934
286.995405534905 1.22412
290.148267336382 9.43434
291.156935636469 0.924269
305.006596688602 56.163
305.102870565993 2.10684
305.176017409749 1.06195
306.116956413524 0.593731
306.180124499512 0.718
307.004893010315 0.590169
320.170403724726 0.670947
322.172434690606 32.3909
322.33247511444 0.78371
322.467943743159 0.553818
322.603703525237 1.00326
322.785240246281 0.568001
322.865700602114 0.518204
323.017772030466 100.0
323.171476704005 5.78854
323.314398231265 0.748446
323.389607718924 0.74466
323.496432096895 0.639844
323.699800054952 1.00877
323.873713030714 0.762007
323.942820008877 0.530941

>collision 10.0
84.0815637930786 7.47826
85.0852625367561 0.524357
86.0979835792352 3.18423
102.094548893915 0.996453
146.0547942951 0.546081
162.972693895855 0.938216
164.969547178536 0.730719
165.065480721348 6.77578
165.972227127458 0.551823
166.968802587569 2.04471
175.053878633118 0.603564
178.067422808672 0.708984
179.084027668815 0.602356
190.04922449384 0.929276
201.096354609087 0.626112
205.060210029256 1.4753
207.075505302042 4.61122
219.074002775274 0.715311
220.063405819258 0.597816
229.008387141507 0.925931
237.093075166223 0.751006
239.108391541754 1.15077
241.006105169942 10.6914
241.993457033585 0.508884
242.985470133225 0.827772
243.98585952298 1.32828
244.029103370088 0.55784
244.132372302699 2.42823
244.981329312378 3.93295
245.048319722427 0.612731
245.081335243319 0.567618
245.128457879273 0.849007
257.997637744573 2.07959
262.147495567522 0.643852
270.002311347735 0.736439
273.125101688979 1.54833
274.999030761173 100.0
275.14722827874 1.79417
275.196927635012 0.719797
275.293840041215 0.643237
275.348048068233 0.721974
275.470092258127 0.855189
275.635826357396 0.68405
275.773210885676 0.666801
276.137318742745 0.516386
276.98450237802 0.524987
281.132416327544 0.69168
282.12307185382 1.53337
287.001835880037 3.4183
290.149067144874 6.39629
291.160120497721 1.78933
304.158680619066 0.91442
305.010292513633 47.0665
305.143892015078 3.15838
305.340232163495 0.511216
322.177733054753 14.1147
323.018212754599 3.10687
323.174273722594 2.08111
323.419203355622 0.500431

>collision 20.0
55.0526417111775 0.86359
69.0695491730113 1.79256
74.9263345262048 0.518333
79.0218598283148 2.49842
82.9448170883342 3.71577
84.081028283213 8.03978
84.9610441674338 0.759279
85.0782432509067 0.777645
86.097257892552 9.29005
88.9541237085632 2.54423
104.059107741912 0.560732
118.059805015544 1.1902
119.073243616003 3.04255
121.062931975578 0.679757
124.037387392603 0.550329
127.964559829596 2.14094
132.059899117044 2.10773
136.045009569022 0.84256
146.057624132614 1.26504
148.065644329248 2.56106
149.052521663026 0.933323
150.025857070938 1.4402
152.944435030558 1.23906
160.063482803859 0.531921
162.058467234116 1.17353
162.973049455322 2.42437
163.05593638079 0.800934
163.981094243014 1.69616
164.053861065368 1.55295
164.970752762448 3.51017
165.066095158193 55.0265
165.154908439658 1.24922
165.183071211262 1.09263
165.311974647411 0.547062
165.490172737277 0.671828
165.858497800848 0.638238
165.974191235564 0.679668
166.058486452525 0.817021
166.965962296337 6.81784
167.035829950151 0.535523
170.05916289945 2.21546
173.011924916521 0.545896
175.0469024298 1.1619
177.065980002085 1.58558
178.05772752031 0.576768
179.069478658917 1.15445
184.01696862227 0.649733
186.003709099007 0.671314
187.053359553113 0.524771
190.050772032129 1.97786
191.054182669493 0.51985
192.069209070112 0.60571
195.55146181109 0.620978
201.098016832675 0.575342
203.050347054018 1.13566
205.064885821393 1.76154
206.036445461483 3.77354
207.075271921117 1.28799
209.991446149673 0.615787
212.043771855558 0.647976
218.108905319168 1.10506
219.077657390953 0.667216
220.059727643909 1.98526
228.000582407095 0.602816
229.008833643684 9.7245
230.126570876994 0.551179
237.084437363976 1.29656
239.999982544214 1.18991
240.113533193027 0.545786
241.007285051895 12.5813
241.426056979092 0.849648
244.131149763732 0.695456
245.133175582625 1.23882
257.997242305106 16.856
258.124828791651 1.00105
269.995489573538 2.13119
273.119841336382 1.75072
274.999377428853 100.0
275.226997114209 0.775023
275.281730045611 0.745522
275.520906642805 0.861568
275.699306810176 0.774582
275.846065682768 0.503233
276.105074357197 0.541507
280.162980814622 0.564276
282.120555242257 0.854222
286.995637711245 1.02222
287.128724842843 0.562593
290.159611175086 0.815981
291.157500136935 0.650388
303.131593540428 0.508162
305.015625491801 0.606803
305.154882946182 3.14751
322.184529380638 1.45349
323.188393116411 1.90919

>collision 40.0
41.0392178504431 1.57023
42.0351595507483 1.63351
43.0165152261559 0.592368
58.9907279900479 0.923798
63.9947785086526 2.29795
64.5530273058287 0.616662
65.0406277771439 1.8916
67.0454941131273 1.84054
69.0333082761081 0.580242
69.0712891770396 3.88673
74.0134593811893 0.747684
74.9314208932166 2.01955
79.0154623354882 0.95362
80.049408217721 1.1571
82.9437876198223 57.9528
83.006949907945 1.19334
83.0467077793129 0.826288
84.0813269947913 15.3981
84.235205344159 0.580296
84.9589588526494 12.2599
85.0312935600611 1.17932
86.0954687496475 11.0348
86.9648007694701 2.17705
87.0943897335097 1.24269
87.957070186796 1.72101
88.952621734286 17.211
90.0474465620359 2.07196
91.0526399989839 8.48112
92.0551402656875 3.35776
93.0543629588695 1.16242
94.9161020417427 0.89534
96.0396210118273 1.7401
97.9924153088037 0.927724
101.991851785544 0.606911
102.044093427564 1.27142
102.127770918137 0.771476
103.053053558264 7.52465
104.056551067189 6.2387
105.052558364842 1.77801
107.069862881639 1.22648
108.054597708164 0.666065
109.951619589339 1.15945
113.104929140088 2.3235
114.151803820009 0.774464
115.054049930707 10.8249
116.051984603292 1.32008
116.966602498113 0.999964
117.056036760483 10.4035
118.062942029778 31.0107
118.304982412794 0.71724
119.071960562967 79.7568
119.173176764238 0.81177
119.204247573713 0.762132
119.254223459935 1.02246
119.30520045663 0.608129
120.009589142854 0.785924
120.056739736313 4.57631
120.962535441792 2.37884
121.029587940605 1.57759
125.009959031565 1.60695
127.051301751054 2.96495
128.049342922209 6.62076
129.051213177621 1.05484
130.064508316378 15.8485
130.976018679023 0.578876
131.053729518638 9.09506
132.054511270764 5.50218
132.841882084073 0.638602
133.038296915631 3.01231
133.070258876165 1.31307
134.061406042969 3.9626
136.035424530172 1.40558
137.011530007978 2.73153
137.911854390143 1.35841
138.020397401174 5.45085
138.123780567072 1.27142
138.744492990194 0.62821
142.063039628638 2.77474
144.037619756627 0.712132
144.066820337549 0.905025
145.05140207642 14.5197
146.056865709873 2.22904
146.093729659889 0.760037
147.053870528302 1.77653
147.089033836187 0.773778
147.989256440778 1.51026
148.05606588638 5.91406
149.026367728799 6.09402
150.029099922995 3.72975
152.037059272041 0.736934
154.017670128972 2.80986
157.047885395445 1.27142
158.05647803108 0.913951
158.977178659508 0.746349
162.046104189961 2.81694
162.079223348952 0.621264
163.048924219264 3.59286
164.024313480596 25.668
165.063820043126 100.0
165.181429872065 1.4778
165.256983818497 0.693504
165.358479634226 0.57804
165.448066707806 0.968618
165.570846846994 1.26667
165.654322925861 0.737209
165.988057632959 0.796446
166.041667618171 1.02928
166.959013715879 0.960648
167.004506607308 0.728967
167.054083289359 0.621326
169.068168433421 0.644742
170.058271374984 4.74359
171.016263141333 1.09662
173.031633118547 2.3982
174.002876814284 0.804451
175.046340871916 1.41822
177.064521130352 1.67814
179.01585811891 1.55508
182.977667631115 0.951963
184.050555740787 0.89397
185.007166502813 0.625112
189.064603181232 0.764164
190.046246391068 1.99399
192.059004431316 3.28209
194.030126957819 0.63167
199.086130180349 0.831071
201.095769597453 0.723856
202.078805646543 1.05574
203.036504175277 0.799203
206.033481125805 2.25028
216.042244054438 0.645714
219.074848724754 1.19889
220.052727175382 1.7782
227.999046514901 6.70696
229.002807795065 3.49822
229.996071849192 1.00048
238.103913238529 1.42111
239.997417837395 2.29938
253.139014228404 1.26859
255.104178202948 0.637776
257.994141965091 14.6925
279.161775737704 0.582564
284.832640211713 0.861078
286.086335305351 0.88513

