>compound 3-Methylindole
>formula C9H9N
>parentmass 132.079940287916
>charge 1

>ms1peaks
86.0608223289514 0.807773
86.0952012864292 0.564917
90.5148907338192 1.26912
90.9770126766749 42.1539
111.020565410111 1.23763
112.015638078573 0.643425
115.962395234035 0.586136
117.05566603069 2.44589
130.064179378729 9.73967
131.072690831046 100.0
131.161301210678 3.66834
132.003535356605 0.657367
132.079117434473 81.0943
132.515266011244 0.731872

>collision 10.0
42.039928318123 0.501468
46.0662480877524 0.571699
51.024804613944 0.622385
68.0498861519572 1.66811
69.9939173103602 1.20825
77.0399097423932 1.62269
79.0532637235358 0.742702
86.060521434489 7.00511
86.096478616758 2.32194
88.0156852248533 0.515315
89.0377703332981 0.725156
89.1150175308383 0.978987
90.0447820334636 1.05491
90.5098657066467 0.682167
90.9763251550207 7.87993
91.0072756038406 0.672114
91.0669100711502 0.579913
103.054680498554 1.46324
105.069260168237 2.24933
117.057372303595 18.8357
130.064789093947 100.0
130.168088737157 0.550207
130.382354824641 0.578482
131.072037556584 88.2231
131.163403594887 2.19962
131.421783655621 0.782826
132.079940287916 99.5241
132.187334146459 0.53487

>collision 20.0
41.0381332231383 1.09509
43.0557803615841 0.906645
44.0501714455185 2.67544
46.0648668146732 0.800914
51.0222902839249 0.826147
58.0663272739514 0.745529
68.0508427152903 3.09698
77.0385559170868 3.72387
78.0423109064102 0.712723
79.0545090016491 1.47872
86.058715727211 3.39202
89.0396782205972 1.03575
90.0452943170403 2.88495
91.0542037696546 1.27381
103.054186775623 3.85065
105.070356588308 2.92552
117.057082394607 42.9374
128.049140664133 0.927283
130.064789461127 100.0
131.06915324911 17.8702
132.080331813248 16.5565

>collision 40.0
39.0224278445165 0.811104
41.0392448174983 3.81455
44.0512647428639 1.00565
51.0230490922045 15.3902
52.0288747261753 0.662925
58.0638522677236 0.880848
63.0226908958841 1.65269
64.0321465049103 2.90989
65.0396199567398 3.19995
68.052368157888 1.51109
75.0217864328252 2.21041
77.0392168028052 100.0
78.0423321562421 13.1153
79.0549775386824 1.43212
89.039349586595 32.6279
90.0462416577313 28.938
91.0535472008603 2.09752
101.040606725861 2.01031
102.046240836629 4.22036
103.053848276825 30.1724
104.056773489698 3.06713
105.067675138645 0.857554
115.053022171356 0.502918
116.048035809375 1.23688
117.057011888554 20.2298
128.050652519975 3.09567
129.051799788149 0.888691
130.065464178938 30.1374
131.070579265001 5.95975

