>compound 5-Hydroxymethyluracil
>formula C5H6N2O3
>parentmass 143.043727533384
>charge 1

>ms1peaks
46.4861362176873 1.3733
54.0356045047116 8.1508
64.0568915413198 17.7979
65.0602032176069 1.77287
79.025305769309 3.04858
82.0283586461336 12.2656
101.05671973689 2.09865
102.006131928287 2.1184
125.034572265845 100.0
142.082127316748 11.8584
142.122271555509 3.94584
143.043727533384 33.0565
143.080821025866 5.15444

>collision 10.0
47.0299893977711 5.12959
54.0324522097332 14.3229
55.0158911290729 4.01406
64.055908350312 17.2033
69.9908308022808 2.36452
79.0225992059618 6.60233
82.0289459781552 77.1268
98.0587158557138 3.32822
125.033865004428 100.0
142.083589836427 5.95586
142.120161512562 8.25849
143.087348510832 4.5036

>collision 20.0
46.9976054709097 5.48395
47.0277815848839 10.2459
54.0337196987317 39.3065
55.0171814774396 34.4306
58.0645464826063 6.16611
64.055146378105 29.9059
69.9943753324913 17.2465
79.0225721677618 11.72
82.029732863666 100.0
98.062482758006 8.54506

>collision 40.0
29.6710304792359 53.52
45.0349974536527 21.1711
54.0331159338234 60.6683
55.0187684260777 100.0
69.992524012938 75.5593
71.0469711596583 43.9832
82.0270393886145 38.8167

