>compound Papaverine
>formula C20H21NO4
>parentmass 340.155697084885
>charge 1

>ms1peaks
340.155585649549 100.0
340.380985865102 8.17118

>collision 10.0
202.086567700845 1.46384
324.123418281871 0.712649
340.155697084885 100.0
340.38107671385 7.59117

>collision 20.0
171.066432613318 1.08328
202.085047210372 14.9369
203.092649494606 0.616363
296.126097374459 1.15247
324.121488818982 7.06219
325.128959309276 2.53357
340.153413249971 100.0
340.379411822028 6.08067

>collision 40.0
77.0388537348411 0.893278
91.0539188076468 0.737899
95.049324634768 2.76614
103.054006454662 1.05749
107.048827649263 0.545712
115.053639180995 1.9243
116.051091284746 0.941341
117.068677278661 0.546736
123.043595247709 5.96607
127.044725074833 0.552194
128.049218808338 2.7412
129.058841247401 0.515939
130.06479951509 1.00587
131.055718853151 1.16495
133.060752545336 0.597467
140.048671658838 1.09169
141.057043766871 0.891549
142.064699615407 2.5879
144.054780037436 0.925917
145.063719145648 0.951721
146.061402762294 0.640856
147.079793237726 0.593622
148.052006121991 1.76904
151.074286601436 0.816483
156.043930047564 4.51003
157.062350926365 0.888268
158.059660890956 7.14569
159.067022233808 2.84824
160.070007116891 1.06817
161.06013517856 0.902795
170.05888084692 2.49044
171.067361364399 45.9251
171.231718289542 0.887257
172.074494324805 4.30686
174.068892931035 1.16365
175.074349118857 2.68967
186.054149567184 6.48096
187.062228466026 7.70885
188.07005871673 1.88706
189.077852218484 1.57772
190.085501665756 0.560588
202.085883001661 59.7325
202.266365738373 0.965035
203.093824046059 2.65079
224.096007124608 0.515487
235.098457074871 1.02231
236.103294359262 0.527988
238.087668413177 0.530099
240.101575403268 1.48846
241.109583040315 0.673449
249.111060167827 0.936912
250.087358419851 0.842849
251.092967462147 0.735527
252.101049121923 2.8938
263.093259102442 1.01011
264.101012793602 2.04138
266.116173672544 2.41829
278.110770546678 1.14257
279.094328754718 1.37035
280.096500541791 8.99842
281.103879927458 1.56944
282.111874745361 2.40608
292.096151246019 0.97941
294.112333961043 3.85592
295.119168605788 2.66748
296.127068197303 12.8968
308.092459235059 10.5177
309.098552265578 3.8242
310.106888644071 1.6348
322.106748445743 1.27871
324.122646027657 100.0
324.350269252905 1.78914
325.129634597526 1.93314
340.153379570093 4.24749

