>compound N-Acetyl-D-phenylalanine
>formula C11H13NO3
>parentmass 208.096769233423
>charge 1

>ms1peaks
25.0092753271543 1.82886
58.0676720526366 2.10562
77.0370133642887 1.95881
120.080755314973 4.276
130.08377283657 1.50683
148.080192980204 1.50592
162.091528449375 16.203
166.084985775544 16.8303
190.086532288773 2.03397
207.06794751504 2.11933
207.13832356607 10.1253
208.096769233423 100.0
208.157220848644 7.92748

>collision 10.0
57.0307710692081 1.54884
79.0260397724325 2.23156
103.051121898387 3.49143
120.079876923394 100.0
120.213998346688 1.66018
121.056341945111 1.69745
131.050418963134 2.06966
162.089711528503 31.0672
166.087128042199 37.5168
203.976006351602 3.51326
208.107384975744 4.3905

>collision 20.0
76.0750477953326 3.33826
107.051988372232 3.2057
120.080165191107 100.0
131.052539638717 2.36985
163.062171534902 2.53994

>collision 40.0
42.035058103923 4.76321
43.0184544460005 17.0373
51.023543512083 4.69887
76.0762312451488 7.73929
77.037631703419 19.1319
90.4313743262461 4.10265
91.0531531996316 3.9184
93.0677074043663 7.41189
102.095512213119 6.39799
103.05473537292 74.2926
103.182955365134 4.11756
120.0804204247 100.0

