>compound O-Phosphorylethanolamine
>formula C2H8NO4P
>parentmass 142.0267274247
>charge 1

>ms1peaks
42.0349157791323 2.42666
44.050605734435 23.2366
83.0607151720187 2.9519
97.9688493708803 0.579032
100.111035862001 1.37264
101.093975536353 0.997964
101.120909976412 0.652787
140.961893382877 0.532311
141.959560141214 1.68299
142.0267274247 100.0
142.13373270584 1.91709
142.169536765517 0.811774

>collision 10.0
42.0341688293758 6.65401
44.0506295830039 100.0
44.1111414976386 1.88681
44.1321865761224 0.904013
55.0568187219369 0.585854
56.9419447562617 1.1371
96.9712906434376 0.918696
97.9694474006557 3.0527
100.078092882664 0.550259
100.112931779839 1.82112
101.090993397161 0.605747
142.02671166431 8.67825

>collision 20.0
42.0345669138459 9.69751
44.0504732575077 100.0
44.1112144011069 2.17081
44.1347544855737 0.825448
55.9452442890353 1.09541
56.9422235757817 3.46261
83.0860441467279 0.923517
99.9331885119797 0.66717

>collision 40.0
42.0353342172345 23.6017
43.043117407697 1.21164
44.0505070797251 100.0
44.109138784775 1.86056
44.1282154312967 1.15092
45.9816541706321 1.10095
46.97240915548 1.13071
54.9371782046064 1.70568
55.0545751929741 3.10752
55.9408934162404 7.88887
55.9858744959491 1.5876
56.9418690009523 10.1234
72.9376230933575 4.39944
80.9715400631202 8.04765

