>compound Daunorubicin
>formula C27H29NO10
>parentmass 528.186927764697
>charge 1

>ms1peaks
71.0854326291739 3.42584
119.081364215722 1.82195
130.086887633527 6.16877
321.075806813369 35.7718
363.085920774533 42.2855
364.057219366617 1.72527
370.277958395219 2.17214
381.095323151986 38.8016
381.204472604265 1.75001
382.042833122241 1.66598
399.107085898633 8.75543
449.272089192832 1.85532
527.39892174343 52.6441
527.897723061562 34.4368
528.186927764697 100.0
528.398459211404 11.4114
528.900143726866 2.48808

>collision 10.0
25.0693669817426 1.5168
57.070587321188 5.43832
71.086545685055 2.59509
72.0438101005168 3.43912
86.0558513657943 2.29509
95.0519427137226 2.27368
113.05937005496 7.35393
129.033018249778 2.86947
130.083972846819 18.5041
233.150408926468 2.50121
321.075183698628 100.0
322.0754965276 3.60563
363.085064280884 92.1344
363.313518908032 1.5023
381.096189637596 8.92362
399.101191411088 2.05664
442.808166596428 2.5506
443.295622157503 2.54854
449.2700088123 1.90849
450.262102458118 2.2926
526.898119605317 2.52595
527.396397968118 48.6746
527.899356316467 28.7619
528.185988881265 6.28462
528.395544346984 5.67537
528.895694842378 1.93825

>collision 20.0
43.0544636553342 5.13161
44.0503079102417 1.69208
55.0172055550755 2.45022
57.0700354390213 8.49582
60.0459296486688 1.82876
69.0331125537317 1.5328
71.0859029713315 3.39955
72.0451717088766 1.30815
85.1011514167486 3.61819
86.0595304992174 5.72482
112.967767136194 1.40906
113.057174807202 6.80957
130.085187860669 12.3684
249.047921270886 1.64668
273.02518259226 0.982122
306.048558126451 1.41624
321.073373223567 100.0
322.080256287194 1.32957
340.734514850358 0.94842
359.213892578737 1.02698
363.084458904592 34.2309
371.202165918992 2.64654
443.228066357291 1.05908
527.390007921233 7.07096
527.898795639328 5.81188
528.182991260968 0.943957
528.895969452074 1.48446

>collision 40.0
30.0329720539736 2.10959
43.0171763442748 2.11748
43.0538342812956 7.45513
44.0493934841073 5.39658
57.069829430172 16.6639
67.051945595438 1.32362
69.0347903458914 2.0447
71.0472814533678 1.23178
71.0860199259888 5.72451
72.0441507461736 4.6091
72.09063355194 1.35763
86.0605402313335 15.3471
111.976719109359 5.16951
112.971662250712 1.35464
113.057823574891 6.52999
128.983327513367 2.20758
130.085022162722 2.85321
130.980900805031 1.89195
182.993669048834 3.78559
183.996637778347 3.27197
184.990705071212 3.11508
185.019935915422 1.86077
201.004778417144 7.66992
202.006598508029 1.9501
203.004334841983 9.32366
206.982223598196 1.26225
261.066439828292 1.32961
306.052265494724 23.3042
321.074390889112 100.0
322.077338062164 5.07448
363.085271607975 6.42626
369.184804164008 2.54938
371.1909838191 4.47334
405.171645378298 1.22804

