>compound Dobutamine
>formula C18H23NO3
>parentmass 302.175488595333
>charge 1

>ms1peaks
107.04928450227 1.15448
137.059769314941 1.67433
302.175519091284 100.0
302.393322128392 3.32621

>collision 10.0
58.0660011646167 0.544667
91.0541926158552 0.784914
107.049244215509 5.98425
119.048538091113 0.530408
137.059069058425 9.96108
154.086185742777 1.35819
166.122061658455 2.5912
302.175488595333 100.0
302.39309635399 3.50498

>collision 20.0
58.0659313310134 4.28691
65.0399798733214 0.571159
77.0392133440273 0.868996
91.0541467714876 7.45998
107.04932637128 68.2905
107.180658018471 2.04079
119.048883469511 5.88459
137.059505268255 100.0
137.205360162778 2.74381
149.095628807167 3.03763
154.086066857201 7.69646
166.122178298342 13.7285
302.175628359618 63.1847
302.392629287651 1.0781

>collision 40.0
58.06596748381 2.87682
65.039175200206 2.80845
77.0390779885508 6.13223
79.0544212128505 2.37111
81.069981226431 0.896804
91.0543962859389 45.8213
91.1714140109873 1.23796
107.049226480939 100.0
107.180508432797 3.66176
109.064241573652 2.25822
119.04890468157 22.7706
119.183367564661 0.65515
137.059508335467 33.8884

