>compound Etoposide
>formula C29H32O13
>parentmass 611.171804847904
>charge 1

>ms1peaks
611.171804847904 100.0
611.493778895873 1.02297
611.592707217373 0.978418
611.82340965859 1.15361
612.155846378904 1.67414
641.1558463789 1.0e-13

>collision 10.0
405.095940648702 0.600469
611.170843982764 100.0
611.378648317454 1.98671
611.516408486015 1.06348
611.566567079021 0.88805
611.667356692015 0.648014
611.76454662599 0.829451
611.949735227676 0.840529
640.94973522768 1.0e-13

>collision 20.0
405.092688423177 4.88577
610.394844228474 0.913023
611.168783243305 100.0
611.349386131685 2.34549
611.468354686691 1.10829
611.535423620791 0.782213
611.81548123885 0.985859
612.020632777906 0.685811
612.169049498564 2.12791
641.16904949856 1.0e-13

>collision 40.0
38.9629584744752 7.30981
71.0897957373292 8.18965
177.056138495199 11.8809
185.061697523449 29.755
229.052103303984 41.0064
229.119684104786 5.26531
239.075787228648 6.02156
244.12287892142 5.47415
267.069810317327 6.56671
299.085572487902 18.0483
305.085328698974 15.8411
307.104302251712 11.2144
313.250631704178 7.54927
318.427875672887 6.31828
333.082380400588 15.4637
383.113784322529 8.27965
405.089479667402 44.1848
423.577135998436 5.78266
610.397511388651 8.26147
611.173401610821 100.0
611.365647675909 12.1958
640.36564767591 1.0e-13

