>compound Dodecanedioic acid
>formula C12H22O4
>parentmass 231.160839696852
>charge 1

>ms1peaks
57.0697224452752 0.700112
69.0704570025373 0.624812
95.095631979563 0.629572
111.079934103818 0.506139
126.505830846542 0.557672
149.130644095669 0.917255
167.141618740955 1.1319
177.129486815497 0.520069
185.151164060959 0.984599
213.148498761947 100.0
213.251254845689 0.864753
230.958551773263 2.00842
231.160839696852 20.1794

>collision 10.0
41.0429906225174 1.64405
43.0546504098764 0.905402
55.0542283432016 2.00692
57.0345385985213 1.65009
57.0700636332276 2.62445
58.0661559480572 1.25692
61.0235575941552 1.12986
67.0548612058657 2.26371
69.0702911663196 3.68494
71.0490783805771 1.89469
74.9325084787813 1.74963
81.070488368593 8.84874
83.0482822084566 2.10365
83.0849102928808 9.32794
85.0646847444923 3.73627
85.1041185843289 1.03193
93.0692239716808 5.46264
95.0855980686848 5.25005
97.0639423918412 6.09173
97.0981996277456 4.84222
101.059673716961 2.21505
101.096119308484 1.13685
107.086655397424 2.17202
109.104505333876 1.28709
111.08070830083 8.47606
113.061803426875 1.63099
115.075355265861 3.56764
117.070768192223 0.892414
121.099826515633 1.04499
123.117569388796 1.2295
125.130921456963 0.928087
129.090022879107 0.9983
133.101389602757 1.34101
135.114853754408 5.50422
143.1055443503 1.08706
149.132685298621 63.2934
152.945795866936 6.78101
153.086559939653 0.893491
159.116102221924 9.29151
167.143287368296 43.7143
177.12755009972 6.33959
185.152066849228 8.39524
195.136886016656 10.0361
213.148562735456 100.0
213.897665113538 0.907497
217.887126478852 1.6677

>collision 20.0
41.039670688991 9.32122
43.0191711904042 6.9421
43.0549407202437 20.4073
45.0325321552271 2.92766
55.0540707608339 40.0622
57.0335488531958 6.23031
57.0702352324204 17.3278
59.0499984690086 7.58328
67.0542084741843 15.5906
69.0346236497014 5.48786
69.0705930785091 95.9823
71.0486082206532 8.86454
71.0830085476497 4.12488
73.066507264414 10.9208
74.9312291895835 5.05197
77.0361602912228 2.19669
79.0553102639623 19.7172
81.071294977492 36.5352
83.0506069926465 12.9961
83.0860477967674 100.0
85.0273417971447 2.2429
85.0647561187105 9.79983
85.098929333159 4.83409
87.0454066947088 5.43339
91.0537063670397 8.26192
93.0700923675214 32.0116
95.0452165049353 3.01855
95.0863014161613 18.4347
97.0653947290414 26.9086
97.1003849788281 13.36
101.057529940914 4.62365
105.07268650606 3.01206
107.085271621119 42.7225
109.100297900424 18.6401
111.079863719687 26.3788
115.073010683291 2.16294
121.102794320338 36.79
123.114684373486 10.3895
125.09642980307 14.9045
125.129119765582 10.2921
131.083554133201 7.00654
133.10697201858 4.23079
135.079909628756 4.22012
135.114612569663 8.72147
143.145764596656 4.20078
148.837068727778 2.34595
149.131978387322 58.7314
152.943317418621 10.1224
159.1146466543 17.0826
167.143018564442 12.109
177.128300900284 5.68363
213.150652225529 2.72097
231.133939486066 2.62942

>collision 40.0
29.0379044214245 2.40271
41.0402077427717 33.1435
43.0193096444888 4.07528
43.0557778051161 18.5666
45.0346000280058 6.58528
53.0390783190923 7.52972
55.0188031983558 7.63877
55.0551779081641 100.0
55.4618029027723 2.04169
57.0365092636064 2.34033
57.0709114679118 4.36297
67.0528937560905 12.1988
67.5628754875966 1.58593
69.0326135026 2.27574
69.0711824673303 38.273
71.0871993909775 1.55093
73.0653307240023 10.8503
74.9297776816268 13.9096
77.0382035462347 8.03978
79.0544661745988 15.5243
81.0707089316204 22.7724
83.0512089407793 4.61913
83.0862513243 8.27019
91.0545080621203 7.38378
93.069063082239 9.30208
93.095432687603 2.56668
95.0874027817374 4.35231
97.0621325212698 8.04128
105.07813208193 1.71135
107.082499427456 2.72777
111.08446867956 2.79714

