>compound Heptanoic acid
>formula C7H14O2
>parentmass 131.105887540211
>charge 1

>ms1peaks
43.0189293212401 1.2229
43.0543902476641 1.9549
55.0554869132112 2.17854
57.0716809539265 1.15657
59.0490152922111 0.512377
69.0700950719507 0.973558
75.0464104630486 0.924434
83.0497989171566 1.80511
83.0845886072408 0.833241
84.0900636179139 1.58383
87.0443263670548 1.69058
89.0600803668973 15.2847
101.061057273879 1.88708
103.075766674371 1.09325
112.082867295967 0.957468
130.093524703772 2.57087
131.106400128739 100.0

>collision 10.0
29.0369271313831 1.08702
41.0398537861335 26.7385
43.0189338031494 14.642
43.0554258763965 61.8406
43.1739113170718 0.784957
45.0336832614308 6.5291
47.0149298127126 1.12431
55.0179552234797 1.8032
55.0551903157345 39.0507
56.02341216699 0.905301
56.0593911394557 6.03945
57.0344427614282 3.88081
57.0702429433871 18.5807
59.0497954107172 7.67796
67.0542791224167 2.28689
68.0578432455942 0.772292
69.0711557821696 11.8572
70.0739158333288 2.19564
71.0492672013717 7.64989
71.080338105809 0.920772
73.0313045377575 0.95613
73.0657966578848 1.17725
75.0450361866419 14.5945
83.0496004073284 6.92081
83.0849379145638 7.43454
84.088918492691 10.537
85.0971213097035 1.23543
87.0436417552073 4.98534
87.077007946436 0.622812
89.059992435597 100.0
89.1273329897804 0.712528
89.1494637641687 0.700726
91.0535237506118 0.745991
93.0608812206949 0.661554
95.085413411857 5.3505
101.058338638636 3.0457
103.075232931952 4.90693
112.0833168122 2.17038
130.089069776551 0.945811
130.161056376716 0.861018
131.105887540211 31.4282

>collision 20.0
39.0231045229995 2.13385
41.0396489922884 54.5466
42.0413486463951 1.47523
43.0182598541752 12.1705
43.0554527705691 100.0
43.1064159591405 0.710021
44.9979455768715 0.792152
45.0352236513725 9.8973
47.0141428735384 4.72532
53.0408147346189 1.14647
55.0189160136142 0.775683
55.0549867850143 36.4729
56.0581367395839 4.87681
57.0339392504525 5.52647
57.0697655739652 11.4741
59.050450625858 7.79466
60.9379875900419 1.08803
61.0275626190249 0.826915
67.0530063722451 1.63908
69.0330933111948 0.878909
69.0709881263354 13.5616
71.0487509506549 6.87925
73.028446231414 1.49107
73.0619553792494 0.572436
75.044433338902 3.55864
83.049503228018 0.842616
83.0856234113103 3.00005
84.041165323479 0.978654
84.0901858885036 1.81671
88.8273550320916 0.953896
89.0591337713137 19.9143
95.0803941078176 1.81919
103.075687893339 0.646371
131.107033408816 0.851179

>collision 40.0
27.021886986755 1.45524
29.0379544138073 2.76866
39.0237395623309 31.3396
41.0398300270145 100.0
41.0795108936189 1.39073
42.0430803791122 1.87994
43.0202049509907 10.3765
43.0549193652978 38.6371
44.0205899926353 2.36274
45.0343433414011 12.9152
47.0138410642125 5.83171
53.0400226477642 1.80425
55.0547974670091 15.8352
67.0532392010032 2.71058
75.4543159590647 1.71498
77.0420776938814 2.76801
79.053848077573 2.28787

