>compound R-(-)-Mandelic acid
>formula C8H8O3
>parentmass 135.044881267652
>charge -1

>ms1peaks
42.0349932916239 0.782565
43.0537893169358 0.707448
47.0494291197199 2.59615
56.0448070478206 0.554867
59.0442018308975 1.0511
61.0630692027532 0.609882
72.0788530484891 0.637967
79.0540442456193 8.55018
84.0810439673204 1.54867
88.0740972633034 1.65412
93.093436304326 2.2632
94.0628349611814 0.65201
98.0957781360773 1.28099
99.0988051006515 0.812816
103.035704684907 0.607918
105.956015470449 0.671236
106.060586919929 0.504717
107.048645680679 18.3932
107.124849739094 0.567456
116.064966915252 0.797048
134.013841496493 1.16624
134.11555067458 7.57539
134.511459322441 1.00065
135.043979989203 100.0
135.151053076299 1.44554
135.188401357733 1.03365
135.231188055757 0.699236
135.441305690785 0.730315
135.537511152721 1.34091
135.669279046437 0.6114
135.95521535107 0.677792
136.95521535107 1.0e-13

>collision 10.0
41.0372328646324 2.33394
42.036607856939 1.9536
43.0557010752633 1.17434
47.0496227704031 3.61859
48.0392128047424 1.11033
57.0680705534227 2.13999
58.0633546776864 0.76339
59.0487917619893 2.76618
73.0676602747441 1.69551
75.02842074669 0.985914
77.0387447934804 8.97566
79.054765424726 100.0
79.1280130541949 2.11843
79.164662381816 1.23891
79.192863661958 0.896796
79.2964351171464 1.30999
79.3889096268717 0.885459
91.050931187252 0.965928
98.0941824966432 0.747643
98.742866707521 0.801715
105.03344564072 0.892899
106.040846940851 0.788637
107.04910103723 62.4433
107.108862188324 1.47647
107.14383285693 1.5494
107.376342452022 0.950787
134.11572476752 7.98262
135.044881267652 26.446
135.119643444293 0.937384
135.150101094726 0.840684
135.250088988708 0.747091
135.476737423214 0.783756
136.47673742321 1.0e-13

>collision 20.0
42.0381572543074 0.775198
43.0563838732528 3.00374
51.0259524724444 1.58199
53.0390968210583 1.05845
64.9268714910892 1.16362
71.0502118139957 0.774587
75.02117538676 0.700901
77.0388482713772 46.0582
77.0988611779138 1.0324
79.0543862862978 100.0
79.1292964657846 1.55858
79.1602063097636 0.962337
79.436539355984 0.700712
79.5596920162391 0.815934
79.6538747410504 0.946434
91.092549617661 1.06016
107.049617343731 3.13327
108.04502698505 1.23658
109.04502698505 1.0e-13

>collision 40.0
38.6938409857801 1.67208
39.0232907166087 2.88094
51.0231509581816 39.985
51.0841805011271 1.54395
53.0046030908164 2.47362
53.0379405302313 1.97259
64.9290751507457 2.2843
65.0387635596029 1.47445
66.0342685780146 1.60414
77.0384278980903 100.0
77.0818331959058 3.75357
77.11941152655 2.10595
77.4188356449396 1.41225
79.0538195160019 16.737
80.053819516002 1.0e-13

