>compound Kynurenic acid
>formula C10H7NO3
>parentmass 190.051702298308
>charge 1

>ms1peaks
144.04656298229 2.25829
172.041664112352 1.1582
190.052634793377 100.0
190.17536519712 2.2078
190.218034251175 0.938904
190.28001933488 0.505798

>collision 10.0
89.039772383895 0.669927
116.05057043417 0.939723
144.045572027602 69.6381
144.154505890997 1.27433
144.186443217718 0.585299
172.040721178051 43.6727
172.158975289754 0.685948
190.051702298308 100.0
190.175913082476 1.92441
190.215759413212 0.875515

>collision 20.0
89.039893443401 1.34152
116.050479031466 2.93333
144.045527258369 100.0
144.155038349323 2.40617
144.188381581225 0.988706
172.040229749658 2.4886
190.05630680071 1.12122

>collision 40.0
63.0242798503789 3.58319
65.0400621003209 1.44223
75.0234852902089 0.698987
89.0401862055322 100.0
89.1263609054785 1.86724
89.1524975295577 0.856166
90.0362797300093 1.87245
101.040164117816 3.60157
116.051063650684 92.8875
116.148903266824 1.6566
116.180630587931 0.787766
117.041895714069 0.687525
126.035965020509 1.83489
144.04633533473 29.0891

