>compound Chlorhexidine
>formula C22H30Cl2N10
>parentmass 505.210834733531
>charge 1

>ms1peaks
184.15497148371 1.26025
201.182593833034 1.40541
311.174383723259 0.503767
319.144124066838 0.672484
336.169399231008 3.85596
353.196826544542 6.76328
488.184862453792 1.45348
505.210596767455 100.0
505.485304509372 1.92607
506.200360452782 1.15026

>collision 10.0
100.111985229188 0.511318
125.106719513792 0.834198
142.132945963624 0.72012
159.159510084836 1.65006
167.128509033523 2.06006
170.047612112591 3.62036
184.155220677015 13.7968
201.181948976794 12.8578
209.149699936331 1.12277
226.179146096359 0.809487
253.108146070032 0.534742
294.14679215648 0.780315
311.174664117415 2.91351
319.143323147042 6.04404
336.170211458775 31.6037
353.196470009908 36.497
353.430135791381 0.608075
361.164763687693 1.76114
378.190037247841 2.45026
471.157620260084 2.15657
488.183695004856 9.7989
505.210834733531 100.0
505.486097282175 1.56896
506.195107428539 0.683439

>collision 20.0
55.055235243757 0.837714
60.056590708908 4.39413
83.0859980221974 0.533132
98.096467278231 2.36378
100.112119889479 3.169
117.139238436748 1.18116
125.107103285764 6.96598
128.027641312072 0.896092
142.13386397752 5.55515
153.021635070117 1.32434
159.159933151982 11.9884
167.128698822227 16.7528
170.047669212979 33.6906
170.212524420351 0.638252
184.155053227873 68.8742
184.321915086096 1.51665
195.042420881614 6.46036
201.181656839674 60.0
201.356197931952 1.2897
202.183020491709 0.863946
209.15045991501 6.10533
226.176998559438 4.7573
251.173817148609 0.87449
253.109523161726 0.865414
277.119278713523 0.666585
294.147290717464 5.68639
302.118445100028 1.09523
311.175273451363 9.43597
319.143893432263 30.5723
336.170344540276 100.0
336.401955652102 1.65166
337.163616704611 0.601521
344.13871092258 0.663272
347.058852220644 0.678184
353.196265775374 50.8689
353.430089190899 0.787567
361.166370610774 5.05094
378.190938963264 3.78862
429.138535825984 0.583295
446.162044780217 2.13625
454.128409473662 0.956978
471.157844270981 11.2553
488.184267834413 18.041
505.210676739395 18.6164

>collision 40.0
43.0309399130926 0.922852
45.0440179005756 0.645599
55.0552753123989 6.1163
57.0451678836617 0.68763
60.0562569408256 12.0792
68.0262299711537 0.541268
70.0649201313202 1.09357
82.065041562973 0.963161
83.086014562769 2.99243
85.051453294051 0.887165
93.0569048717975 0.629179
96.0797150267706 0.987977
98.0965140754458 10.7804
100.11203266385 17.5329
108.081096601606 1.78654
110.999404299319 1.3283
117.13814708899 1.04946
125.106966600088 48.2705
125.243768960959 1.21371
128.026110530323 4.60997
142.13369247431 19.5375
150.102131686691 2.34153
153.021040837227 17.9865
159.159798351723 19.5141
165.113167985292 0.951845
167.129178206071 31.1386
167.287695712575 0.519148
170.047945748406 100.0
170.212825230336 2.26011
178.016072619552 4.17451
184.155367055182 57.0319
184.321997518387 1.26989
192.126326176265 0.678763
195.042754029905 18.6864
201.181744319036 11.7761
209.149281530983 3.76485
226.175804788598 0.665115
237.065752558585 0.858658
249.063529809595 0.90672
277.121936671677 2.26551
288.008842647413 0.779784
294.148682059313 2.62494
302.116793628531 1.59878
305.034041463067 0.854248
319.143460759718 13.4417
336.171520970712 6.24101
344.138925219722 0.556893
347.056395747264 1.03011
359.055089205749 0.756219
429.134799104269 1.7251
446.163494140353 0.977038
454.133081833186 0.62777
471.158845302755 3.34942

