>compound Choline
>formula C5H13NO
>parentmass 104.107082032358
>charge 1

>ms1peaks
60.0817787424526 0.987974
104.106647787937 100.0
104.201182558069 3.19207
104.229655493928 0.86478

>collision 10.0
45.0339783959812 5.94782
58.0660765897144 1.8282
59.0737762264714 0.820832
60.0818777496655 19.9635
104.107082032358 100.0
104.201314053414 2.65631
104.229592930654 0.694879

>collision 20.0
44.0498036709943 8.52776
45.0339431921702 45.7136
45.0560840929467 17.0424
58.0661127571538 30.3719
59.0737561072875 8.37242
60.0819092795127 100.0
60.1542956489727 1.08045
104.107276852542 42.8898

>collision 40.0
30.0342471309093 1.65092
42.0342536384196 11.5305
43.0183273617278 4.18377
43.0421169125287 7.66761
44.0498754469311 49.5485
45.0338405801937 14.3636
45.0573283061486 14.1834
56.0502290275341 2.26905
58.0660829168994 100.0
58.1356439382528 0.632435
59.0739775195151 0.965554
60.0815584288772 8.23721

