>compound Pterine
>formula C6H5N5O
>parentmass 164.055670260588
>charge 1

>ms1peaks
119.035067445999 0.678477
122.019253482433 2.09158
142.532101302746 2.30081
147.026954749796 0.611071
164.055703442344 100.0
164.173075742744 0.552805

>collision 10.0
96.0560715018535 0.625097
101.50540729858 3.2842
119.034439676821 4.65808
122.018865419453 0.978124
147.028928693988 8.17843
164.055670260588 100.0
164.167663773333 0.626674

>collision 20.0
42.0341228301097 0.539258
56.9644541201288 0.771122
67.0296277222691 1.90198
68.0245739438516 2.08009
69.0087873587254 0.565361
69.0448043319941 4.42454
78.9938503769034 1.55154
79.0286629076952 1.17941
80.002558702155 2.33082
81.9598430085312 0.613696
84.9592223045838 0.80733
92.0237503960066 10.4983
92.4994768497234 0.621841
94.040102387771 7.76849
96.0553999123638 11.2841
101.506300943014 3.5857
119.034517914238 100.0
119.132203251239 0.572805
122.03441730113 3.15223
136.059991761846 0.768718
146.044787550045 1.48495
147.029572022212 44.4013
164.055561509399 61.7158

>collision 40.0
40.0189654469987 6.15074
41.0137302406676 0.695471
42.0343057051534 17.1855
43.0302711971961 3.66935
52.018794850806 11.038
53.0176491132677 1.54519
53.490684561885 0.668216
54.0341975621804 1.81949
55.0286202331053 0.56777
56.0367569755952 0.692996
56.9647658809199 0.760104
65.0132753870949 16.67
65.4900407558676 0.724681
65.9658605797104 1.6818
67.0292609880121 36.213
68.0244190818637 72.3159
69.0085687542564 7.71889
69.0453346609032 28.7223
77.0127977561264 1.07782
79.0284977009996 8.55214
80.0351905708125 1.20614
80.9764293611536 0.63011
84.9612886445883 0.547243
92.0242275625542 100.0
94.039914147287 18.2542
96.0558233319352 8.10735
104.024817216141 1.05397
105.969690696538 0.609403
119.034488789092 23.1623
122.034956445879 2.02083

