>compound 24-epi-brassinolide
>formula C28H48O6
>parentmass 481.353866339812
>charge 1

>ms1peaks
95.0877464473581 0.989767
113.097728814892 0.512507
221.154289325385 0.759089
251.178281346132 0.627852
295.212111615521 0.750405
315.236663486367 1.87574
317.244848793212 0.595905
319.191711044199 1.13341
321.204115664479 2.10805
325.214166464053 0.884138
333.256062894207 1.455
344.236788455934 0.719063
349.240330680452 1.49568
351.253244518736 2.38771
361.24075973375 2.04052
363.263726412459 0.781736
375.261375947058 0.668164
379.262140874172 0.555069
409.311779434663 2.37768
427.32186817499 2.02918
434.900529851333 0.527346
435.097742029435 0.758437
435.913759742239 0.766165
435.961103345331 0.539438
445.339103576903 22.3987
446.349779966207 0.981307
463.353254193262 1.93132
480.897736556954 0.869344
481.102855196826 3.2979
481.359412269557 100.0
481.730732575941 0.860366
481.803091333492 0.689028
481.875726011537 0.80507
481.930096077356 0.861904
481.993668379311 0.688206
482.045500106945 0.687934
482.125198935608 0.801342
482.248996588362 0.664089

>collision 10.0
43.0519047897721 2.05619
61.0338758289971 1.65081
67.05689614294 1.3008
69.069782675434 5.69025
71.0854516865032 10.9955
72.0853663327655 1.32787
83.0844653524898 1.51156
85.1021171430416 1.28457
93.0677023958884 3.14286
95.086271202699 9.34246
99.0834831848476 5.02929
107.083169693629 2.02103
109.104340789404 1.53715
111.121440740331 1.21312
113.097432187313 18.379
121.099708734052 5.86146
123.117488266234 1.32957
125.129490839249 3.61194
131.106981778585 2.42119
135.080271220415 1.39872
135.116463655705 4.23703
139.073526382395 2.1666
141.127166750668 1.99201
145.097814592024 1.25514
147.116129529257 2.14448
149.129878599032 5.16124
151.147976903421 2.91562
155.082593349682 1.54004
155.115049249987 1.18381
159.116904462392 2.1223
161.134811557231 1.67499
163.146848517247 2.54037
165.161807162052 1.5301
167.071817148428 2.31877
173.129894206073 1.72568
177.166635407709 2.11535
179.110255521359 1.27707
181.157821784647 1.43193
185.081318935444 2.32422
185.132987630689 5.31531
189.140337502152 1.90585
191.113328027284 2.06891
193.156715479331 1.26062
197.130129820605 1.21432
199.11206765126 1.38751
199.142830101399 1.72568
201.166493320226 2.28638
203.139842644961 1.3862
203.182788900873 2.86233
205.124146878007 1.80623
209.139066405705 1.56051
215.170514831207 1.15948
219.138006768854 5.60683
221.153729475936 5.33035
225.110821388307 7.73954
227.198213378503 1.40815
229.188943172878 1.34751
230.926697586378 1.65352
231.136426222503 3.55667
231.205651784827 1.92127
233.15858514045 2.31469
241.190812951658 1.62303
243.205725374828 1.69146
247.168491344784 1.88922
249.177155532837 2.0784
253.192502202491 1.79454
255.207712608722 3.83566
259.175203075666 2.5998
265.166431484732 1.67441
267.164073398018 4.2446
269.209350145953 3.78345
271.172291729058 2.44483
271.207407029172 1.26111
276.93837262058 1.59029
279.212704901373 3.95763
285.183562611614 6.62311
287.213036399691 3.81177
289.217417833259 3.00253
293.222866316428 2.66239
295.211847596759 2.39786
297.222664885586 15.2416
303.202485379779 5.16713
303.2684454684 1.19977
305.216143331766 1.24827
307.204876946783 4.13114
311.232946733049 3.18085
313.219943899605 7.6244
315.235337655168 44.0525
316.247075752486 1.31286
317.23132707358 1.59587
319.190655660184 31.7664
320.027872515404 1.44015
321.207622810114 17.6262
321.312323828831 1.21529
322.196971447577 1.18425
325.216424503828 14.3068
327.227830967056 1.4734
329.233825600759 1.15491
330.280077534381 1.40524
331.225041975309 10.8103
333.241555881174 9.954
335.227891484079 1.34866
339.238958163072 3.85534
343.228465615084 12.7603
345.241827812586 1.9494
347.220320701126 1.15484
349.23848483094 27.4962
351.2535990603 14.722
352.268407940687 1.79975
357.242557390904 2.19419
361.238933403673 21.7366
363.255921312306 6.83851
363.301312963514 3.88007
367.062690546816 1.45175
375.255835643136 7.99707
379.272002565933 2.78063
381.316646754146 1.36635
383.29785544881 2.41335
389.264741344206 1.97354
391.300948621566 3.71458
397.316855477657 1.62615
399.318031994963 1.96317
409.31223471577 14.1354
413.11286554754 6.53565
414.100408782677 1.41742
417.345540504227 1.21264
419.318996746161 2.36066
427.320188862054 20.6407
445.333918546445 86.9949
446.337691358111 1.77127
463.344794002935 18.7435
481.098147970002 10.1164
481.353866339812 100.0
481.521891209406 1.91242
481.862537166715 1.24271
482.108357078219 2.56913
482.18809868942 2.18246

>collision 20.0
43.017381202009 5.98626
43.055635764811 7.59489
55.0548801245184 7.11277
57.0694915572716 9.28094
61.0272553957775 5.88575
67.0538605466982 5.59489
69.0724223851099 10.0086
71.0862528548997 100.0
81.0706239683877 9.99571
83.0846132638697 14.8808
85.1012615042313 18.57
91.0581528236069 4.60282
93.0700264804493 13.4182
95.0874614781074 73.4283
95.1340809435853 4.39115
99.0806902537352 6.43366
107.085469269821 13.3633
109.057356038579 3.01873
109.100807827637 21.3366
111.113250731818 8.4276
113.094505705933 42.5991
119.082158320066 6.14736
121.099651314859 19.1811
123.117737080524 18.3908
125.092967217033 3.47221
131.087239552229 8.05572
133.099661400716 14.846
135.118233699333 12.2934
137.136609546158 3.55464
139.074767843828 11.8456
143.089024373344 3.12907
145.099027901104 10.0036
147.113863030856 14.2259
149.136399291008 22.5549
151.083100801757 2.96156
151.151658803677 4.14183
153.087436006544 8.59436
155.072663978765 9.36779
157.104702324382 6.25223
159.120543466539 12.9397
161.128418695505 16.2899
163.148072038883 16.8247
165.121456576999 5.2524
167.07353374023 6.28163
171.12018098454 3.7739
173.131302208051 3.16348
175.10702086224 4.94277
175.148424655956 13.3922
177.167007449211 11.5198
179.107199177934 4.86965
183.119355838799 8.33431
185.088366501666 4.92241
185.132576989125 4.78627
187.080066204095 3.93521
187.146443121487 15.6766
189.122000230084 4.69647
189.160331634531 6.94592
191.118651950001 7.88432
191.177509683879 7.99464
195.11902387049 7.95946
199.147613050309 9.16844
201.148239070537 4.35823
203.140790817835 3.59913
205.133751775814 13.7931
207.10769241735 5.04668
211.174040703085 5.38989
213.159609467329 3.73589
215.14645634687 8.27584
217.130871400565 6.00987
217.179401510943 4.16713
219.130143830115 7.26291
221.15783283725 6.25029
222.16085592467 3.75358
223.157551850079 3.0493
225.116664799465 7.12274
227.17514322749 5.17599
230.925258345777 5.65931
231.139401258968 3.70483
231.207051056126 4.60014
233.152649382537 14.4763
233.218369752599 5.09347
239.173321921298 4.79732
240.916202880166 3.11601
243.157819377459 3.0275
245.155097510023 7.80242
248.154602100303 4.89748
249.157231813431 6.39456
249.197832745857 4.0491
251.167338564291 8.55011
253.126726695614 5.54347
255.204043102747 11.3362
257.163054106494 3.82216
257.199658469448 2.94719
259.176375175396 4.38286
265.1927792387 3.96012
267.180844101232 21.1275
267.2273519661 15.2554
269.22819523545 29.403
275.193119416364 4.25466
277.194868881536 5.73115
279.207283756751 14.1297
283.175889064286 6.14222
285.189949947411 33.2145
287.207127543835 8.11014
293.176046421958 5.77874
295.210999731237 14.7701
297.221043145844 20.0762
299.207085924687 2.91356
301.178126808393 5.49657
303.200249791233 5.10954
307.209177800224 9.44083
311.239831587879 2.88254
313.219513538475 38.384
315.236208431818 62.5788
319.19183561394 21.4085
321.207386448463 23.181
325.218433111181 31.8805
327.229299981078 4.90231
329.24279229465 5.96943
331.224881396017 33.5131
333.23428822657 4.40013
339.223845531039 4.76096
343.225749827686 11.5661
343.287085111178 2.93103
349.242884254304 19.4594
351.254756222778 17.2399
353.245130805849 4.77363
357.236743018297 10.3192
361.248125701595 16.7445
363.309378905844 4.06788
375.254815495537 15.2423
391.301320495724 6.64655
399.331050695601 3.75059
401.311243927222 3.42432
409.328014025501 15.3102
413.113418731567 20.5488
427.328211355874 17.206
445.332919567693 26.2235
464.332860215131 6.57537
481.373965658425 12.1415

>collision 40.0
43.0180940336742 10.6653
43.0550787551364 44.0232
43.0878134757901 2.6243
45.0325990749544 3.31798
55.0544603703553 22.2352
57.0703212461097 20.2368
61.0294347074586 6.27715
65.1527897726026 7.37822
67.0553506611088 28.8866
69.0718165820671 18.466
71.0505117116694 4.61411
71.0864181758461 66.8541
73.0275520551769 5.22123
75.0444901618187 3.49594
77.0379273650573 10.1089
79.0567856717872 8.9623
81.0706211543041 63.3219
83.0875334659527 21.0386
85.0657794940531 8.59692
85.0998776003821 7.63883
90.9815819498721 4.79098
91.0549749160715 23.1125
93.0331340342897 3.12261
93.0686591361917 41.7004
95.0858696815493 100.0
97.0678830323671 3.27526
105.069745285259 18.5791
107.085672360119 43.4684
109.067707214202 8.95691
109.100068332003 12.84
111.081570492237 2.91103
111.112428704254 7.8668
113.096467563017 3.85021
119.086407685485 23.4877
120.089917589475 3.62552
121.101698397849 36.0833
123.083217927951 10.7673
123.116928177586 17.041
125.05805046337 2.58449
126.97443293046 4.06332
129.07185354989 4.58503
130.084062598049 2.50193
131.083079483559 14.8116
133.099939956916 31.9386
135.044490642568 3.13558
135.073065684929 2.86408
135.117221110054 9.55869
137.05890477013 14.4885
137.127490651594 4.51539
139.96652517137 2.34148
140.955383992299 3.40288
143.082470514541 10.2459
144.933290266005 3.59906
145.102524382453 23.6473
147.116443793557 28.927
148.118639903732 3.05384
149.094284562789 3.9465
149.131366163344 16.0982
155.084795467348 12.5203
157.103644797913 11.1
159.07166544939 3.01598
159.117239686689 12.2646
160.083660344764 2.29208
161.12978426398 23.6187
163.149876015306 6.07746
171.116823506396 7.4686
173.133288990668 21.7067
175.146018125008 12.5598
177.157780831934 3.54831
179.102790596517 3.79472
183.112477739584 6.74208
185.138776192725 4.90243
187.149038159861 10.7389
189.16081900503 10.4
190.091321622773 3.06715
193.110018548051 3.91298
195.119764933997 2.63538
196.128343444882 3.13582
197.128031744316 6.27987
199.148289393553 12.4079
199.991471586726 4.43993
201.406179333761 2.56997
209.133070422536 8.15344
210.143572222521 4.41076
211.136276925919 4.64769
213.161516589266 6.22067
223.149198817948 2.47972
225.16458293741 2.29954
229.19399415174 2.89478
234.14213791696 2.28224
239.179632373252 7.04071
241.191594756968 3.76391
248.903796324534 2.28513
249.162798854921 3.02786
251.19140950876 3.94731
252.182051737587 2.45251
253.20472016386 2.92779
257.141100653604 2.61769
265.154622848076 4.92238
267.208961392641 6.36577
269.186774572414 3.18515
285.187520576718 2.8343
295.209529382637 3.5594
297.224262832945 9.4158
313.221174967156 4.78497
315.230842461689 8.67501
319.189745622972 2.29208
325.259044128702 3.18191
327.236558388624 2.34354
339.230374552677 2.34195

