>compound Acetylcholine
>formula C7H15NO2
>parentmass 146.117679628999
>charge 1

>ms1peaks
43.0182117335807 2.66798
60.0818010878408 4.77414
64.0166580493007 16.4717
87.044758326953 45.4576
105.042436493259 2.93414
146.117776038395 100.0
146.229067021459 0.705258

>collision 10.0
43.0181720695656 15.0523
60.0817506651667 6.66249
64.0164880298652 5.81643
87.04483100827 100.0
87.1313975268503 1.06911
146.117679628999 29.8002

>collision 20.0
43.0183642565987 59.2682
58.0653465836156 0.955832
60.0818384695436 4.0676
87.0448427206377 100.0
87.1313647945262 0.76012
146.118393220102 0.576072

>collision 40.0
42.0353509318252 0.640864
43.0182706096021 100.0
44.0502969540593 1.26786
45.0335111540973 0.57661
45.0574447943745 1.31323
51.4763488706296 0.529053
56.0503110394681 1.06236
58.0659024578336 9.78825
60.0818313630271 2.34236
62.9293664721851 0.99857
71.0732174980454 0.655571
87.0447847566054 6.71713

