>compound Cysteine-S-sulfate
>formula C3H7NO5S2
>parentmass 201.984298300462
>charge 1

>ms1peaks
74.007095582405 7.44351
76.0220377638282 0.721705
92.0163441290968 1.33348
120.011792108024 46.6395
120.112031336621 1.04365
122.027954121504 4.5588
155.979561935905 1.8138
201.206580597175 0.874893
201.984697701908 100.0
202.111417965488 1.61486
202.147727624255 0.765695
202.231813469921 0.615025

>collision 10.0
47.990596812364 0.723816
58.997855948166 1.17615
73.0288452123405 1.4493
74.0070034377075 32.6946
74.0847972222802 0.7644
76.0237501944111 0.983469
86.9903774994472 0.890176
92.0172273343122 2.92948
104.999114736863 0.949482
120.011673604446 100.0
120.110519043594 1.63811
120.145928720725 0.826754
122.026766476807 8.13691
155.978303666286 2.08878
201.208412289488 1.3039
201.984298300462 26.5221

>collision 20.0
30.0338034515216 0.97489
46.0308070780007 0.962176
47.9916100579488 3.60066
55.0193082968736 3.07319
57.0209780006511 1.12825
58.9956920457321 4.31148
62.9918437556246 0.722607
73.0295115000983 5.26683
74.0068987738865 100.0
74.0848668575292 1.91741
74.108905641471 0.947269
74.1490679770068 0.559333
75.0318475684445 0.976193
76.0222638042603 5.25302
86.9906654478209 2.24326
92.0166295821041 6.13585
104.998053802777 1.17817
120.01153891248 72.5064
120.107139808515 1.24878
120.160305103166 0.715958
120.397725803905 0.605879
122.025648661462 0.743616
155.978874567746 1.02332

>collision 40.0
30.034347286775 4.34606
43.0423870202505 2.87696
44.9976561964188 0.89882
45.987796458521 0.662083
46.0296863173023 4.84767
46.9958450164231 3.42069
47.9912939246257 15.553
55.0186043536519 13.8591
55.0507075475991 1.27021
55.9561736700484 0.765466
57.018983195761 1.21239
57.9884411169219 1.04849
58.9961231048628 24.7416
62.9914864864662 0.912963
73.030887237459 7.39864
74.0075870560936 100.0
74.0850798523683 2.06983
74.119165019849 0.764391
74.1840233791029 0.778688
74.2984565703514 0.56584
74.4808890477425 0.527779
74.5099584827244 0.508482
74.6183417611868 0.500012
74.8880936851412 0.630088
75.0208237412724 1.06385
76.0223728092598 4.08021
86.9910997334601 1.06281
88.0748285474763 0.581702
92.01593972664 1.80679
120.014571793926 3.04691

