>compound 7-Methylguanine
>formula C6H7N5O
>parentmass 166.072573729295
>charge 1

>ms1peaks
149.045860862863 0.673731
166.07263653265 100.0
166.190910993407 2.15452
166.22598727807 0.686291

>collision 10.0
124.050466098719 3.24332
149.045682057098 5.84258
166.072573729295 100.0
166.19082434191 2.00367
166.226270519686 0.599567

>collision 20.0
42.0347318155767 4.20334
55.0298418478753 2.46962
67.029754017593 1.41345
69.0454891039905 2.41425
79.0296322990777 1.71358
94.040160813801 1.33124
96.0560185638872 3.01237
97.0412590085855 0.521885
107.024187783242 5.71006
123.066524200118 2.36543
124.05066852089 59.155
148.061778905565 1.32725
149.045940431031 100.0
149.157730244818 0.878536
151.049118456072 0.803337
166.072467238656 84.0192
166.189815218279 0.693473

>collision 40.0
28.0183911630118 1.28562
42.0349217918826 100.0
42.0946556742092 0.801166
43.0300488758536 5.67157
44.0471132811049 1.20979
52.0187839828088 1.48968
53.0144368741399 38.8119
54.0338804991906 7.74982
55.0301415992869 37.3949
56.0301282587719 1.01453
65.0137483460898 0.69663
66.0217416656825 0.66405
67.0297875354354 47.4184
68.0248920962422 15.056
69.045349731554 50.5992
70.0289182528528 2.72738
79.0297884600366 46.663
80.0246601839943 2.21605
81.0393612981377 1.68384
82.0362319788674 1.51389
94.0404009194416 16.8111
96.0558574373406 7.85941
97.0397555797957 0.874414
106.035324692702 1.28574
107.024275924217 12.618
108.043546752499 5.11302
109.02733449531 2.21001
110.035481143074 2.20176
124.050526209407 18.5499
134.022066352878 1.54457
149.045562755416 20.9965
166.072458829774 0.524019

