>compound p-Anisic acid
>formula C8H8O3
>parentmass 153.055148369138
>charge 1

>ms1peaks
74.0968508871189 3.34698
82.1965736775268 2.89632
109.063781760873 6.93519
110.001968859499 1.60479
111.009990576417 8.79081
112.004787206184 2.13559
132.563239107293 2.12647
135.09556819692 1.84047
152.036311943585 4.59479
152.075884085723 2.15341
152.128451999319 3.81014
152.561441720468 4.66506
153.05334027462 100.0

>collision 10.0
42.0363656612931 2.69224
67.0206195347172 5.72206
68.0142364934088 4.12412
70.982038324251 7.95104
74.0966262104498 20.5801
77.038511994969 11.3452
93.0640295503431 3.62709
94.0413104673618 26.8606
107.050454719302 10.5961
107.963130068584 2.8687
109.064654058369 100.0
111.009932951683 8.78764
112.004156042486 7.12228
120.045741454892 5.13703
121.043258096912 6.03428
135.044109991783 39.9848
153.055148369138 64.4511

>collision 20.0
36.2292453262173 3.60957
39.0241909768948 5.00619
67.0195269663573 19.7
68.013880884589 3.45152
68.9837357514691 14.0623
69.9853968950851 23.5611
70.9786523244126 28.144
74.0977338461981 6.17573
77.0390154510033 100.0
78.0465689820432 7.25932
79.0553927580508 18.5519
81.0693624238092 10.747
88.9557595451505 7.75084
91.055167577105 5.98787
94.0405541667335 78.9803
95.0625510258278 5.98836
103.049929726044 6.22049
107.049093418113 14.1795
109.064467503886 72.6539
111.007921111289 4.97781
112.013430674828 9.40924
117.068065630326 4.08694
135.043026993519 67.7047

>collision 40.0
42.030028351109 6.91123
51.0226322880058 28.6612
54.9838823568631 1.91417
62.9906829539288 2.60634
63.0227435103054 7.24633
64.0304589675812 13.9545
65.0387250972146 4.52708
65.2736331202876 2.06792
66.0459800987622 15.6451
68.9847378705487 4.91951
69.986440640645 2.26413
70.9766359164091 5.24348
74.0980699716998 7.59209
77.0385493042982 100.0
78.0441264775921 2.31279
92.0258293235115 27.1683
94.0426337077763 12.068

