>compound Levofloxacin
>formula C18H20FN3O4
>parentmass 362.151321244606
>charge 1

>ms1peaks
261.102104381091 0.511745
318.160671878184 1.73822
362.151412828453 100.0
362.32146388462 1.01467
362.652068635619 1.29577

>collision 10.0
261.102540263348 2.01633
318.160628533121 12.9742
344.139466829615 1.5409
362.151321244606 100.0
362.320121382331 0.979515

>collision 20.0
58.0659945424277 1.83542
70.0656327948851 0.943696
84.080809446648 0.536445
221.07081410045 0.579203
233.075129975772 0.577723
247.086717948898 0.704602
261.103132507699 28.9175
262.107167173587 0.781297
298.154763260849 0.511639
316.144619668698 2.70371
318.161272258631 100.0
318.322691097931 0.842773
319.163672308737 2.94085
344.140099038009 11.1457
362.150814706431 67.4231

>collision 40.0
42.0347574222807 2.91426
58.0657910259868 15.5016
70.0656384862584 8.45619
72.0812773356015 3.74251
84.0812525919827 1.82587
150.034195333507 1.45943
178.02970949862 2.45093
179.03746190432 5.7589
192.044845997519 1.45269
193.040982404743 3.12396
194.053509307906 2.00887
199.050946871848 2.2369
204.048166969181 1.41347
205.052747334173 7.84033
218.054961866403 1.39015
219.056591697923 12.2747
220.066673346339 2.41863
221.071620292247 17.7945
233.07557424426 3.86615
241.096414713383 1.93904
245.073172667012 1.64734
247.086666001666 4.10034
261.103222788323 100.0
262.106041709111 2.83888
268.113811071898 1.52248
273.101396724724 1.996
301.113210420675 2.26319
316.14311858445 2.35085
318.16089357762 8.63399
344.140645334894 3.71918

