>compound 3,7-Dimethyluric acid
>formula C7H8N4O3
>parentmass 197.066175355654
>charge 1

>ms1peaks
197.066239845462 100.0
197.195356226239 0.554292

>collision 10.0
42.033564917343 0.77226
126.065076122887 1.39166
153.075262039867 0.505429
154.060098183779 0.934489
182.042406831505 1.39807
197.066175355654 100.0
197.193440175494 0.527389

>collision 20.0
42.0341501374284 14.1179
56.0504178971698 0.642426
57.0444002435072 1.50731
67.0278680661724 1.71544
68.0365997401523 0.604126
69.0447653456634 9.65648
83.0592536443989 13.3981
85.0403793792022 2.0789
96.053055380125 1.31048
98.0689404337406 1.12699
99.0543515269738 1.58718
108.054532279113 1.69398
110.03520419479 0.528338
110.070643483104 4.89046
111.04535874145 3.00624
112.047281691204 1.16152
113.032909600573 2.7223
126.065321478584 25.1346
138.050436800983 2.26983
139.036834261895 7.0032
151.06022625173 5.48655
153.077194936839 4.58169
154.059922281318 6.53031
155.054493657858 0.578319
165.043283037793 0.81652
169.071565960915 2.66097
179.055993082083 4.55238
182.04259117188 27.5748
197.065974533597 100.0
197.191976654063 0.638306

>collision 40.0
41.0277179647908 1.93799
42.0341086918384 100.0
42.0807448381436 0.720336
43.0298971273451 15.0234
44.0135878938671 3.62509
44.0495457800768 0.672686
53.0132157069139 11.9015
54.0298750601585 0.780956
55.028126604047 3.11715
56.0395687443649 19.7224
57.0446114514918 30.1081
58.0288225349963 3.52204
58.0641032754067 0.873858
67.0292981583014 27.0172
68.0366892988111 40.8175
69.0440782001561 31.4567
69.9914745238628 2.80757
70.0276819734299 1.1265
71.060647777872 2.05494
81.0412164583429 1.05695
82.0391012669527 3.25179
83.0517657145047 13.7065
84.0315703533033 8.91614
85.039360325127 8.18875
95.0185388289462 0.987195
95.045114891034 0.715901
96.0146021934915 0.549402
97.0435897672942 0.544757
98.0596087431351 2.1477
99.0537555075108 2.63015
108.052470490753 2.04487
109.045077180751 1.75057
110.033508541826 3.29885
111.041847190459 6.23583
112.017093276044 1.09037
123.03082703625 3.28382
124.026419628098 0.614423
126.063722485142 2.55799
135.032256895148 0.826097
137.048665121789 1.10569
138.040522058688 4.51382
139.036412304292 7.43631
151.062342018277 1.36887
167.028257599124 0.584791
182.041677020626 2.50561

