>compound Nonanoic acid
>formula C9H18O2
>parentmass 159.136960381997
>charge 1

>ms1peaks
43.0556045253944 1.67176
55.0549162612524 0.751109
57.0701745910343 0.995
69.0701630516056 0.865585
71.0876846068994 0.734066
89.0597958066339 5.95997
90.9768311636166 12.8615
103.074846817758 3.17138
112.12144590234 0.550714
117.089929845456 0.769123
122.102755759713 0.522958
140.11382036749 4.80318
141.117856697485 0.504496
158.12503044456 10.5055
158.963415876678 12.0157
159.13708758392 100.0
159.25107156943 0.605785

>collision 10.0
41.0393268584919 11.126
43.0180844490317 10.1309
43.0550524611954 100.0
45.0342520660221 1.92614
46.9883503536338 0.69851
47.0155373366016 0.69513
55.0171706804835 1.78229
55.0547988910696 28.5173
56.0187079936311 1.17422
56.0566929579713 4.50729
57.0342161043838 2.78027
57.070294347932 28.153
59.0500311767254 6.4903
61.0247204012726 0.928157
64.9789643293777 1.14851
67.055770226176 3.84675
68.0600083514252 0.933528
69.0341508900481 0.859012
69.0702678488829 23.4514
70.0733260175381 4.72791
71.048494075654 4.99561
71.0859815519452 14.5773
73.0275130207193 0.567174
73.0643231657222 2.98697
74.5226932025275 0.668742
75.0442855179145 12.2531
75.0858398562797 0.558768
79.0531653099346 1.03473
80.0540799468173 1.0764
81.0695687611965 12.8961
82.0733570724042 4.41753
83.0495493835064 8.8598
83.0854880223082 4.58238
84.0524229797529 1.70549
85.0634738915383 2.04019
85.0982620417725 2.39214
87.0469540560689 2.43345
89.0597468227052 92.3404
89.3768309668181 0.54599
89.5496907982494 0.612365
90.9765179872407 67.4785
91.06079850881 0.580621
91.250622177665 0.580537
93.0681133493069 1.80843
93.0885072375171 0.602375
94.07314710195 1.80458
95.0831337066694 2.24908
96.0888934735638 2.6855
97.0643983986332 3.06737
97.1002268127135 7.5676
98.0700108972324 1.92845
98.103800512143 3.26048
101.058142037355 3.99428
103.075557841781 53.8526
103.168455958664 0.614239
103.343959013782 0.548586
111.112677461316 1.34056
112.117050385952 1.85807
117.089783231195 13.6437
121.100282855106 3.594
122.104617226919 8.00079
123.115316216272 1.9976
131.103927609377 0.906484
139.111104976393 3.66899
140.116018540409 11.5175
141.118339357219 1.54763
158.128199954363 1.39701
158.964947250051 0.625531
159.136960381997 59.089
159.201992437408 0.565885

>collision 20.0
39.0241616034264 1.38302
41.0394039652149 35.8059
43.0188674339856 9.09617
43.0550964772063 100.0
43.1156590727795 0.807869
43.1816366625541 0.53177
43.5563929917067 0.510848
44.0549156405369 0.825176
45.0348325109683 5.013
46.9892919308775 1.29657
47.0149721215947 1.7357
55.0174097511822 2.13252
55.0549122293346 39.5512
56.0580094250284 4.13809
57.0318537863645 3.1816
57.0702650231923 27.0384
58.0711946408482 0.597986
59.0489135296996 3.3326
64.9766579773739 1.53347
67.0554363360887 3.54915
68.062961311053 0.761032
69.0696518957035 20.3887
70.0728419258971 5.70319
71.046978214566 5.55209
71.0840522207257 1.52977
73.0671846771762 1.21359
75.0447292883371 8.72847
75.0788473762997 0.647782
79.0543428532068 2.68608
80.057713115239 1.22519
81.0694191754878 7.74055
82.0708823635072 0.692968
83.0798709828402 1.49895
85.0645886165485 1.10386
89.0600890231967 20.0473
90.9774778323072 6.13416
91.0554457466695 1.07801
93.06905712364 1.36362
94.0722198479976 1.64855
95.0841440794783 3.25577
97.0995745882925 2.05294
98.0651679301993 0.990304
103.074632059995 6.53041
103.101935569936 1.06989
117.098731760157 0.671396
122.111547089399 0.516952

>collision 40.0
28.9992065163971 1.04357
29.0374089030332 2.71739
39.023642949935 9.54281
41.0393351150085 100.0
42.045314481995 3.02461
43.018711860604 10.6675
43.0549697594149 56.6231
43.6476670149701 1.17918
44.9998863845142 1.30022
45.0334501661103 4.61373
47.0169546659309 1.07349
51.024981182504 1.09214
53.0350687869055 1.42156
55.0545065620134 42.7764
56.0189048754313 1.12617
56.0583534317968 2.6709
57.070721374215 13.0889
59.0507299018043 3.4005
65.0377004496155 1.1055
67.0557055051785 1.45827
68.0581884004907 1.28522
77.0405248023299 2.86928
79.0577854596667 0.998334
80.0582910265368 1.22905
83.0483977049103 0.965233

