>compound Chloroquine
>formula C18H26ClN3
>parentmass 320.188854582167
>charge 1

>ms1peaks
143.031957238609 1.02677
158.966437706732 0.639275
214.736221918295 0.526085
247.10195346799 1.70713
279.009711496442 1.8853
279.06612133649 0.697214
319.974660871882 0.522166
320.188784669598 100.0
321.05463872878 0.832455

>collision 10.0
69.0682078157163 1.57544
86.0981413469484 0.520574
142.161568225031 4.31261
143.032121426384 1.63105
158.963572521883 0.89171
161.10090877289 0.891477
179.041676026895 0.922593
247.036548535235 0.538135
247.097765872423 23.5002
320.188854582167 100.0
320.353370073423 0.580085
320.880610478872 0.691868
321.16604239104 0.68568

>collision 20.0
44.0491947051595 0.876024
58.0642991080768 0.876024
69.0695041002408 2.80219
74.0969835678499 3.30924
86.0951940149777 4.1701
98.0970210858609 0.667361
112.110893902234 0.552481
140.143311761323 0.915045
142.158781557046 39.68
142.536179737948 0.566682
164.024619615672 4.04412
164.931059757632 0.597749
179.035607912519 2.6113
181.529509972048 0.568079
191.039700189516 2.43294
192.05156937062 0.935046
205.051610415195 0.916471
247.099069662407 100.0
247.39452568186 0.733965
247.468905883882 0.637534
247.550387220477 0.763356
247.813538526393 0.767111
248.105874214709 0.66338
249.05666818402 0.592251
318.163134602279 0.590485
320.189176281189 36.6394

>collision 40.0
41.0380992934919 19.9946
58.0660039577063 9.09101
69.0706335132175 40.4352
71.0767611155581 4.39473
74.0971101439664 9.77566
84.0842195934762 1.77879
86.096966496669 81.3484
98.0909354037905 1.68631
100.115366747972 3.05814
142.15829933566 45.212
144.067541564207 4.30416
155.058142898439 2.24997
156.065727653997 12.6257
163.014063475804 2.19614
164.026360857679 3.1988
177.034111375032 2.0684
178.029690658056 6.05579
179.036874596217 100.0
191.035911138067 40.2071
192.04386186253 4.1569
203.03731673091 8.06657
205.053191143023 19.7849
206.059666887963 2.44244
219.213662609756 2.46847
247.098632409936 49.7684

