>compound Isosafrole
>formula C10H10O2
>parentmass 163.076225127892
>charge 1

>ms1peaks
105.070391244042 2.17483
122.057994588105 100.0
133.065702091753 6.35489
135.043165723014 2.33078
142.066726427073 1.32241
142.568871664702 0.500856
162.066676827563 2.84241
163.075585178401 68.2939

>collision 10.0
55.0162059691891 0.754073
65.0372461308859 0.55301
77.039556418352 3.98265
79.053794338999 4.18717
80.0534759025965 0.578774
84.0820659854922 1.34273
86.0213008416119 1.15111
97.9658124333803 0.593816
103.054169383407 2.15401
104.061414848749 2.43709
105.069865984847 74.884
105.183716376567 0.508179
106.065240145059 1.68093
106.530671296925 0.951239
107.035953591397 1.0129
111.059381194689 1.16841
114.043144703907 5.03823
118.062067146376 0.804715
120.071224889577 0.656807
121.025936425467 0.757316
122.057998285555 100.0
130.063171327965 1.15372
131.047142130794 1.19944
132.070981029112 1.31084
133.065284668695 71.6517
133.346168034787 0.507657
135.044516655298 36.0221
145.063327052151 0.700552
161.058763701347 1.03457
162.065566334382 9.51673
162.134879168738 0.954397
163.076225127892 62.0332
163.117252362956 8.18385

>collision 20.0
51.0240759196107 1.85371
54.0088321575846 0.683806
55.018675581718 3.67057
65.0406269555374 1.79205
67.1212202879661 0.671419
73.8339404140365 0.706918
77.03934962967 18.7913
78.044803495552 1.47394
79.0549761203709 30.709
80.0512325274246 0.790739
82.067174877784 0.625221
84.0793945896265 0.860651
86.0189014545798 0.917018
91.054740564801 1.85858
92.5256469035354 0.889649
93.0324705897732 1.07809
100.98886260418 0.861895
103.054622981502 17.5165
104.06177128667 3.92168
105.069921692622 100.0
105.162738138629 0.786603
105.57514822794 0.589207
106.066859977409 2.43613
106.530644882825 0.728745
115.051745382146 1.85319
117.057476813493 0.960991
120.075508716468 0.930611
121.028618773707 0.766969
122.053656390514 3.44199
130.065327800742 2.31835
131.049299469391 1.93351
132.071712629142 1.99298
133.065447874572 25.2955
135.045189498128 30.0751
147.040385545118 0.957959
161.059279322151 0.509457
162.061169614682 2.25967
163.078783386042 2.65941

>collision 40.0
39.0239691074948 2.20601
41.0424388310479 0.515843
51.0247343954307 19.4264
52.027956487022 0.669736
53.0382688795919 2.08114
55.0212652393734 2.62947
55.0526053558449 0.872904
65.0399191952208 14.697
68.0263966170119 0.515592
77.0395586910319 100.0
77.1169972667561 0.636071
77.1609384591365 0.571857
78.0468040919397 3.46028
79.055062482974 23.8684
80.056483078671 1.68739
81.0649098745437 0.596459
82.0625138367933 0.69414
85.0081044346048 0.610112
89.0361463133726 2.50976
90.049144260918 1.40656
91.0520350918258 3.80695
93.0340526524028 0.615458
102.051379584982 0.580271
103.05517096886 16.0503
104.06091114105 1.48836
105.031362213532 0.895481
105.070709914951 3.77265
115.052836007189 1.10988
117.056299627123 2.69019
121.02826966889 3.10235
122.079680872124 0.645207
130.062365550802 1.0346
131.04428577783 0.568351
135.049034248068 1.27629
147.042379514394 1.89872

