>compound 4-Nitrocatechol
>formula C6H5NO4
>parentmass 156.02864099839
>charge 1

>ms1peaks
110.035495175973 6.98007
134.521919730157 0.824789
135.022349074837 0.666445
139.025476273718 3.11858
155.063152176704 2.63469
155.143582004662 0.692423
156.029046868736 100.0
156.133688784116 1.00351
156.174103459257 0.726079
156.324238740581 0.505729
156.526912254179 0.531714
156.732610596294 0.530475

>collision 10.0
53.0370984302142 0.708137
55.0186590118884 1.29317
58.0674033261188 0.8918
63.0254542624668 1.6368
77.0100081397872 0.989714
81.033534755881 3.75345
85.9560470602201 0.525831
87.0297220792 0.587735
87.0633920967296 0.593511
93.9884403005376 0.523751
95.0236830098604 0.561031
95.0866783365755 0.978965
96.9898225586578 0.869123
97.9946676610756 0.689885
98.4946323357818 0.643743
107.014273948824 0.577757
109.029200630481 11.5377
110.036282105323 100.0
110.093781686069 1.41049
110.138043254397 0.602325
124.992645569843 0.518223
125.023551318093 0.886069
126.031221453337 1.01329
129.036649718971 0.877887
139.026027511463 64.8391
155.105220625424 2.34723
155.145241812151 0.98877
156.02864099839 60.368
156.08058144296 11.0488

>collision 20.0
41.039895172797 0.993462
43.0187453558939 1.93186
52.0305185020879 1.57182
53.0388979787009 12.5418
55.0187075240081 11.7086
56.9688575117897 1.55343
57.0686949824815 0.844304
59.0297834451961 1.02199
63.9960360785946 1.79763
64.0306216384334 2.1892
66.016027243524 0.994536
67.0568134317828 2.21921
79.0235183189104 9.58008
80.023745784608 2.12013
81.0344751349536 36.4707
82.048848920608 2.31342
85.950807126772 0.946588
90.479651745704 1.16356
91.0193715826328 2.0028
92.0234661054648 0.730727
96.3947666839686 0.816668
97.0271108827473 1.24777
107.012045067987 4.83395
108.019563416294 1.26439
108.49579506584 0.992432
109.028496800593 100.0
109.10275862866 0.897522
109.367779031027 0.891671
110.036084411851 98.6497
110.137898810344 1.22652
116.915293697449 1.28704
124.06769495024 1.16664
125.006152770217 1.14637
126.032865963181 1.09442
139.026427123634 94.7127
140.090735083724 0.739756
145.014411294133 0.828488
155.166696469496 1.28221
156.026932501056 1.89485
156.080147405078 17.2626

>collision 40.0
27.0245016098939 2.00785
28.9994173968941 1.4876
38.0169180282375 3.66817
44.0486283655094 1.69458
46.9958541310752 5.93902
51.0239434712013 6.20938
52.0333403621444 3.51808
53.0015875043252 2.18709
53.0393334351865 96.9511
55.0189705253255 100.0
55.108108748894 1.39163
56.9649101632097 1.62209
61.0115764469556 3.03207
62.0175118576996 4.10855
63.0241888842098 23.7874
63.9976005132063 13.4023
64.0320309821536 18.5052
65.0402859002589 1.57689
67.0515237605217 1.90205
69.0577830421172 1.56464
72.9452102474334 1.92469
77.0393691493419 4.57122
79.0191828628554 3.72133
81.0345570371824 50.5109
81.074505713294 1.93678
82.0426463100152 1.97237
85.958448320622 2.61518
91.0197600234186 9.93141
103.050647703093 1.78997
104.04666947705 2.19105
107.013479356108 4.48837
109.028600466117 5.25639
110.033535505143 6.47161
111.870934486042 1.59151
128.058097294717 6.59342
134.892884695519 1.94258
156.080567699859 4.19487

