>compound N-Methylhydantoin
>formula C4H6N2O2
>parentmass 115.04957612227
>charge 1

>ms1peaks
44.0499534924378 5.29665
44.0814866488513 0.615842
55.0574688697608 0.810185
69.0749363065698 0.562849
72.0535705875025 0.785226
72.9893283310425 3.45457
73.068078715798 0.53463
73.5325706689029 1.69299
73.9363943733429 0.84987
73.9900956424836 1.90132
74.0629223160927 0.952694
74.4849823766988 0.528485
84.9620797234755 0.683343
87.0553748321437 18.5815
87.1664538491504 0.604575
93.5053324081418 4.95357
93.5498408720662 0.51756
94.0466231252586 1.72613
94.5003427620365 1.7614
97.0369094876726 0.689625
98.0916976742975 0.84177
105.019164418406 0.651435
113.959588676259 0.763258
114.016435249729 2.12853
114.092919185841 2.15088
114.958861285284 0.823899
115.049687314182 100.0
115.146125540099 2.15981
115.196595747296 0.910714
115.23000913282 1.16781
115.33058531015 1.30054
115.411237572827 0.515217
115.809960772866 0.601249

>collision 10.0
42.0334814487439 6.34225
44.0112818013982 3.91069
44.0500995521985 73.4078
44.1110341076144 1.47238
45.0344435359231 1.23184
53.0186184376089 6.82347
54.1087282472116 1.09514
55.0516333893199 1.29714
58.0681215310098 1.34643
72.0487239711795 2.56539
72.9922287807655 12.2149
73.035872185101 1.3531
73.9261921045542 1.65357
73.988361891459 2.3303
78.9867053330879 1.15986
85.4941315253571 1.91811
87.0547434824367 73.8006
87.1372423888116 1.50893
88.03831142011 2.12667
98.0963998489549 4.96454
105.941619692424 1.51784
114.032189075439 1.24613
114.090764706688 9.38104
115.04957612227 100.0
115.118826548071 2.5959
115.144777607384 1.59696
115.226455595742 1.66919
115.275928076177 1.31187
115.451456924733 1.02386

>collision 20.0
39.0233187468164 1.11238
41.0380343694896 1.21754
42.0333522256211 1.38502
44.0149280220652 3.57968
44.0503885565015 100.0
44.1111331962013 2.12019
44.1357169285793 1.24
55.0554770568101 1.79331
69.0347672997164 0.985065
72.937296177841 1.30514
72.9866235349648 1.59475
73.0611475605465 3.48191
79.0533853174632 0.937793
87.0554462452574 19.0073
98.0947736669353 1.14982
111.356346384578 1.13239
114.096354296078 1.04998
115.050399539712 1.92629

>collision 40.0
31.0166984667168 5.65418
39.021642207117 9.8262
41.0368663997386 5.72107
43.2232699678165 3.45121
44.0133922471261 26.9973
44.0503850033925 100.0
55.9327386930051 3.96188
58.0288693824151 10.6461
91.9268855094954 5.95395

