>compound D-Pantethine
>formula C22H42N4O8S2
>parentmass 555.251469391582
>charge 1

>ms1peaks
295.124550309384 2.05786
425.187750715523 38.9038
426.198503371864 0.878149
537.242079356717 2.60651
554.170848496914 1.29986
554.386021589051 1.31276
554.642800220958 0.763177
554.877361198791 0.871567
555.25075810379 100.0
555.40752844188 2.09716
555.5173592064 0.896949
555.704800340326 0.697072
555.765524408545 0.64233
555.913639813895 0.593158
556.073714573475 0.752654
556.245708785291 0.885557

>collision 10.0
147.055430745161 0.978674
278.0945891973 0.606934
295.124490284167 14.4475
297.103177232163 0.534294
407.176815881379 1.65723
425.187675278957 100.0
425.366469589168 0.652228
425.494351523126 0.509746
426.189992731691 1.22165
537.239387786827 9.77844
554.377501050464 1.40139
555.251469391582 22.2612
555.446376737145 0.545034

>collision 20.0
147.056645990277 5.8795
224.087654276424 2.24754
266.096948001197 1.44947
277.117206994175 0.736264
278.099391704624 8.05257
287.075784649739 0.891502
295.12555331541 100.0
295.278738009032 0.530983
295.538873082338 0.588449
295.659434240952 0.540976
296.124741936228 0.512235
297.098866849131 0.570145
297.597745742506 0.544933
305.108721141541 1.34842
407.175972198313 16.8569
425.187817645328 95.5655
425.391624352035 0.739166
425.498620465414 0.683796
425.842962972034 0.651723
519.227064243435 0.647529
537.240707962653 22.0288
554.379592874123 1.00745
555.350471714316 1.28622

>collision 40.0
45.0356055824797 0.950164
71.0622366526237 4.98663
76.0199820421534 0.986758
77.0055812118447 3.08338
86.0764203736067 0.686178
95.0491149599935 0.873459
98.0272057930476 0.694922
99.0525662819443 1.28387
100.039504120931 0.702068
107.990993164941 1.13556
113.061531489563 1.53291
114.037547400499 0.977142
115.087017151348 1.17097
116.029686056334 0.636126
118.032111021617 17.7255
124.072797497588 1.30389
130.031931245213 11.3163
131.06473704522 1.46722
132.047432410304 0.7984
140.09946396201 0.586573
142.084654463179 2.9853
143.080038767487 1.03121
147.058449781193 100.0
147.583517452996 0.516956
148.058117001469 0.635735
148.097533569543 1.16602
149.074166501029 1.84703
150.006207865943 1.05382
156.096204489926 0.888883
157.041982691176 0.649612
157.113420741568 0.888486
159.061112920951 1.39032
162.003249764201 0.704303
164.022707948311 0.609032
165.104080049851 0.628341
166.080822225261 0.506582
173.033480185726 1.36118
175.052182876906 2.85579
183.11802703103 1.28383
184.094256296606 7.57615
195.05922885185 2.23287
202.105896661356 2.2477
203.049442239623 0.66732
205.014887531744 0.626045
207.061092863256 4.46981
213.12341054769 1.36535
218.096012270679 0.989123
223.571547636465 0.577596
224.086706264823 9.49922
228.075667948463 0.738518
228.143900201408 0.540657
237.071942570912 1.52451
249.07194370552 2.62601
259.111195963416 6.29563
260.085188737134 0.765502
261.072786136438 1.19085
266.100769289397 7.49063
277.121094439706 1.57378
278.098620189753 18.9938
280.069269886256 0.583453
295.124410156674 28.5559
305.112160520706 3.56582
333.113588856227 0.58394
336.142859664733 2.81436
378.150587861558 0.573459
390.152579867593 1.36225
407.176185054959 7.27895
417.164249358614 0.507492
519.230572365842 0.996437
537.244552682089 0.899961

