>compound D-Threitol
>formula C4H10O4
>parentmass 145.046714687255
>charge 1

>ms1peaks
105.48231005003 2.19114
105.980880229101 2.15304
136.976758855589 0.613365
144.028695400259 0.877639
144.488943325246 9.46516
144.987986570101 10.4922
145.046644569948 100.0
145.15643890052 0.615559
145.48918116318 1.243
174.48918116318 1.0e-13

>collision 10.0
45.9847929094536 0.595773
46.9956176098894 3.78229
54.9382593969711 1.50476
60.9574164408196 0.929692
61.012021072078 2.10541
62.0191713188532 27.8273
62.9893293153302 4.58928
70.0611756490614 0.600725
70.9570617813296 1.11262
73.9991573405647 0.905582
81.9977333701497 0.777182
83.0084085211118 1.63603
90.4574675467411 1.22359
97.4671320414563 7.5903
97.8025059416658 0.601861
97.9703007814412 57.7709
98.037677681707 0.83343
98.1640752950017 0.670385
98.4704597864428 8.92994
98.9679891082991 4.70043
101.921175800833 1.40697
104.010979231357 0.510945
104.981445347783 0.698543
105.482219411664 95.0935
105.981309445626 62.6548
106.479032291479 6.57075
111.013624620884 0.833371
115.910587882715 0.947687
116.909041557981 4.2851
117.925897707551 0.75593
119.929109419101 0.830016
131.942706808223 0.850777
132.947953406071 4.10791
133.924751070032 1.87085
134.919754646817 12.4686
136.978731372262 2.91188
137.47299267882 2.03575
137.978741432247 0.774504
144.4878129528 1.97998
144.983962857024 1.22931
145.046714687255 100.0
174.04671468725 1.0e-13

>collision 20.0
36.9824618702462 1.04009
45.9890927725877 11.9934
46.995644676203 37.6528
47.99776367856 1.1021
48.9926435527902 1.20479
54.9409261747293 6.1966
55.937872434407 3.2119
56.9410121654905 2.20208
61.0103949461602 12.1634
62.0183581701996 64.256
62.990707400467 43.881
63.995947190071 1.93907
64.9851125958223 1.40083
66.4720179519318 2.16545
68.9622485860452 3.65052
70.9580011648039 20.0238
71.9406077709193 6.00255
72.937322784249 13.0387
74.0019951568745 4.54396
80.482077629738 0.871493
82.4423283931465 2.80968
86.9752830907181 1.79423
88.9125990984121 5.66493
88.9506127659436 1.34235
89.4492246745753 2.29122
89.9546564397545 11.8921
90.4596444777968 10.2844
90.9515564839882 2.76428
91.4539631278447 0.936336
97.4674547542745 26.684
97.9702686085282 100.0
98.469593962794 22.3585
98.7378369975553 0.83636
98.9662611446357 5.99191
100.075210149043 1.43174
100.447245987705 0.872604
100.923423962619 1.50114
101.923956015 6.4812
101.973271539319 0.878698
102.938881909306 3.63676
103.901006159309 1.95068
105.480504573795 9.14517
105.979776771388 7.84493
114.912017074338 1.06516
115.912821855341 10.6406
116.909288458642 29.5263
116.985434678174 1.28932
117.928235177812 10.3964
119.937777213372 1.28649
132.950223011117 27.8355
133.922100497337 12.9338
134.919135870242 34.8809
135.951279615054 2.06504
145.044303254893 1.04942
174.04430325489 1.0e-13

>collision 40.0
34.9934297208524 3.78047
44.981445582658 11.9668
45.988318633669 18.7894
46.9954965294173 60.62
47.9665803377554 2.30373
48.0020776599403 3.3912
53.9388148238642 5.87379
54.9380979705775 100.0
55.9353394178461 62.9386
56.3277737704912 1.89023
56.9415854807069 9.19647
60.9592259470375 10.6516
61.011203937613 17.2135
62.0183581986963 43.6365
62.9904029115168 96.5272
63.1885347731647 2.20553
63.9904373820821 2.26492
67.4572052772162 2.1455
68.9614059542392 1.93656
69.9352818835656 8.3037
69.9601653317262 8.20129
70.9580135594178 27.5429
71.9390101512356 31.3491
72.9373998096523 81.4287
78.0136257636812 8.07562
79.0258352175087 3.63049
82.4420458022096 7.38464
86.9135722601693 3.06132
87.9061328593937 8.4185
88.9130696989201 4.82141
89.4509533526528 4.72904
89.9550725970487 8.40101
90.4630950905615 2.62131
97.9691075270248 4.69067
103.902431311894 3.22875
112.916737009557 1.90143
116.914911665619 5.24416
117.926489256162 6.61677
118.920354439646 2.27611
132.954646207727 1.69766
133.912153912441 3.7689
162.91215391244 1.0e-13

