>compound Enterodiol
>formula C18H22O4
>parentmass 325.139970849294
>charge 1

>ms1peaks
54.9807838874916 0.827762
109.403940291753 0.922033
168.921419456924 3.3723
168.984707297852 1.20226
182.99360798007 1.51215
245.931326536784 1.16966
246.929322164352 45.1006
247.003031083421 13.0444
247.177838968195 3.43595
247.258091194705 0.830054
323.953640173751 4.2726
324.199096490233 1.2624
324.943398616073 13.5991
325.140742294263 100.0
325.571840720275 1.19211
325.716100274884 0.874705
354.71610027488 1.0e-13

>collision 10.0
46.5324924370385 1.53132
124.997290201157 1.46091
168.919164751559 3.15442
168.987640701887 3.12514
246.932802600051 15.3536
247.003411840084 7.06516
247.180748132587 12.0495
248.519698673128 1.0279
255.075373438432 0.991716
307.15102413145 1.5822
324.204964910279 2.01218
325.139970849294 100.0
325.230499808163 2.32371
325.645275661015 1.12527
354.64527566101 1.0e-13

>collision 20.0
85.0394479764189 9.66408
90.978683303416 12.7878
125.000325720508 8.9969
151.069692048357 8.11366
168.914637271551 100.0
168.986532321715 67.3824
200.957452411812 7.61203
247.007916598588 12.5894
247.17689887735 11.7096
325.142063322063 59.4285
354.14206332206 1.0e-13

>collision 40.0
67.0553052256307 31.1903
90.9042992596499 37.4995
124.998049941577 49.816
153.892659136998 100.0
167.920117878032 27.9471
168.996330281947 38.0969
197.99633028195 1.0e-13

