>compound Xanthurenic acid
>formula C10H7NO4
>parentmass 206.044237914873
>charge 1

>ms1peaks
132.04380051581 0.551226
160.04174270312 1.76172
164.918598571391 1.00522
188.032009119187 0.657164
206.043911906533 100.0
206.134640931304 3.78161
206.436071339046 0.504687

>collision 10.0
58.0671890180173 1.27507
132.043497911982 5.91855
134.077173906017 0.802752
158.071517205179 0.870645
160.038193793103 46.2917
162.051031385936 2.80903
164.921033386867 1.929
178.046234387282 1.41207
188.033591879658 42.1512
206.044237914873 100.0
206.142112709781 2.24663
206.498550066572 0.558177

>collision 20.0
58.0650766003797 1.06995
104.049657930374 1.01149
132.043949129454 23.0471
160.039018856918 100.0
178.051054539746 1.53483
188.03551680283 6.57669
206.041892885271 2.82703

>collision 40.0
51.0236717895567 3.24713
58.0659205686818 5.12573
58.9884563039209 0.667147
65.0412443153814 0.887266
68.0123898647478 1.07798
77.0390707730139 42.4015
78.0350046615194 0.777484
92.022259471161 0.561028
102.032839474325 0.994116
104.04955745831 25.6319
105.034295191936 8.15003
114.031881951365 1.82974
130.028794201574 0.745281
132.044058581811 100.0
132.126832696848 0.63238
132.428807817381 0.663829
160.039824791111 5.22118

