>compound Zafirlukast
>formula C31H33N3O6S
>parentmass 576.215601900847
>charge 1

>ms1peaks
65.0495915792847 0.546945
155.528619618717 0.592893
164.919281192625 0.515247
167.103349886 0.6741
183.099850211314 0.890258
213.142472207571 0.979536
266.379191180865 0.52723
288.210114859379 0.513163
293.118369860349 1.02186
309.27330555946 0.504786
337.117164810442 25.9979
337.281284442822 0.606486
337.384286569485 0.622199
338.108905293066 0.989495
405.181771604697 25.3105
409.644655091284 0.590824
463.149288356059 0.809202
464.164803982088 35.8978
464.356396231178 0.826136
465.006717469948 0.803487
468.327147602987 0.503862
490.140943115063 0.546996
505.204668475711 0.707462
508.156222927429 24.4311
508.34592218673 0.65716
508.841599181602 1.20403
509.15171866919 0.705504
509.954557286244 0.515944
523.34503111967 1.23428
532.230409501853 1.92481
558.223995524462 0.547602
558.382327332916 1.14494
559.375793408416 0.504699
575.402141000737 13.1786
575.820980924635 0.642084
576.215601900847 100.0
576.35976226881 11.7787
576.621239036462 1.5877
576.755074303962 1.49479
576.939627699924 1.96649
577.087699686966 0.787432

>collision 10.0
83.0844204332572 0.68442
86.163184899038 0.614307
97.0622361716308 0.784314
99.0803420882171 0.684745
111.116361466139 0.604361
135.127369894383 0.50913
141.087475204843 1.16835
159.06343525035 0.808032
160.094712922964 0.784028
165.056293815911 0.557943
169.099349079537 0.552427
186.218968314571 0.568312
193.605094458272 1.00295
209.151777177449 0.541678
218.09045450914 0.819469
227.124777579777 0.632153
251.132052382685 0.525784
271.10667097983 0.939214
272.182155846848 0.773599
293.126184799381 7.31587
307.241262053889 1.17601
318.077472948302 1.97099
319.109528164911 4.30961
325.154412578208 0.52455
331.216148829222 0.941176
337.117169589506 100.0
337.274830152331 1.81785
337.330358093411 1.35828
337.48634196636 1.19911
337.562515078346 0.979864
337.727480950997 1.0267
337.827434927761 0.841639
337.896981972226 0.534116
338.141626472794 1.54077
338.953359472479 0.79646
340.124975229051 0.614841
405.180296866504 41.9278
405.390242040808 0.679136
405.658447231935 0.572659
405.757223454837 0.544248
405.885110324516 0.547551
406.183346273423 0.861404
463.148983987872 0.81388
464.166091282221 67.5259
464.359320731209 1.21956
464.427366746296 0.899239
464.719073666772 0.566903
464.842901270569 0.660767
464.963115476308 0.565192
465.050063382096 0.864491
465.174777338843 0.548462
465.33358909652 0.509833
465.528586088047 0.565433
465.648497212072 0.591043
466.054102754441 0.519469
473.274119548682 0.580361
490.14293322407 1.99221
497.232756268648 0.568703
508.152082357047 6.28235
523.313877693488 0.689664
532.221578247721 0.909012
540.344929037198 0.88135
541.312276287557 0.596713
558.334224444316 0.72113
559.260533806212 0.844764
575.205741180963 3.17143
575.406839640676 10.4691
576.216811679194 8.98891
576.410460313436 4.84185
576.888816702849 0.590029
577.085125567092 0.517873

>collision 20.0
43.0196593245765 0.717103
49.0882038900537 0.537245
91.0559708578197 2.4075
97.0658662723438 0.764216
101.061709494467 0.615459
109.060440656253 1.21225
109.100293513986 1.11924
113.058119645827 1.54808
123.040597436515 0.685413
123.078620093179 0.924085
123.109061296804 0.711189
135.115615589656 1.21208
137.069228602078 1.1016
139.115397323449 0.566225
141.053115274117 0.706277
146.081019863163 3.04437
153.086770154828 0.577214
157.086842735141 1.33768
159.092558503182 0.853144
165.120957765009 0.593279
173.127646256206 1.09793
185.065430265987 0.525078
191.066747949959 0.968225
199.120348183582 0.574497
208.071999001967 0.699108
231.214720135644 0.577652
237.102800253552 1.19519
265.130715330204 5.20628
275.129721969926 0.507043
293.128054223862 19.8073
309.138559219085 0.820163
318.078055370805 8.14763
319.105038883791 18.97
319.828715535153 0.505232
321.116961484474 0.546603
337.117652225077 100.0
337.277118585142 1.71965
337.335988703383 1.00788
337.401671037696 0.52247
337.558433879849 0.728177
337.646691867346 0.673882
337.757693709174 0.860149
337.839083095589 0.899095
338.123794084267 1.63469
338.348549830941 0.935868
405.179924510236 17.6206
405.743271963762 0.576684
419.254227629731 0.740192
463.154822178499 2.22966
464.162516585632 31.5576
464.362809346359 0.675441
464.506468337525 0.576691
490.142052054468 0.632071
502.134897304703 0.587626
508.151210191539 0.650554
575.412227443744 10.4007
576.216791264628 3.50232
576.40479577238 3.33633
576.894825820317 0.707143
577.068665660531 0.597704

>collision 40.0
43.0177361861273 6.48369
45.0350812869272 1.38302
52.9545389988782 1.47989
59.0484491529603 1.85679
69.0698194882258 2.02575
81.0697904085403 1.78704
83.0846992453817 2.64901
84.0873699565008 1.85445
85.0618262884446 3.42595
86.057913096161 1.41453
89.0381927670114 1.53609
91.0543532504346 18.4697
93.0719173095402 3.19882
94.0269222248065 1.52469
95.0850423064635 2.95181
106.063266039962 1.47907
109.102787406288 3.67413
111.07942161312 2.76234
113.095488790747 1.63485
116.072047002235 1.60428
119.048318131465 10.6213
120.054289360469 1.91482
121.065200391498 4.08847
121.098768910244 2.5567
127.074700422839 1.50001
133.095974563195 1.95137
135.041993436675 1.74494
137.0581709002 9.06427
137.108262177972 2.02837
139.032670096223 3.74052
139.075904278294 2.09906
145.071870978118 2.73343
145.107042108535 3.64973
146.064546503471 13.1294
147.043616207092 6.61098
155.008661657964 2.04951
159.090704310748 16.22
160.096930376345 6.35888
165.053602174639 4.27935
175.142926003897 2.23893
179.124169190125 5.40997
185.067631482822 19.1369
186.079366414875 1.75513
192.18175271213 1.39544
195.100653995873 1.60407
203.08101626663 2.90404
207.094925198956 2.32966
212.069190078263 1.54026
214.147808686952 1.30951
226.308771198491 2.06914
233.104846158434 2.20345
236.088692093634 1.3404
248.02628745506 2.67546
250.111018093508 4.93032
251.105595814434 2.42926
255.124524674679 1.54708
261.098544344263 6.96086
263.116156491955 1.64305
264.125312896669 2.29124
265.134190386314 97.5148
265.386484756928 1.38467
265.462882333101 1.43668
265.594224291184 1.59312
267.298807989955 1.31635
268.091085795253 4.87205
278.10858352325 10.3409
283.00267946253 2.25242
283.188943888777 1.56845
290.071733884116 1.52553
291.121710778763 7.93619
293.126919557991 27.8919
309.135465936984 12.7736
310.124617096339 2.67869
318.077374927795 7.87055
319.108035393621 100.0
319.193708918143 4.13558
319.252824552977 2.04708
319.337567969865 2.04233
319.956394963819 1.39716
320.112813739798 2.23447
337.118842566643 38.0286
337.207501509435 1.37299
341.435785585004 1.28543
377.173640915174 1.39109
377.396516243183 1.47942
464.158179772738 2.24577
575.295738090079 1.44126
575.411301613933 13.5203
576.417831799956 6.43195

