>compound Mitomycin
>formula C15H18N4O5
>parentmass 335.136986790705
>charge 1

>ms1peaks
242.093067806374 40.6379
242.232597769152 0.827058
244.10838358559 0.580615
274.11937853014 1.36766
335.136986790705 100.0
335.298853541638 2.62673
335.359064747633 1.18074
335.521167246792 0.581259
335.58685656625 0.5339
335.661495818564 0.51229
335.700646231215 0.506993

>collision 10.0
242.092516989906 100.0
242.232454855548 3.22082
242.278963969026 1.252
242.320704529281 0.673377
242.382645491315 0.558279
242.422754745572 0.580943
244.108228831526 2.70106
274.119792947574 5.02688
335.136543228223 8.2007

>collision 20.0
159.054684880543 0.569804
199.083279990329 0.587869
214.09447026634 1.09157
215.07934831997 1.82556
227.078809217411 0.824329
229.082990197611 0.539113
231.075771098829 0.708638
242.090561764654 100.0
242.232453469024 3.38273
242.280619534577 1.35096
242.346508445587 0.561374
242.421676330609 0.57285
244.105931543225 4.87384
245.089782888315 1.03665
274.116208013795 3.83591

>collision 40.0
54.0352491224501 0.912846
56.0508059611761 1.31289
65.0393417716777 0.582691
77.0391181364813 1.3854
78.0350625720267 1.58857
79.052108902686 0.792706
80.0499500216514 0.741446
82.0290734475756 1.27757
84.0445945349516 0.725564
86.0610578537013 0.615587
91.0540698021303 1.12731
92.0501863617856 1.22622
93.0557003802528 0.726728
94.0623051290184 0.561833
104.049637039387 3.05737
105.053707595761 0.971016
106.065304839117 2.37225
107.062833806955 0.514031
110.060010897034 1.95001
115.054273927364 2.8909
116.049406655372 1.50757
117.05970853594 2.3567
118.06129508846 3.28165
119.062858912723 1.13693
120.049302845553 1.53222
127.054489435328 0.665667
128.049729282841 1.39669
129.056599413483 0.793496
130.064060731651 2.23942
131.060847024593 20.1016
132.06861516035 26.9073
133.075981580412 8.419
134.059789005402 1.96661
137.07076294469 2.71802
142.064066690575 3.3661
143.063495927017 1.90604
144.076280127676 4.33328
145.075624341896 3.90175
146.071380591091 1.45545
147.070813715736 0.850374
148.074155935521 1.11105
149.070367036697 0.934417
154.06475588333 1.04927
155.062193731705 1.59657
156.069133742908 5.80746
157.075375254074 4.19552
158.07436331645 2.69513
159.057847765966 23.0642
160.071261711911 2.18819
161.070828873173 4.70106
162.059666518498 0.797972
168.068149659904 3.06191
169.075789354121 18.8622
170.07995839728 6.42909
171.090039979436 20.9389
172.068493626926 2.44403
173.071545813453 4.53939
174.074609063645 2.63507
175.083575555969 5.62718
176.070549112567 2.66911
177.064939330382 0.827507
181.073285110871 1.44347
182.074146360865 0.64173
183.077472604141 1.36501
184.080098607123 1.80259
185.073437873424 5.73294
186.087854290292 3.85192
187.085747151364 11.1591
188.067845315782 2.70536
189.068054724702 3.06509
190.077794089551 0.641011
196.086043643361 2.47545
197.071207006582 16.9744
198.082796387322 7.32492
199.080950657335 14.6507
200.067690320817 4.24277
201.070174232296 2.36438
202.07386486211 10.8126
203.082027417385 5.25273
204.073103831822 1.384
205.06079425314 0.654511
206.068509513897 1.50338
212.081063453498 2.88265
213.079001465497 6.81022
214.095895859783 25.6317
215.081474034357 41.5015
215.212511017814 0.764998
216.082984573518 1.66612
217.08267754023 3.02234
218.071101638515 0.581676
219.076084871233 1.60873
224.078875968503 0.765525
225.067423894873 4.43849
226.071099522187 3.09769
227.077728666336 5.5673
228.078089453231 1.61037
229.084811148589 3.4641
230.080998596093 2.9796
231.080367840064 1.21961
240.077429653393 4.28929
241.084274648588 7.47877
242.092773872519 100.0
242.231822521296 1.86804
242.279620458758 0.895843
242.369325246049 0.588463
242.462116453245 0.525622
242.533026068881 0.514233
242.727999244138 0.512479
243.098931940996 1.20818
244.105624113093 1.45792
245.09266842707 0.963883

