>compound Maprotiline
>formula C20H23N
>parentmass 278.191878379817
>charge 1

>ms1peaks
250.158647294038 1.29671
278.191741080702 100.0
278.39581571516 9.1973
278.605479695375 0.519755

>collision 10.0
91.0546426931505 0.550842
117.069726444747 1.76175
169.100380151359 1.12202
191.084688015 0.550534
219.116187160466 1.57016
247.147663771447 0.717478
250.159098532718 9.78952
278.191878379817 100.0
278.395895830996 9.21455
278.606138519057 0.537607

>collision 20.0
91.054416967735 8.50612
117.069867949878 24.9086
131.085432479889 6.23521
143.085015428158 3.40638
169.10050117597 14.4241
178.077251391394 4.40137
191.084842322512 8.10711
219.116299426666 28.6011
247.147583716321 4.27769
250.159088313351 100.0
250.358537711145 5.07739
278.190289915608 87.3214
278.395152104744 4.28251

>collision 40.0
44.0506438596217 5.03841
91.0545105628207 39.0148
115.054050529423 9.92309
117.069817962975 39.4489
131.085330185731 10.8815
141.069591892898 19.0149
178.077326268959 55.2657
179.084980443856 4.9548
190.076994455136 5.31192
191.085269317725 100.0
191.254593559039 4.53649
193.100528273004 5.24678
203.085036029776 9.585
204.093035365436 22.7432
219.116181661798 26.681

