>compound Chlorpheniramine
>formula C16H19ClN2
>parentmass 275.131299198818
>charge 1

>ms1peaks
230.072916732293 14.5466
230.260882374779 0.523287
275.132708348055 100.0
275.337569272985 8.264
275.541583748509 0.538667

>collision 10.0
167.07257098718 0.816754
230.074617563416 100.0
230.261245342345 9.31018
275.131299198818 44.7186
275.336051830763 2.16167

>collision 20.0
167.072349916266 2.86067
201.033211848564 0.557415
202.041419406073 0.985913
230.07597294086 100.0
230.261597424977 10.8801
230.452365893171 0.664154

>collision 40.0
91.0543471087873 2.76256
92.0498303943174 1.45005
117.057331161805 4.05715
118.065107353953 9.89801
119.072566341919 1.6272
125.015145421524 8.92251
166.064571398947 1.16257
167.073115125611 100.0
167.234823551335 5.87449
180.080489752707 7.91073
192.080349154173 0.584178
193.088200608238 1.3481
194.096433823708 7.41418
195.104277071239 1.55796
201.033822762689 13.9809
202.041597842517 10.7799
214.04133947135 0.674587
228.056939726793 1.40441
229.065409755832 0.598408
230.073221390343 50.3745
230.260915390942 2.4878

