>compound Mitoxantrone
>formula C22H28N4O6
>parentmass 445.20888968139
>charge 1

>ms1peaks
88.0762546396702 0.963366
358.141685954321 1.07634
444.195845401762 2.92796
445.209165045733 100.0

>collision 10.0
88.0764933734201 9.53483
297.087954449584 1.17268
323.103573891279 0.511188
357.127554759035 0.551187
358.139821786129 10.4916
384.156118657453 1.53179
444.194623989498 2.93299
445.20888968139 100.0

>collision 20.0
42.0346455438623 0.864043
44.0494981221815 1.41261
70.065785240084 5.96674
88.0764300644298 100.0
89.079559556055 0.519489
271.071431904814 1.08926
283.072173786785 3.29322
284.078680290813 0.991
295.0715675911 1.28984
297.087185946613 11.7462
298.092211612793 0.620239
311.101075015142 0.623528
323.103017146983 6.07675
338.110656616972 1.05766
356.12339872401 3.7519
357.125662327376 3.09569
358.139481889764 45.1674
383.142133632077 0.853346
384.154619370784 6.19393
427.195111165325 1.05492
444.194633363427 1.93133
445.208141738046 62.0225

>collision 40.0
41.0396476883752 0.582684
42.0345731907877 5.20454
43.0550186445602 0.913164
44.0500815899843 7.73006
45.0337531289608 2.31638
56.0495694054652 1.00157
70.0662296762689 29.3369
74.0610136983589 4.95123
88.0764547486596 100.0
89.0794005488812 0.885563
255.075931628572 1.31068
264.068251970638 0.51017
265.069327547528 0.66315
267.074677983541 1.69458
269.059778423506 1.12036
271.071153492402 1.073
277.068837721556 0.540214
279.075644695247 2.75753
280.061616207747 1.95191
281.074912231776 2.12498
283.070816420842 10.3087
284.078902706317 2.44163
293.091950709418 1.01041
295.071341724249 2.49846
296.081068627232 1.22709
297.08672977738 10.1267
298.093868870487 0.759217
305.090160599059 2.87699
310.095179313391 0.5364
311.10249655513 1.03132
322.093892070652 0.559658
323.102902310101 3.07186
338.112141366184 0.939016
356.122623002585 0.699182
357.127241792523 1.64856
358.129419880776 0.550838

