>compound Tamoxifen
>formula C26H29NO
>parentmass 372.233077640584
>charge 1

>ms1peaks
72.0814276117852 2.9986
372.233333884005 100.0
372.470221682209 6.08712

>collision 10.0
72.0814482781685 16.6824
72.1879593276606 0.664776
129.069317433475 0.512892
372.233077640584 100.0
372.469859525724 5.8332
373.169877806346 0.661733

>collision 20.0
42.0344455483306 0.706214
44.0504821119393 1.74892
45.0583099886449 2.0584
58.0658277268179 1.98891
70.0655723195203 1.7698
72.0815603475615 100.0
72.1879597003481 5.64959
91.0543194940025 1.66779
105.069800893781 0.574128
129.069484053802 3.27166
207.115465468731 1.0591
209.09655807829 0.746772
327.174704657836 1.23502
372.232619771418 69.9848
372.469013758584 2.13833

>collision 40.0
42.034899467209 2.85465
44.0504555911462 10.6158
45.0582522499959 5.9103
56.0501468410655 1.08237
57.058329635808 2.46764
58.0659241931735 1.90193
70.0657051750986 7.02956
72.0815308978901 100.0
72.1879606907267 5.27732
91.0545758980764 2.70232
105.06952531043 0.831071
128.062001259647 1.01094
129.069141769451 3.45926
178.076813575398 1.50856
191.084915794011 0.721916
207.080396524282 0.743037
253.101168250967 0.715528

