>compound D-Mannose 6-phosphate
>formula C6H13O9P
>parentmass 283.018128465118
>charge 1

>ms1peaks
265.007964958224 0.742958
283.018157729168 100.0
283.169879718858 1.48733
283.215024362315 0.773403
283.25027940251 0.671357
283.31349664939 0.519506
312.31349664939 1.0e-13

>collision 10.0
120.966497875365 1.69565
185.041067795793 5.83528
203.051929256769 1.25261
222.996580646246 0.824049
246.999546422938 0.793989
265.006786335424 8.61065
283.018128465118 100.0
283.212799641414 0.875424
283.263687389907 0.594707
283.378402270281 0.619838
312.37840227028 1.0e-13

>collision 20.0
83.0805799875208 0.850106
107.004501518107 0.507879
120.965948347652 24.285
143.030223578233 1.49635
149.021083770278 0.727841
162.977985521163 1.0578
167.026448957083 0.938462
174.977346494673 1.30961
185.041140246734 67.8671
185.205197743495 0.600961
185.285424083821 0.599292
192.983875756167 2.06056
203.051322814442 16.9373
204.989507143043 3.26011
205.992100872552 0.53737
222.995832532352 7.99749
223.058166131153 0.611105
228.987417165878 1.5438
246.997972895671 9.21415
259.218930673749 0.552845
265.007667314731 55.6588
265.138057843564 1.04338
283.01790473547 100.0
283.227051627335 0.779985
283.357654314568 0.596701
283.509530170815 0.767029
312.50953017082 1.0e-13

>collision 40.0
67.0498319063582 59.8111
69.0375122094664 100.0
120.963317903881 75.5456
185.041725210806 58.7896
214.04172521081 1.0e-13

