>compound Levamisole
>formula C11H12N2S
>parentmass 205.079309569679
>charge 1

>ms1peaks
178.068987328687 0.811627
205.078633185977 100.0
205.257814436835 0.861356

>collision 10.0
178.068883438596 3.18774
205.079309569679 100.0
205.257809731853 1.41371

>collision 20.0
61.0121580279991 0.890817
88.0226432597646 2.94865
91.0551456089377 4.13272
105.070944040165 2.06046
117.066930923398 2.64696
118.066162015417 2.23493
123.026990792674 4.45475
128.058611821013 1.10426
129.070528802595 4.57846
130.06527656295 0.661365
131.072322081168 0.63618
135.026812603813 0.507068
144.080151454057 0.736459
145.076542384597 2.26916
146.09703813246 5.31415
150.039400053172 1.08156
178.069037153139 40.2217
188.053417871968 1.03676
205.079679578788 100.0
205.257835094657 1.45617

>collision 40.0
42.0345804023136 2.35208
44.0504388542522 2.29591
44.9802697041985 8.9475
51.023708715433 0.947415
58.9960655456697 3.28848
59.9937985310177 3.42967
61.0116080712563 7.81468
65.0394491226249 4.45726
68.0511567667813 0.794135
74.0064532787788 3.01349
77.0390649249185 15.0416
78.0465644511647 2.04613
79.0546657295573 7.42174
86.0061716701107 1.6698
88.0223282602049 2.39988
90.0463905211578 1.57147
91.0547212427471 100.0
92.0616080808324 0.629873
101.039106241281 0.626249
102.045070112917 0.510966
103.054180993565 16.0614
104.058948497133 4.28215
105.06957794517 14.2234
106.065249017002 2.56591
115.054217262201 11.548
116.058289004833 0.921395
117.061805109047 22.4964
118.065552721718 11.2644
119.076054716477 1.38371
120.081805300173 1.31413
123.025997781124 34.589
127.053508543066 5.52244
128.06065099577 20.9785
129.069891276253 5.85956
130.064188841335 13.6463
131.073091080795 4.08586
132.079771573441 3.58537
135.026247617092 2.88443
143.073239080917 0.578063
144.079947853516 4.1374
146.09561545975 1.74316
148.020656498018 0.852353
150.036107521122 2.03907
178.068302938632 13.9481
205.079408175774 2.2066

