>compound 1-Aminocyclopropane-1-carboxylic acid
>formula C4H7NO2
>parentmass 102.055278859054
>charge 1

>ms1peaks
56.0504087010847 33.7783
56.1194691940309 0.599884
84.0449237752548 1.25822
101.070535394547 1.47437
101.094966540009 1.13219
101.121775164098 0.544317
102.005613301066 2.61612
102.055278859054 100.0
102.147336908867 2.14458
102.175207417126 1.01143
102.206650089745 0.52508

>collision 10.0
56.0504021054309 100.0
56.1193955067502 2.1579
56.1395164729804 0.831713
102.055641770912 5.04887

>collision 20.0
28.0179010884827 1.62374
56.0496025504295 100.0
56.1186862357686 1.76163
56.1385647163649 0.869724

>collision 40.0
28.0196833554629 3.74565
29.014167202944 3.76588
29.0386000608637 2.30131
30.0339201420559 5.51384
37.0067361599204 0.739959
38.0172804206747 1.33133
39.0236254349871 17.4092
41.0259896933098 8.01443
42.033667867148 3.07923
44.012418560011 1.2465
44.9974870577966 19.1248
54.0333964095127 1.61171
56.0503140100697 100.0
56.1185656281835 1.751
56.1383029129437 0.828663
56.1643140951527 0.693319
56.1806212189166 0.549188
56.2721382238558 0.644944

