>compound Indoleacetaldehyde
>formula C10H9NO
>parentmass 160.075307350848
>charge 1

>ms1peaks
117.055947876543 0.64873
160.075312692736 100.0

>collision 10.0
117.057111723302 2.96619
118.065403530761 0.914632
132.082795472538 0.589111
145.051349854256 3.41267
160.075307350848 100.0

>collision 20.0
90.0475630125348 0.836976
117.057225000183 82.0403
118.064317634325 2.63108
130.065577359787 1.27271
132.080471629659 1.46264
145.052040127507 51.0006
160.075128192299 100.0

>collision 40.0
77.0389265455077 0.607237
89.038689417198 11.9511
90.0467770698602 25.5188
116.049739399488 1.88436
117.057057887059 100.0
130.065474133572 1.09833
145.050614982198 0.908993

