>compound Bacampicillin
>formula C21H27N3O7S
>parentmass 466.166274929767
>charge 1

>ms1peaks
106.066348351697 2.10909
114.037662264627 3.51212
160.042922889575 5.84067
174.05540986593 1.16406
186.058692200799 13.8699
188.074013078481 1.32392
202.098493673744 2.6976
232.064755663679 11.1349
276.091138709488 100.0
276.293683675829 3.50542
304.11208750247 3.08222
422.140103272033 5.08096
438.171431156105 0.685857
466.166274929767 81.9112
466.432969671368 1.98914

>collision 10.0
45.0348501819144 3.565
73.065180106418 0.54442
106.065497630597 11.1064
114.037525163195 18.8991
134.059563903897 0.508361
142.048149196024 0.953927
160.04280005826 27.9367
174.055081928041 5.37608
186.058681105242 40.5246
186.231387425449 0.756758
188.07334908173 6.72584
191.08158108104 0.814355
192.047917250941 0.854602
202.097800235623 17.4884
204.068182373125 0.806261
232.06449049886 32.2473
232.256746180463 0.62125
259.090139921622 2.12275
276.091348776708 100.0
276.293648000736 2.62295
287.089605124315 0.605565
304.112407442669 8.76338
305.0972530972 1.41443
331.114121203336 0.684408
333.106985823834 0.660942
348.137964277225 0.651003
376.132439052974 0.683403
422.139773862676 7.16644
438.170250915697 0.698428
466.166033112545 5.02377

>collision 20.0
45.0347118169525 19.4205
45.1181399106308 0.772133
53.039267652529 0.570961
69.0453667105638 1.3045
70.0660903786618 1.9628
73.0659052038993 2.02901
79.0555775823666 1.47021
87.0277023416585 2.70488
91.0540573629702 0.978915
96.0457345594762 0.717753
99.044553492781 0.839866
106.065508192756 49.4665
106.196334753229 1.20317
114.03753616865 99.3244
114.172886597853 2.5322
118.064338536006 1.71257
127.034073791985 1.6313
134.060133147022 4.74578
141.047156475596 1.01169
142.047259271973 6.62837
143.065803375234 0.558555
146.060375997603 0.843675
157.076849987306 2.33508
160.042781771569 100.0
160.201782709254 1.82126
164.053679000832 0.713293
165.066741535655 1.28602
171.058342548128 0.64887
174.055140684583 16.2627
185.072123197909 0.912142
186.058946852648 68.754
186.232227497814 1.22973
187.056064657721 1.0679
188.073183397118 23.0388
191.080310891491 0.582055
192.046320571028 3.01627
193.059851565813 1.21025
202.097968452751 68.1273
202.278072308813 1.30099
204.068926108373 1.71675
205.044293324744 0.894886
213.066881703221 0.62118
216.085205531445 0.663004
218.025755461851 0.99825
231.09334298908 2.22869
232.064939230634 42.4131
232.256511817812 0.768601
242.060512788743 0.549055
242.126198576896 1.06087
259.090409983085 8.56798
276.093905805227 26.8815
277.103622983772 0.702636
287.088252612415 1.45523
304.111535939508 5.77196
305.097035784925 3.99027
331.110376580195 1.10832
333.099876973993 0.919867
387.266236211254 0.510888
422.138744303691 0.924502

>collision 40.0
43.0555585814888 0.651576
44.9803642908312 0.622328
45.0345954372991 20.462
45.118147056967 0.75704
53.0396754996534 1.61919
58.9953874307956 0.740144
69.0456179624442 4.14272
70.0660484817879 2.80642
73.0652361005536 0.518257
79.0543207114324 5.68593
82.0653832679435 0.697861
87.0267977579153 10.2281
91.0550538304923 3.24757
96.0438570798367 0.61101
98.0601434638706 0.60193
99.0450368290214 0.663898
106.065513502201 55.2397
106.196458407511 1.34926
114.037500015162 100.0
114.172820559459 2.60533
116.052674052209 0.595421
118.06535138249 4.75328
119.049477685348 0.99323
121.011296641086 0.83525
126.040951342902 0.944347
127.032725863883 8.11579
128.05096370285 0.867925
130.065066831433 0.827159
134.060333740622 11.1086
137.070750259608 0.697225
141.047291932334 1.52863
142.045349825842 5.36707
143.064916031305 1.02479
146.061166836798 1.09046
157.07644532847 4.14264
160.042677996153 23.0641
162.038139274331 0.666292
164.053215693597 0.609502
165.066358637305 1.10817
174.054499273647 3.8524
185.070792650936 1.18176
186.05901238973 1.83622
187.051316049483 0.751847
188.070146700411 3.33363
202.097795899357 12.2406
231.094347777353 1.09781
259.090500553235 1.34902

