>compound 5-Methyl-THF
>formula C20H25N7O6
>parentmass 460.195797719163
>charge 1

>ms1peaks
180.08795451438 1.48616
181.09016867119 1.10629
313.140580488824 13.0582
460.192540440158 100.0

>collision 10.0
180.088283247551 7.61608
181.091733774538 3.94652
194.104449362235 1.45837
313.142325940442 100.0
314.140088643402 1.35784
331.154028996423 1.71629
460.195797719163 47.4755

>collision 20.0
120.043618872904 0.555094
166.070996819339 0.655824
179.080783035595 0.539632
180.087152726523 11.9376
181.089109385814 4.4588
194.102572736697 5.09369
313.14026878238 100.0
314.143412297532 1.2297
460.193379091126 0.886379

>collision 40.0
60.0558393467933 1.50035
82.0639824985178 0.869766
86.0356391724608 1.02934
93.0457925222679 1.81527
95.0612786652005 0.732568
98.0565322097915 0.582038
106.066744643424 1.43401
107.024015769385 1.3632
107.06005679636 3.30591
109.075338348598 2.11495
113.047661781062 1.35515
120.046921037752 5.52407
121.039353383407 0.977228
124.051832181163 1.742
124.080559089457 1.18965
126.056239071718 0.664409
127.059193688375 1.20689
132.079652905887 0.680189
134.060678495923 5.11243
135.057720068912 6.73353
136.066725410161 0.718629
138.067322158251 1.66409
139.060769944909 0.990822
140.057547443909 1.22956
149.047479100266 3.13338
149.077333634724 3.09828
151.062533441863 4.28537
152.059249094248 10.3787
153.064860729648 12.7203
154.073330429971 2.93735
163.062256662657 7.60469
164.060469603685 1.7315
165.073338342415 6.53078
166.074014763158 13.8338
177.076437111366 5.63448
179.081429240881 7.16327
180.088949403343 100.0
181.091149106398 7.81549
194.104762457787 53.0519
194.226442388197 0.664694
270.127993785221 0.794196
285.147542205311 1.31884
313.142652384271 32.0691
313.291814891476 0.681415

