>compound 1-AG
>formula C23H38O4
>parentmass 379.284997343384
>charge 1

>ms1peaks
137.132111550498 0.511612
149.094989664553 0.604447
189.163028133708 0.647768
203.179867902859 1.15215
269.22722187883 3.19838
287.238037774172 12.5881
361.275555572085 4.07776
379.285001401473 100.0
379.460529715247 1.89676
379.512530031639 1.04494
379.575752364504 0.710726
379.610215286184 0.615237
379.657767451576 0.634958
379.717248449682 0.586342
379.804580727679 0.552636
379.90374619964 0.585736
379.959574857662 0.516418
380.273298434542 0.524647

>collision 10.0
57.0712353486919 0.814347
67.0546552660341 1.57797
71.0489268868064 0.596155
71.0861645115936 0.538527
79.0535647196875 0.568448
81.0701716836443 2.17506
85.0663633152333 1.24462
85.099403469157 0.669358
91.0537324981611 1.14544
93.0703052717829 1.11362
95.086171465713 2.16857
99.0788109842937 0.768971
105.070446872787 1.69707
107.086099104903 0.889861
109.101117420532 1.04595
117.069762075433 1.36559
119.085814355777 2.14811
121.10022220313 2.066
123.114854897039 0.959481
131.085260104487 2.36336
133.100479805676 1.55558
135.106649478111 1.66686
137.130777215414 2.43365
143.084437223847 0.755247
145.101398428962 1.06999
147.115450667893 1.29346
149.097338553798 3.29396
151.111166724289 0.743731
151.148233432708 1.18062
157.102323852884 1.50596
159.114688645287 1.04665
161.112268666839 1.50936
163.126851671535 1.41117
171.116724400602 2.59957
173.131786236529 1.40622
175.138484979324 2.29265
177.162668017184 1.61794
185.13205032112 2.58669
187.147318517691 1.53654
189.160661707468 3.72152
191.179020797888 1.36658
199.147857496433 1.62124
201.162527043048 1.13474
203.178552308301 8.41181
205.184799049827 1.04113
213.164071710543 1.41284
215.179508159955 0.61487
217.159155277221 0.806818
223.132651767014 0.630533
227.17986885098 0.908438
241.187456132751 0.643276
243.208930243257 0.536928
245.22630059767 4.08479
259.23714445869 3.63273
269.226216071195 22.3865
287.237445638711 60.9028
287.388522289746 1.00343
287.439747776392 0.51664
295.190917027716 1.38066
305.247994239752 1.9424
361.274312475578 8.48285
379.284997343384 100.0
379.452936417952 1.79975
379.518977811778 0.929986
379.63331481699 0.583514
379.698460180179 0.676898
379.74890330927 0.553856
379.901720764001 0.574491
380.213914176423 0.53188

>collision 20.0
41.0387939211728 1.30214
43.0547846961342 5.64708
55.0170778434061 0.610275
55.0545128374809 2.78556
57.0347992680025 2.82234
57.0708172991568 10.5857
65.0382859373673 0.630532
67.0546454994574 16.9161
69.0696875703952 5.79381
71.0478986256185 1.13615
71.0852976553741 6.04317
75.0467486300807 0.68583
77.0389729548094 1.86801
79.0542624052035 7.57706
81.0699896392238 20.9334
83.0484402316952 0.844828
83.0857646118732 5.47759
85.064481675966 9.07134
85.1002061726572 5.26907
87.0465085680464 0.626075
91.0545687881968 13.5751
91.1096467039675 0.513787
93.069608992734 13.2051
95.085761987368 18.9443
97.0643208501979 3.79574
97.0994261973179 3.26239
99.080165339368 2.67004
101.060002942716 0.89855
105.070177156262 17.036
107.085340110917 10.4983
109.100754805965 7.87728
111.080138670752 2.89762
111.110930518904 0.932782
113.095602001717 3.09204
117.069052425476 10.3001
119.085703511019 20.2765
121.101052214441 22.149
123.116868220528 5.42842
125.096646218463 1.26282
125.130937069096 0.718176
127.109947962099 0.735653
129.066377577974 7.49232
131.084979457093 19.3642
133.100517209728 23.1871
135.112003098278 10.869
137.130833482097 6.33523
139.0748631059 0.636409
141.126141726495 0.791285
143.086217653648 7.37143
145.100525414717 13.5066
147.116203409117 13.2502
149.095680154384 12.5267
149.127352353593 6.67606
151.142442887906 3.39173
153.11937675832 0.724574
155.143228481037 1.31199
157.100289415561 13.8666
159.116086678672 6.3958
161.114272191884 13.6067
163.140315823773 6.43393
165.135501527382 1.72379
167.140307319625 1.26564
171.116797860593 18.7624
173.13246300041 7.60768
175.144596923919 15.6065
175.23706371839 0.546081
177.162934318898 8.62929
183.11625519419 0.66653
185.131957147452 21.6398
187.147809472745 8.9592
189.160677422177 23.1018
191.17763750813 5.80527
199.147713975365 12.4678
201.163311827791 6.37043
203.178892697114 45.0651
203.303878732206 0.862019
205.177875003401 3.07119
207.147306078207 1.38656
213.163427450151 6.9855
215.179777699456 3.12735
217.159876837505 4.54458
219.173518216094 1.06485
221.168496220875 1.40976
227.178089329802 4.65477
231.179148453896 1.5626
235.158787836675 0.835797
241.193360669018 3.59246
243.211603029879 5.30285
245.225922112662 13.9402
259.236910996264 15.5436
265.178245766714 0.710206
269.225873600739 74.4711
269.374436058874 1.18831
269.420041112513 0.654138
271.240491152329 1.00363
287.237320077581 100.0
287.389438850604 2.07253
287.440513857612 0.957581
287.507621378819 0.662784
287.642941365444 0.601235
287.783901893492 0.6769
295.188137950853 1.43699
305.247675474516 5.40272
309.202762981915 0.976276
323.223384926925 0.797311
361.274600683274 5.7406
379.284860682898 33.5452
379.457848562559 0.604439

>collision 40.0
29.0380447613882 0.90506
39.0234280281663 0.83066
41.0390864703221 13.5462
43.0186012023574 2.50536
43.0549381074774 32.2874
43.1146465040187 0.598042
45.0327228966433 0.505626
53.0404760016661 0.734226
55.0177885401464 5.85556
55.0549434637385 31.81
55.1227163587927 0.757095
57.0341988318408 9.80764
57.0706343474046 27.4729
57.1375178898086 0.724889
65.0392670198551 2.48412
67.0548172267452 74.0946
67.1127849151108 1.43463
67.152117576176 0.774068
67.2284384223114 0.531061
67.3373700627812 0.534719
69.0330620860306 0.552133
69.070640360408 21.2272
71.0487438230709 2.33323
71.0866262671606 5.61391
73.0282301086793 0.5679
75.0431149906414 0.966316
77.0386607920614 11.2452
79.0546058960302 69.8709
79.136479582093 1.30783
79.1633072884768 0.684917
81.0700826400336 65.9751
81.1517426331654 1.46961
81.1830099605151 0.791579
83.048379467996 4.01566
83.085393337047 11.4694
83.128080408835 0.82116
85.065189291861 6.97721
85.0986479235562 2.79257
87.0475873223852 0.800361
91.0545041246298 100.0
91.1401570439562 1.92439
91.1692208557384 0.906059
91.2562084951144 0.526054
91.2919244597693 0.537002
91.3533250483296 0.62277
91.4179639693296 0.596734
91.4689026384958 0.531384
92.0625854618895 1.00454
93.070076288544 73.3386
93.1580012114097 1.37457
93.1802044883271 0.636097
93.5117461242695 0.55513
95.0490033490899 1.52823
95.0852227949236 40.6467
95.172349161723 0.858209
97.0647524384093 6.69136
97.1005201158992 3.10306
99.0802255939056 1.73856
101.061538104344 0.748055
101.094397563019 0.501272
103.051847316763 1.56688
104.063041973596 0.866671
105.069974298528 82.9283
105.191440308993 0.813495
105.223046749127 0.583362
106.078423698769 0.610148
107.085559560298 27.3646
108.085957242514 0.924984
109.100252400485 13.3073
111.080112393543 2.64552
115.054021662067 2.90508
116.061984251454 1.58336
117.070373500618 32.0412
119.085473772989 60.1184
119.183733830396 1.19707
119.218311178372 0.668424
121.100725936573 29.4984
121.178847035348 0.580144
123.079951886504 2.80398
123.117941240379 1.94972
125.096616559671 0.946194
127.057607048405 1.00205
128.060187968707 6.54586
129.06953695046 28.2151
129.141998506017 0.660481
130.07732007235 1.23266
131.08540551835 44.3899
131.188061370472 0.630561
131.225512396093 0.543334
132.092239837521 1.21638
133.100919821808 39.3644
133.182983279824 1.10846
133.658392556219 0.556717
135.079813484568 7.47233
135.11662087831 12.1041
137.093811309485 1.11341
141.068892654469 2.28907
142.077301602734 5.17884
143.085515828593 26.5307
144.091229867195 1.12533
145.101045227902 23.8807
147.116214529027 21.1752
149.107073130076 3.85326
155.082674846204 1.24646
156.092486464747 0.9803
157.100636781659 22.1332
158.109486448718 0.507695
159.115424011927 9.7992
161.124935799075 10.4766
163.144217483181 2.54342
169.101766594447 2.63446
170.109578762059 0.751654
171.116413153362 19.475
171.216544110364 0.568451
173.133354694038 6.48565
175.142116418258 9.12958
177.160492352121 2.21226
183.118136933459 1.21264
184.127413481689 0.632677
185.131597543623 15.4252
187.146990526884 3.47776
189.158541528512 5.87158
191.173986765313 1.0007
198.140679911831 0.555773
199.148778448267 6.3788
201.16274348148 2.63225
203.175065221989 4.9907
205.175096820823 0.635829
213.164587219024 2.46692
215.17674904318 1.5639
219.175382503202 0.69123
227.179156552761 1.71401
241.196153331762 1.34838
243.211832138234 3.08229
245.213904905218 0.566548
259.206710606029 4.37536
269.226365613619 5.98801
287.237916744025 1.57816

