>compound 3-Methyladenine
>formula C6H7N5
>parentmass 150.077070023069
>charge 1

>ms1peaks
150.077122534309 100.0
150.189533396704 3.80317
150.224172502852 1.27143

>collision 10.0
109.050860915334 0.577296
123.066218859113 1.06548
133.050546873723 1.3097
150.077070023069 100.0
150.189513184928 3.92114
150.223815148857 1.31814

>collision 20.0
42.0349506085916 2.93248
55.0300218092979 2.25365
69.0451649584334 2.2348
82.0404598898658 6.00906
92.0243162391039 1.12339
94.040134056653 0.847283
96.0558496686455 6.31883
106.039768083112 1.46983
108.046620743474 4.21653
109.050894377325 7.40488
123.066522114967 16.5068
133.050708724956 13.729
134.045535674223 1.71407
135.053678243773 2.27138
150.077477684232 100.0
150.189810929364 2.44767
150.223778753176 0.773779

>collision 40.0
28.0185016300165 1.63543
30.0336225319963 0.508037
40.0190933809844 2.95464
42.034869019334 60.0222
43.0299391425574 2.11049
44.0504698036554 1.43354
45.0458237637548 1.81828
52.0191234140702 4.88777
53.014398802502 2.27512
54.0228826448946 31.9734
55.030042976043 54.5652
56.0375959350627 2.93272
57.045446487764 5.41358
65.0141217711334 6.69067
66.0219818428762 9.5793
67.0296116788504 10.5747
68.0371545406677 1.43024
69.0453670086435 25.7598
70.0403221640852 0.555294
79.0294105542259 10.4007
80.0259065241021 0.974234
81.0330908219822 35.5872
82.0404822742732 14.7928
91.01891080681 0.533906
92.0245226747625 8.95857
93.0322468014317 7.23952
94.039997806511 8.20897
96.0555745294285 12.7607
106.039703108341 5.59002
107.036246225752 1.50088
108.043245829217 100.0
108.138677957032 0.923035
109.050465156769 3.97335
119.034812816695 1.13829
123.066190101572 8.81844
133.050838953472 4.47712
134.045737807706 1.07652
135.053739093998 3.59888
150.076625118203 3.03374

