>compound Chlortetracycline
>formula C22H23ClN2O8
>parentmass 479.121678868574
>charge 1

>ms1peaks
444.086567173054 1.77401
461.113026922224 1.07762
462.097765271863 2.9492
479.121922725827 100.0
479.31101568583 5.30202
479.398940862204 2.31713
479.52537698467 1.15516
479.584927882035 1.19484
479.650411558284 0.89803
479.739643078676 0.851984
479.791016860614 0.818935
479.873352111846 0.775764
479.996048412031 0.684141

>collision 10.0
154.050686326106 0.788687
444.087568321197 29.8692
444.266987640798 0.935659
461.113833719986 9.08288
462.096292776834 43.3683
462.281781824069 1.68066
462.359056781398 0.714273
479.121678868574 100.0
479.311481033934 4.85129
479.393096369761 2.08783
479.523119917225 0.935327
479.584295488677 0.986381
479.655573701026 0.779744
479.74500900851 0.749926
479.795357119196 0.761662
479.886675508429 0.671334

>collision 20.0
86.0598230050082 1.49616
98.059869344644 3.6876
126.053980442039 2.02075
154.048866483558 8.11867
303.040317046371 0.927906
355.034716798707 0.989986
371.029758334698 1.56293
381.013815799777 0.816022
383.030692262867 0.619055
399.024427790784 1.40422
426.071967553759 2.12439
444.080080487433 100.0
444.268400990938 4.62188
444.348401113994 2.14895
444.47590219579 0.847323
444.529908658999 0.918615
444.61403813841 0.674605
444.735094865866 0.628253
444.77768545676 0.615299
444.841361966764 0.58988
444.930126247236 0.504103
445.083903751225 0.910294
461.10928461634 3.50401
462.091661300451 62.2764
462.283144877368 2.53582
462.362648342671 1.11652
462.548757074173 0.500091
479.120078103132 11.8289

>collision 40.0
41.0399270673715 2.59926
42.0350304491522 1.58777
44.050564989412 2.48854
46.0664465970595 4.64295
56.0507234393315 0.783358
58.0662689330436 7.95757
68.0504018230449 1.31616
70.0662546251135 5.35631
71.037662179747 1.36584
72.0453922341122 1.72749
84.0452439477876 4.24042
86.0609800222495 21.7921
98.0608128209313 100.0
98.1509868624999 3.40031
98.1799957009902 1.33696
100.076363848022 0.831575
124.039611887135 0.909221
126.055496830377 16.6099
138.019610480364 0.60776
139.027224347762 1.28552
144.066041176968 0.726776
152.035253445809 1.41794
154.050385675542 27.8931
154.16274637301 0.570081
165.018476829704 0.57531
181.006905291454 1.21454
194.048039002577 0.690252
196.061887605969 0.609628
197.000858724007 1.64566
207.025182812653 0.764668
221.037621527974 1.2743
222.046797735529 1.06135
229.042046778679 0.556795
235.041144846614 1.05306
240.078703303987 0.598439
245.037825468404 0.675082
247.051410902955 0.811369
249.034731077809 0.786173
257.037497956105 1.81905
259.043523634614 0.652732
260.024540237224 4.09048
261.03378246263 0.538284
264.086097214708 0.532844
269.037051815249 0.522409
273.032911597773 1.27644
275.048216498671 14.2385
276.020040832835 2.94705
285.032264369683 5.04064
286.004399689107 3.59154
287.046982395197 1.11851
288.019753861761 3.64016
290.057593456443 0.841997
291.043748113093 4.49575
297.034998680608 1.14855
299.03321920333 0.779789
301.027991578785 12.7883
303.043391689527 24.1311
309.033648989909 0.5278
310.003172282325 1.40233
312.020011904799 2.86017
313.028085900331 2.54236
315.059853229891 1.34052
316.016643482447 0.708728
317.024182887701 2.60251
325.027760201215 4.4198
327.043037635079 1.95586
328.019416140419 0.658756
329.032038015267 0.509313
330.090471699422 2.51435
331.038358113311 2.38861
335.014662485218 0.655948
337.030789006809 0.821535
337.999047815568 1.96874
340.015189429498 3.75096
343.040886463213 0.950518
348.100133842187 1.25971
353.022828091678 8.24283
355.038621366335 9.01256
356.011660078421 1.57724
365.995450497304 1.28476
366.110772472044 0.705507
368.009762547483 5.9972
370.058754718538 0.516177
371.033440610371 7.84663
381.017589198286 5.89966
383.037324706965 6.71521
384.007041860474 0.692042
398.080848717562 1.58881
399.028693720007 2.33676
411.052580104458 1.94098
426.075766948856 3.31073
444.086824543165 15.6395

