>compound 4-(Methylnitrosoamino)-1-(3-pyridinyl)-1-butanone
>formula C10H13N3O2
>parentmass 208.108820446687
>charge 1

>ms1peaks
122.059956616201 12.0887
148.075054726478 1.02136
178.110196672733 1.0391
208.108820446687 100.0
208.239003885558 1.45257

>collision 10.0
57.05817147978 3.88626
72.0817147478044 0.538727
79.0424568517645 1.06607
106.028588015427 1.72289
106.064906430709 4.52532
107.072480120472 0.52949
122.06033037986 100.0
122.161909445161 1.30194
134.060036695953 1.26663
135.067907782619 3.12556
148.07576855695 13.7737
149.107188942879 2.19611
150.114990297394 1.23088
177.101745862615 1.76151
178.110259008351 0.939379
208.108086380662 4.51379

>collision 20.0
44.0500294718478 0.779816
57.0582587241325 10.8852
72.0815314019214 2.34565
78.0345244901184 1.51411
79.0423567518175 14.5496
80.049204473431 1.34348
93.0575283009924 2.62929
100.076062684583 1.46577
106.028875997283 19.2398
106.064642977348 17.5265
107.072577386077 7.87107
118.065710077974 0.54454
121.062944474083 0.585642
122.060225789307 100.0
122.161464815362 0.993299
134.060079369847 19.2128
135.067928507124 14.0596
146.059937956191 0.666527
148.075454065307 10.6655
149.107273467546 11.3625
163.08572102609 0.650606
177.101321943794 0.942666

>collision 40.0
43.0194374807214 0.675179
44.0504341097071 3.12757
51.0239665785763 1.59709
52.0320220572731 3.84902
53.0394214253972 1.31045
55.0189752660371 1.11829
56.0501759724286 3.91415
57.0580270291562 6.76925
72.0816244085872 0.803831
77.0390297799591 1.6786
78.0342305119937 21.3522
79.0423697808482 100.0
79.1245402854897 0.708901
80.049886469385 32.1676
91.0540374382318 0.840514
92.049803371362 0.56231
93.0580148553957 4.47357
94.065423989528 0.710416
100.075309033513 1.80302
104.049181507373 0.647772
106.028734299355 5.95062
106.065171969122 35.4487
107.067330864397 3.86234
116.048945883749 1.2433
117.057249544517 1.4229
118.064775099736 1.68826
121.075482749029 1.86401
122.059947446061 30.5416
133.070854025945 0.806486
134.060154674741 27.7714
135.08308178597 0.610891
149.106891163212 9.06648

