>compound 7-Methyladenine
>formula C6H7N5
>parentmass 150.077094410456
>charge 1

>ms1peaks
133.050302281366 0.920821
150.077053228622 100.0
150.190210860488 2.79881
150.223960491529 0.944783

>collision 10.0
133.050796723806 12.6553
150.077094410456 100.0
150.190290401902 2.50094
150.223842288941 0.858788

>collision 20.0
42.0347160188199 1.57474
54.0346848557564 0.527048
55.0300709407909 0.691596
79.0294973070886 4.32292
81.0449641268786 1.17821
82.0404181206244 0.758741
92.0243646656473 0.890707
106.039860107519 12.6011
108.054967672163 0.699392
123.065987623106 1.48301
133.051050276788 100.0
133.157208491433 1.4443
150.077322832013 44.6906

>collision 40.0
28.0182222321284 1.8213
38.0035357232761 0.864581
40.0189821256301 2.05906
41.0273324155452 0.502534
42.0346935871417 39.5815
43.0303353776361 2.28612
44.0502926792553 1.57725
52.0189591720759 37.278
53.0145219704543 5.04958
54.0344915550546 19.6875
55.030008575689 25.3989
56.0375874938964 0.623208
64.0141736259474 0.680823
65.0140590473041 29.3281
66.021891036599 30.5938
67.0295892341885 12.9198
69.0448457022602 4.59179
77.0137966573514 6.84081
79.029488715809 100.0
79.111031895391 0.762914
81.0447651140054 7.5352
82.04016489649 2.29526
91.021879392094 3.6004
92.0246322504971 9.53401
93.0324356665243 2.38298
96.0558692951892 0.678313
106.039919968152 45.7166
108.044326171452 2.61882
118.028145004472 0.996548
123.06547679771 0.694251
132.042586898898 0.557699
133.050667436789 22.9105

