>compound Glycyl-glycine
>formula C4H8N2O3
>parentmass 133.060548556144
>charge 1

>ms1peaks
30.0338081313845 0.516008
76.0397890213315 38.0176
87.0558607084365 0.931894
88.0398111448535 0.693765
105.064793233497 0.74213
115.049927321838 1.35684
133.060548556144 100.0
133.166314476224 0.812675

>collision 10.0
30.0341658219156 5.57892
48.0449065805013 0.513748
76.0398040190735 100.0
76.1191595940343 0.646984
87.0553495910258 2.47384
88.0397186120413 0.537606
115.050425261365 0.74021
133.060259913085 7.89551

>collision 20.0
30.0339452025679 26.9023
42.0332466881423 0.632516
48.0456621798759 2.34743
76.0398589382771 100.0
76.1211403089949 0.534998
87.0548835191497 0.801174

>collision 40.0
30.0339061990561 100.0
41.0251748814901 2.91258
42.0342407638017 23.4704
43.0532118193007 1.61156
53.9421780433563 1.58061
55.9351022880465 1.97366
69.0471995764481 3.7431
72.9363805542223 2.35649
76.0384170932011 10.4947
77.0377119298203 2.45691
80.9418917172407 2.19847

