>compound D-(+)-Turanose
>formula C12H22O11
>parentmass 365.105160009426
>charge 1

>ms1peaks
365.105247962192 100.0
365.275014032597 0.80357
394.2750140326 1.0e-13

>collision 10.0
203.051748473901 0.71768
365.105160009426 100.0
365.274240410354 0.883254
394.27424041035 1.0e-13

>collision 20.0
203.052022037448 6.44206
275.072271017831 2.105
347.093414056799 0.894387
365.104608182174 100.0
365.275810638058 0.810812
394.27581063806 1.0e-13

>collision 40.0
27.3725161340682 1.13096
43.054906458628 1.41269
45.0319568591338 2.57786
56.0529406057242 1.65747
69.0341254343678 2.8166
81.0639670472224 1.24946
102.969805278135 3.16871
107.009129363906 1.20182
113.020126572571 4.67777
114.967459276214 1.65001
115.035824236658 1.26093
123.406063676849 1.38194
126.000903666354 1.34109
143.025392946076 1.77764
164.110522029142 1.25148
174.989939075966 1.35242
185.042104332561 7.9462
186.129974456473 1.16989
186.990895005347 1.12232
203.052266452075 100.0
203.127274311721 1.85367
203.168804226651 1.37245
275.069970839303 20.1111
347.089239400259 1.09016
350.452044586686 1.1885
365.105631440474 45.3256
394.10563144047 1.0e-13

