>compound Diethylthiophosphate
>formula C4H11O3PS
>parentmass 171.023455104718
>charge 1

>ms1peaks
38.9651204227461 0.756932
44.6980195789857 0.684493
96.948604866869 1.81156
114.960794088067 15.6398
130.012824929846 0.922092
142.992070995037 20.8849
171.023455104718 100.0
171.096787716212 2.27222
171.14212107114 1.04257
171.457150813054 0.66449
171.571844881284 0.707724

>collision 10.0
64.9749206150275 0.678299
66.6805790157543 0.768066
80.9765739278453 2.64192
82.9916678016925 0.718778
96.9506271896112 8.65067
99.970504580592 0.610255
111.077040170573 0.607899
114.961112177497 100.0
142.992846115468 20.5317
171.022795095679 7.22713

>collision 20.0
34.9970541508618 1.29618
64.9818345470381 1.72292
69.0653771524574 1.80315
80.9742745719162 15.6037
83.6140198575582 1.74046
96.9509470384795 64.4542
97.2441296333534 0.857612
114.961080368241 100.0
115.806507694744 0.827093
142.990620379803 1.38079

>collision 40.0
30.8795814252904 1.63606
34.9944322454733 2.38129
46.9666979319801 3.24994
62.963764884985 13.7104
64.9790809210183 24.3871
78.940033328559 32.107
80.974262803579 43.0743
81.4608757471694 1.37146
93.0614941186344 1.5711
96.9508705731866 100.0
114.95956275666 3.94655

