>compound 1-Naphthol
>formula C10H8O
>parentmass 145.065012042093
>charge 1

>ms1peaks
78.007178229924 1.37596
84.9593534127015 2.22114
98.9505934879323 0.8039
99.970147246002 4.38805
103.002167362723 3.18864
104.005387701895 1.01429
109.095136402465 1.54006
112.523009108647 0.949835
115.052081186321 1.14945
117.0725460378 1.37921
121.983383522361 1.0762
123.515271384249 1.41808
125.985220945948 4.62244
143.962758846545 2.75659
144.054564268591 4.91721
144.170710106422 4.96869
144.589620588949 0.837458
144.980880059154 2.70508
145.064110108506 100.0
145.3678755209 1.23272
145.787609254349 0.78359

>collision 10.0
41.0359415708244 1.17632
42.0320708822636 1.49522
53.5209185202222 1.45295
57.0682654929352 1.14985
59.0279965461607 1.65829
62.9811721713446 1.92293
68.021974042973 1.26458
70.9809917145296 1.43967
77.0384976811752 3.11487
83.0144332754791 1.52355
84.9605055401267 17.1478
85.9620801028698 1.88431
86.0955272912955 1.29192
92.512166768516 1.14194
98.9621207267937 4.31595
99.9688598417991 6.27697
103.00992255188 2.75008
103.957199523633 4.33549
104.012970964678 1.34636
112.003746245907 1.40085
112.939889875638 1.15568
115.051839186119 1.69119
115.512072093788 1.70948
117.070324411489 32.7028
126.104128758579 1.0539
127.006065788854 1.59733
127.053878324093 46.0291
127.796065012115 1.00482
132.916081206146 1.00514
144.0499458109 2.08337
144.17654160306 1.08067
145.065012042093 100.0
145.17745022955 1.56995
145.389029832157 1.2573

>collision 20.0
40.9720734573195 0.948209
42.0354011686872 1.01536
42.9746351987237 1.81404
43.0219790875892 1.35865
44.0149522435841 0.923216
56.9640274616505 0.924034
57.067563052304 1.2885
57.9371271847986 2.71268
58.9435536228959 7.26742
60.0570791566643 1.05423
61.9281973220848 1.93525
62.9816200375703 3.10565
67.930858402069 1.08553
70.9821217969413 1.06103
71.9384470612076 1.88049
73.0462933476029 2.51089
75.0310421732839 1.0338
77.0384279079362 2.61532
84.9605526006526 14.8688
86.9511416098033 1.22249
91.0547903992197 15.1942
92.0153461381302 1.16998
93.9983355598285 1.35834
98.9621916139874 8.21472
103.95282645396 1.44494
114.948258029761 3.50231
115.053965958753 24.0602
116.063845272388 1.30913
117.069526986855 28.1963
127.054378590688 100.0
127.127744383551 1.20263
127.234214899535 1.05062
128.060404799864 2.21221
145.063426672694 12.3746

>collision 40.0
39.0230259064019 6.56852
40.9710303998764 22.4415
41.0426799553984 6.03052
41.9685491973595 8.30301
43.9747048174873 2.50195
45.0327518506339 2.86937
51.0239227132754 27.7176
56.9640257871032 16.6837
57.9361566898283 30.3621
58.94393496059 10.3486
62.9296148366314 10.0634
62.981622850095 6.11127
63.0262165138043 5.21114
65.0398665444786 29.6485
70.9794381885923 4.848
75.0258872986255 14.7896
75.9430987150116 2.54226
77.0400633427594 80.0719
84.96107969922 11.0615
89.037401028496 9.77926
91.0541393248404 81.1195
99.9264379251522 2.88888
101.039275132243 21.725
102.041412779891 2.2649
114.951530440879 2.96311
115.05333665703 100.0
116.061123535675 10.7272
117.068563163484 9.64479
126.046681615768 30.0281
127.055514613348 29.4238
128.059384360646 4.23748

