>compound Lipoic acid, reduced
>formula C8H16O2S2
>parentmass 191.055263303559
>charge -1

>ms1peaks
95.084625184516 0.919672
113.041978495068 5.76275
123.080584793318 4.05398
129.067035935346 0.525857
139.058476408235 3.56389
157.067021568798 11.9548
162.043235819824 0.584481
173.052583198133 1.2755
190.046574997853 3.46041
191.055263303559 100.0
191.209422227578 1.60465
191.256842166156 1.14891
191.311493642051 0.820762
191.396445662912 0.708642
191.461129185941 0.718856
191.511570706803 0.820048
191.588066911447 0.768446
191.625269149764 0.752283
191.679781463539 0.555617
191.720136030315 0.535889
191.874805257411 0.573036
192.87480525741 1.0e-13

>collision 10.0
61.0105330149365 0.512466
67.053348368943 2.4646
73.0109974757244 0.820616
77.0356348064976 0.883887
79.0527966412395 3.79878
81.0716791925599 4.18051
87.0253841527547 3.05438
95.0850314639794 18.9213
95.1716314311954 0.586569
97.0102462828855 0.781268
97.062641866713 1.72153
101.036875350469 5.60053
101.057954655081 2.55922
102.041861311826 1.7463
102.088662695911 0.539558
103.039283012109 2.17628
104.979811585658 0.505882
105.069801544005 6.2004
105.986638469278 0.633026
106.974142678619 1.37749
111.032555052202 0.703728
111.072360546274 0.71774
113.041912847809 100.0
113.184695508512 1.26232
113.231161830204 0.751225
113.266486976464 1.01723
113.328407057756 0.609635
113.354628429297 0.719908
113.389755752403 0.74878
113.45445553203 0.578859
113.596714205391 0.554809
113.760526311652 0.501834
114.032616418459 0.549813
115.055234722272 2.55641
123.079794128141 37.0167
123.175108017207 0.869088
123.202528526405 0.797642
123.333988606159 0.547427
127.053745416897 0.887942
128.064674414415 0.672531
129.072604140709 17.1797
139.056579315469 31.0002
139.153419360787 0.784875
139.190205824945 0.511194
155.256183065951 0.536903
157.067899694877 18.4059
162.048052469288 2.78866
163.040408137402 5.24982
172.03354158639 1.21053
173.056616715855 3.34406
190.045096531382 1.16882
190.148163029088 0.69841
191.055869739485 8.15423
191.161534238407 0.61188
192.16153423841 1.0e-13

>collision 20.0
41.0389380954995 1.86599
43.0168885888977 1.85939
43.0539959608179 0.537861
44.980715228484 0.573304
46.999390661674 2.11694
53.0336790068407 1.12302
53.0540309385417 0.783437
55.0170408873125 1.43958
55.0557114343336 5.01595
58.9959071750855 2.01749
59.0156887657611 0.576595
59.0459417958989 0.818649
61.0129196329223 2.2514
67.0551251450923 12.2973
67.1088661697638 0.760838
68.062578211646 1.38463
69.0292365665837 0.55255
69.0670495378016 0.777978
70.9974355235275 0.777771
73.0117135350672 5.30262
77.038242866592 1.6651
79.0538673194283 26.8121
79.1375650533681 0.580351
81.0702284491704 22.6252
81.1439846478002 0.677288
81.1715257998961 0.660769
83.0510715668305 0.87998
83.096953643058 0.748219
85.0117568476814 3.50866
87.0265778596492 18.7157
89.0017412896139 0.523153
91.0578478160842 1.64982
93.0697129282157 8.37626
94.069593920085 1.24632
94.0922083504273 0.505094
95.0853689045453 33.7645
95.20707457531 0.665355
96.0929564010966 0.515657
97.0127014755204 2.54052
97.0661674040577 2.61522
99.0195791686605 1.1398
101.00208321435 1.03229
101.041132350633 6.06322
102.046563786712 1.2875
103.041248581269 2.76417
104.976116203682 1.06749
105.068990698001 11.5969
105.989540074869 0.679332
106.07289859563 1.08817
106.980324928988 1.05243
107.077653868001 0.703543
111.021438675528 2.67186
111.086225824576 1.05109
113.041540109003 100.0
113.163130551175 2.33769
113.191825826859 1.15902
113.266438959542 0.713226
113.318784864717 0.703213
113.392743835487 0.602538
113.438607039757 1.03325
113.46742627201 0.857437
113.501408138272 0.778216
113.557040333849 0.619683
113.812778774381 0.576519
113.857921235782 0.536726
114.047279963641 0.60924
114.11040241371 0.51832
114.207322391173 0.542296
115.057204736378 5.84295
121.975402414875 0.584104
123.080455024936 14.9061
123.161944270866 0.542412
125.043252101846 0.710301
127.058880367963 3.85651
127.103321361145 0.810677
128.058414561741 2.00897
129.072127968304 24.5452
138.049179283351 1.11827
139.056622321408 7.18806
145.063544726966 1.01956
145.089976311078 0.618864
162.040305909443 0.776772
163.036436396173 0.958621
172.028808310278 1.18987
173.063409458443 0.629343
174.06340945844 1.0e-13

>collision 40.0
29.0361147184523 1.69629
29.0479514704591 0.929802
39.0262386907584 6.17092
39.0458956161164 1.44705
41.0393097735286 33.8812
41.0663938499867 4.25214
41.0975882460121 0.859939
42.0321893797966 2.27877
42.0513309706105 1.45493
43.0215968470673 5.12689
43.0495138983571 2.78123
44.9811376088669 21.6915
45.9835110881063 1.23097
45.9948750737329 1.05598
46.9969832942975 38.0527
47.1802677097559 0.950664
47.2752542270328 0.85419
48.9907999218303 1.33264
51.0234009267753 3.10855
53.037859135134 26.5901
55.0547913117985 51.8293
55.1239436242146 1.16996
55.1405951173899 1.27647
55.2123055070769 1.1959
56.0417077118953 0.818954
58.9937556464128 9.42407
60.9983723863356 17.14
62.9899380416462 2.11553
65.0390425505058 11.6739
66.0460639950854 4.60321
66.0655411053486 3.68662
67.0544050461863 74.6107
67.1245875052859 2.14205
67.1482913641726 0.845994
67.3368465454205 0.819416
67.449606063214 0.826355
67.5214128466316 1.08771
67.5412412589113 0.831344
68.0566160707199 1.93428
68.0704864939871 1.68172
68.9766708285286 0.888293
69.0698571651338 3.92853
69.0862948376639 2.57415
70.0941750249447 1.00804
70.9940022461156 12.0671
71.9992425032094 2.00514
72.0813999661754 1.49509
73.0132002500499 12.0339
74.0255051301744 1.41083
75.0297553106816 2.7986
77.0382323075686 99.5996
77.1134889745132 2.11689
77.1400378239314 2.15604
77.184984425862 1.16886
77.2157819386964 1.0724
77.2656058673405 1.43097
78.043085858837 10.1097
78.9612605646722 1.61158
79.0541358320384 100.0
79.1518430538247 1.55403
79.1806333868892 0.922181
79.2632101381614 1.27305
79.2789640105034 0.948326
79.3209864256761 1.06457
79.4824491749351 1.3346
80.0603730729687 5.84738
81.0707679870182 19.7952
81.1465355956838 1.01864
81.561129418869 0.806584
82.0377480288062 1.11666
82.0709259979411 3.87778
82.100443515397 1.79318
84.0915480320061 1.39009
85.0115946700946 22.5473
86.004526603997 1.16858
86.0311074818107 0.811556
87.02691749499 41.8734
87.3775120495127 1.02038
91.0545975328379 6.68963
92.0707488260675 1.18872
93.0659635988838 5.10326
93.088750469816 3.05619
94.0746024187957 1.12899
95.0419146725347 1.05734
95.0866343451248 8.02901
97.0097220231358 4.12228
97.0556318150528 1.37998
98.0118072871412 1.35631
99.0003451830044 1.16027
101.040481417122 3.47294
101.087677376931 0.92579
103.050912536963 3.91266
104.956717848133 0.90858
105.069698565484 3.09635
105.981263411669 0.833256
106.973182750844 6.31897
111.027403102284 4.22158
113.039648417472 20.8905
123.024289333949 1.10416
124.01735461065 1.08319
124.051765536337 1.02773
129.062823358767 1.79563
129.094430641074 0.852764
152.031004730566 1.73332
153.03100473057 1.0e-13

