>compound Nordihydroguaiaretic Acid
>formula C18H22O4
>parentmass 303.1591105233
>charge 1

>ms1peaks
111.041507723378 0.552454
123.043064975861 7.57977
123.331052856174 0.600062
125.046451274459 0.575256
137.064661782053 0.611308
146.999082667168 1.35022
175.118973105517 1.03447
175.645332504569 0.569718
177.043387102653 0.560121
179.101664892819 0.601956
193.121869699512 41.6378
193.24247906753 0.839795
214.629764706313 0.519997
225.00883985395 22.4349
225.140814475686 0.500891
261.96328162798 1.13714
285.150447901514 0.788321
285.247439855113 0.649339
302.15107249678 2.24325
302.221747141896 1.02666
302.295503078057 0.566449
303.025399094032 17.8613
303.1591105233 100.0
303.325913413429 1.27211
303.413693404323 1.02879
303.558738710247 0.880473
303.641149971896 0.531046
303.7117978624 0.577709
303.834634960735 1.37269

>collision 10.0
103.008263750731 2.06693
107.050586939539 0.787128
119.051059105503 0.666539
123.043220727807 67.0112
123.172643487009 0.713206
123.233209765194 0.583756
123.325499314303 1.04638
123.653603443728 0.697709
133.06108882594 2.50607
137.057226620215 6.89979
146.995654402841 10.5599
147.081794541906 0.69293
148.919693036993 0.648532
151.079289180455 0.65233
157.098935543592 0.812261
167.607859082575 1.55566
175.111812416241 11.8084
182.966332738642 0.67748
193.121470627561 100.0
193.242847006687 1.74263
193.296967230347 0.858107
193.410856341485 0.643619
193.520775914926 0.754399
193.592054286594 0.840003
193.682239559422 0.614744
193.812252119878 0.594399
217.997956465307 0.593881
220.931505291002 0.580922
221.120538623595 0.912719
224.08506896787 0.666209
225.008529458372 29.8701
225.107834749496 1.57966
225.148914690851 0.763639
285.149680598969 1.85613
302.156858213736 1.18242
303.068851609748 0.917486
303.161413117985 8.43765

>collision 20.0
57.0708258387629 0.879769
60.3185703034156 0.62453
70.8601544319556 0.583318
81.0695369857679 0.559475
95.05148704643 1.52601
97.0658438071078 0.946319
103.005855837945 5.22038
103.057574596638 0.897856
105.067510186781 1.14527
107.048867243555 0.739739
123.043631934669 100.0
123.143143354591 1.60418
123.180427730603 1.24956
123.295213717066 0.799057
123.430099339207 0.693614
123.47751011794 0.581326
123.536767974727 0.758421
123.829755825425 0.910441
124.045268433533 0.748244
133.063381722969 6.16585
133.098458569833 1.11001
137.059736302712 3.73371
143.117888388779 0.85039
146.995407278287 29.3738
147.074181337801 1.93735
147.10982394373 2.11901
147.158876042968 0.712738
157.100705146044 0.634826
175.111520296284 12.4608
193.119852615717 9.79687
225.010761702658 3.69849
302.196822143789 0.653459
303.146448621848 0.767128
303.221333764067 0.751881

>collision 40.0
43.0539607752244 1.61375
51.0232455103814 6.05572
51.0530057342333 0.867232
67.0542472903275 4.80119
67.0769989443646 1.08172
77.0391499544045 9.10295
79.0182583052369 0.945376
91.0508930696923 1.14437
95.0506073918673 4.08414
100.994698450532 1.70291
103.006341259594 39.219
104.057814695762 1.44482
105.032660405214 5.28823
105.068953124158 2.84924
107.048644260613 2.74515
107.07788776182 1.12222
115.055095111518 1.29461
119.084264218048 1.8821
121.064544207885 1.06599
123.04384135527 100.0
123.131163405866 1.28869
123.187957124471 0.996236
123.222209998317 0.972021
123.270720120033 1.28139
123.341039569902 0.801468
123.52725952634 0.8499
127.048311640365 1.09722
131.047301964886 1.87646
132.054922864 1.00984
133.059957809196 2.24458
137.058554519545 2.75458
145.017835201213 0.810174
146.997643418636 4.90313
147.075708709064 2.17515
147.112747599097 1.52366
229.387179591611 1.18783
242.126552012527 0.884033
257.067220892473 0.863153

