>compound Phenylethylamine
>formula C8H11N
>parentmass 122.096881769245
>charge 1

>ms1peaks
51.0239624645621 0.9712
77.0393014940401 13.1432
79.0548940842968 15.739
103.054412793728 10.8532
105.073069860137 100.0
105.163683389864 10.4977
105.19391836316 4.8378
105.241430682752 1.6592
105.264353204044 1.56698
105.288448534878 1.85707
105.325661457336 0.971585
105.387256329203 0.817588
105.430917402089 0.657384
105.483753195406 0.604016
105.505963508328 0.567843
105.52867234957 0.549629
105.553709265349 0.506054
106.073471071136 1.13076
122.096881769245 65.8968
122.196651826024 3.34659
122.228537272667 1.29936
122.258812095738 0.595935

>collision 10.0
51.024027420957 5.3093
77.0396068558426 51.2381
77.1198442155805 2.34724
77.1437734309794 0.934923
79.0550603097654 33.3702
79.1362332516524 1.33186
103.05456926698 22.8788
103.147417755772 0.747265
105.072707406135 100.0
105.163704352075 9.76032
105.193782178959 4.54101
105.241311401395 1.50797
105.264400673165 1.43915
105.288601384113 1.69803
105.320558602286 0.908534
105.363723554399 0.758405
105.387075858001 0.768425
105.434324202133 0.624594
105.461234701315 0.593537
122.096207438225 8.24825

>collision 20.0
51.0241795896786 29.738
51.0899538182752 0.897929
77.0400433413949 100.0
77.119695620352 6.1585
77.144243028529 2.59703
77.1689322901345 1.04196
77.2055899813446 0.708799
77.2264252067399 0.879419
78.0449681039932 0.970752
79.0551038028986 49.845
79.1362223569356 2.09633
79.1606449025305 0.820692
103.054539046408 32.5528
103.147335130235 1.14675
105.070806846753 97.4915
105.164051981756 5.40742
105.193024750811 2.3721
105.240727915297 0.742383
105.264540075842 0.667275
105.288607307913 0.759754

>collision 40.0
39.0241849945019 1.64027
50.0161213929462 6.99102
51.0244695219065 100.0
51.0898976315391 5.00552
51.1097237898015 2.24601
51.1431706367597 0.636025
52.0305566782354 0.672182
53.039745799614 1.44101
65.0394809571814 0.916783
74.0158884124742 0.647458
75.0233900623082 0.759957
77.0397237037201 94.7926
77.1197706513101 4.97133
77.1439457659108 2.04572
77.1688100233428 0.805215
77.226471970379 0.645382
78.0464718266295 1.35501
79.0548807231578 11.4684
102.046255275121 0.71928
103.054415262722 5.87583
105.070016441283 1.71166

