>compound Pentamidine
>formula C19H24N4O2
>parentmass 341.197289053622
>charge 1

>ms1peaks
120.04399065393 0.754935
324.17043830026 6.80145
341.196992770248 100.0
341.421783173863 1.97344
342.193864501758 0.842151

>collision 10.0
69.0702551568056 1.59831
120.04430404159 3.59261
137.070508279528 2.53907
171.101907395423 0.706865
171.605111135522 0.512811
188.106691261521 0.5794
307.145549125751 0.68342
324.170717083899 28.0937
341.197289053622 100.0
341.422875535283 2.01776

>collision 20.0
41.0399620701114 0.976815
65.0394120330796 0.570307
69.0706082036474 7.91194
120.044173643683 18.7881
132.043729413522 1.40204
137.07039876619 17.8208
149.070575919661 1.77118
171.101952481035 1.29981
171.603112337233 1.09124
188.10578643712 2.60686
205.133006452519 1.22443
307.142816962891 2.7638
324.170821348108 100.0
324.398458510953 1.76799
325.166781324155 0.627064
341.196861815174 47.0202
341.42170593275 0.825955

>collision 40.0
41.0394197349366 3.88893
43.0302684661841 0.708451
65.0393474946261 3.3105
69.0707745067782 5.62991
77.0399379194327 0.833639
92.0491950604851 1.70431
93.0341215521385 1.61433
95.0482516253674 0.509558
102.03372139149 1.42179
104.050722131853 1.34616
108.068778976923 1.56968
119.059790482907 0.671833
120.044267995155 100.0
120.182660210322 2.26791
121.047635656288 0.797875
132.044177506379 4.53808
136.061782558691 0.825854
137.070525351884 28.3647
137.214486995571 0.542697
146.060671455704 0.559077
147.091082806358 1.90798
148.097858336166 2.18425
149.070475466611 6.29324
163.084445660729 0.851935
188.107979583695 0.636293
205.131896528509 0.887967
324.169301719214 1.97127

