>compound Vanillin
>formula C8H8O3
>parentmass 153.053754991574
>charge 1

>ms1peaks
65.0387188532297 0.708015
93.0332536267266 3.00194
125.058896522542 6.1132
153.054186840743 100.0
153.166160917676 0.631177

>collision 10.0
65.0389951974954 17.7605
93.0335937348497 100.0
93.1215515893035 0.502984
97.0637080496117 0.618466
110.035831246549 5.09986
125.059339969662 62.0814
153.053754991574 45.3847

>collision 20.0
39.0237539189296 1.87499
65.0390778079827 100.0
82.0412565952366 0.556209
93.033453783736 61.9386
110.035488705895 7.78885
125.058599034013 3.74476
153.052886477789 0.794789

>collision 40.0
39.0238170334939 38.3629
51.0238677908332 0.505664
53.0398230976086 3.19178
54.0469697210393 1.22094
55.0179590525671 0.819472
63.0239499909547 2.18489
64.0312183192812 3.23338
65.0391154055046 100.0
65.1127318244882 0.524707
77.0391058629728 0.682584
81.0337337019362 7.28692
82.0414146445677 1.73977
92.0250099962992 0.763005
93.0332040310893 0.620289
109.028922029874 0.818374
110.036057951415 2.63356

