>compound Stearidonic Acid
>formula C18H28O2
>parentmass 277.215689822646
>charge 1

>ms1peaks
67.0535651005986 0.855013
93.068700009904 0.755958
99.9880930515205 0.544167
109.099139829855 0.808304
121.098049884211 0.867033
135.117806948635 0.87523
149.130687618868 1.421
159.109982622087 0.921107
161.127747115582 1.14538
167.104435026053 1.13149
171.11452435836 0.886465
177.165499079678 0.699133
189.124239268996 0.678255
193.974599371588 1.41274
194.974678340833 0.626616
197.154055482515 0.661634
207.136527814909 0.588882
221.155182963763 1.13141
235.000004947099 4.39572
236.001103689119 4.7129
241.19467166026 3.78532
259.205122338596 9.87555
276.026372596844 0.703092
276.186600480906 1.55935
277.215844088185 100.0
277.357514003075 1.28171
277.412422887583 1.28203
277.474735163228 0.555901
277.558876730813 0.638985
277.700922257349 0.772754
277.908915493033 0.842901
278.0576488208 0.690285
278.161077556152 0.539698

>collision 10.0
55.0530790676922 1.19691
67.0545994330572 4.2148
69.0723489321842 1.37737
69.4324928942654 0.558127
71.0822727132206 1.33676
77.0378942799537 1.16479
79.0544596739084 1.3304
81.0690460815563 4.56773
83.0881338194701 0.669532
90.5883471946248 0.606433
91.052708319858 1.78846
91.0727615299417 0.733106
93.0699311759735 3.73231
95.0848114363806 6.29065
96.8173336514342 0.604248
97.062810584685 1.59799
99.0859464587649 0.605773
99.9862695397295 5.90134
100.987074596742 1.25269
101.060708417546 0.617786
105.069713236485 4.59896
107.08451934578 5.37153
109.100385685796 4.94413
111.037166298177 0.799148
111.114829744153 0.617977
119.079761278417 1.3317
121.099710201536 5.73876
123.116854143339 3.63937
125.035187119243 0.577458
129.064426100856 0.890985
131.086632991501 1.40564
133.0989940965 2.71886
135.07744400622 0.778801
135.116519565041 12.783
137.088783806913 1.06568
139.071864651556 0.7688
139.109124191111 0.82396
145.100946468274 1.10237
147.111497470413 2.53194
149.130973107745 7.30783
151.109737513094 2.03213
152.946806301946 2.08786
153.089585689014 0.86696
157.104622013664 1.17457
159.116567467074 1.39828
161.127605342857 5.61838
163.146573630168 10.1955
163.193183672791 1.12612
163.351303597861 0.613591
165.126557506713 1.05889
167.109534768055 0.727615
171.116732397296 1.56259
175.144386530701 3.21032
177.161176280193 1.46896
181.119431192468 4.40864
185.130163828817 1.33827
189.160968477352 1.20089
193.125170709 4.17679
193.971256289144 9.47694
194.976167009035 4.05473
195.136622536266 2.69082
203.147773241027 0.92006
207.141756240513 2.78698
209.152311234049 1.29934
212.156574250421 0.575227
213.108184955611 1.09354
215.175745857768 1.22923
217.17493604208 3.2064
221.150255108188 2.86962
231.172874148038 3.10705
235.169587805886 3.99278
235.999786537988 1.06315
236.049679644759 0.727996
241.188962074659 6.893
258.195142987611 0.809156
259.203938860289 14.3606
276.161897346448 1.92097
276.195559766826 0.578316
276.271256593369 0.549715
277.215689822646 100.0
277.360724856138 1.64449
277.410368474121 1.07088
277.480744448908 0.94852
277.583446948125 0.666866
277.720473214977 0.727771
277.913096681475 0.684245
278.044742790617 0.687337

>collision 20.0
41.038604088048 20.949
43.0168539212135 3.2962
43.0555907796335 20.0948
55.0543458924975 34.6372
57.0720467740186 6.77399
58.9611245911703 31.7163
67.0543902278318 71.7177
67.1046667711098 3.60351
69.070256191169 52.9752
71.0504575201309 6.10048
79.0563846868715 48.5393
81.0707954666387 84.2696
83.0487182738288 4.93769
83.0861125102867 10.3776
91.0561789227935 17.1819
93.0686597918307 84.9482
93.1081945318688 7.98844
95.04585331755 12.705
95.0847804325956 73.8164
96.356612393456 8.5447
97.0640930680191 10.2664
97.100305560819 17.1225
99.9872410973272 51.501
100.579657798406 3.22048
100.988959232841 5.3423
105.069118931639 47.6254
107.086507310471 74.0157
109.100283077309 61.3638
117.071824450731 6.38657
119.081806259011 45.7652
119.119238288614 4.37995
121.100984426967 84.4372
121.149596779858 3.82294
123.11599542046 20.4324
131.083842731184 14.2515
133.102828134315 45.8731
135.114892800621 100.0
143.086487835277 4.76071
145.100973563897 11.3402
147.115957589529 40.6494
149.134083489484 70.7538
149.202788083334 3.51676
152.942361112626 11.0162
157.101406977995 13.7388
159.113566391385 11.7773
161.124777049269 12.1177
163.146721926919 41.5907
166.696418659803 3.42875
167.10557482873 4.52688
171.11939150752 9.58612
173.133199298797 5.16841
175.051939965486 3.32727
175.147854105241 22.5627
177.152772112664 12.5451
179.147555252546 4.89316
185.129401948368 15.0914
187.150555407439 3.2739
189.162382430493 6.02044
193.121550410862 19.3728
195.136180924149 7.82104
195.168274068561 4.06265
203.138623340155 12.1408
207.14097338138 19.1816
213.111704047207 5.15865
217.200377733434 11.7098
221.155541435395 14.972
231.173521227802 8.96389
235.169459014578 12.264
235.502982008766 3.35947
241.016317311912 3.67702
241.1990886363 18.1084
259.201070412934 10.4715
277.21719557786 60.1343

>collision 40.0
41.0388135748378 27.2295
43.0181427865224 8.78485
43.0551047580782 14.2285
43.0748084112314 3.7327
51.0196526728711 5.4848
53.0371382570727 3.44577
55.0540320446333 42.736
57.0292645131732 2.73022
58.9609276483197 61.8738
60.0458338601265 4.81841
67.0545849819905 79.8969
67.1276606867262 2.87392
69.0702790399128 23.091
71.0496468942477 5.37464
73.066818016035 3.9054
77.0384983328201 25.2257
79.0551309552655 100.0
81.0711088202618 58.6811
81.1172964194765 2.87302
83.0477582388083 4.3454
91.0546285005144 82.4836
91.1682414689453 2.72576
91.3263292514319 3.61123
93.0699560634829 70.15
93.438519318267 3.07397
95.0835362102984 25.8534
99.0417586455764 4.17842
103.053493227664 3.99184
105.069225178339 46.0137
107.083484620888 35.2024
107.208302438643 5.81419
109.063191181251 2.76385
109.100072148689 13.7195
115.054693594766 4.67726
117.068083592792 11.0598
118.078244911532 3.23046
119.08307698511 13.4567
121.100041719643 16.937
129.06789761511 7.81872
131.083019160594 7.75576
133.097456711134 6.85571
135.117514011238 6.93683
143.083131945055 5.42752
145.096548008704 5.43164
147.114246437282 8.77443
149.128767180385 4.90317
157.100040769709 9.49529
161.131420173738 3.76221
224.979623177155 2.76657

