>compound 11(Z),14(Z)-Eicosadienoic Acid
>formula C20H36O2
>parentmass 309.278483516772
>charge 1

>ms1peaks
55.0546234797806 0.580643
57.0713050907545 1.61138
69.0699266098465 2.0467
71.0846192505546 0.870105
81.0692878964564 0.885244
83.0858089528665 3.00296
85.1014313281845 0.777318
95.0842429509698 0.661356
97.0996996687622 4.18268
111.115762809626 2.73996
123.116604525594 0.891242
125.131931644106 2.39343
139.1450069558 1.78145
143.103873900557 0.689256
151.11071401565 1.24463
153.161864835168 0.678019
157.120897276279 0.667752
167.16668992638 0.717038
169.121810314957 1.08118
171.138525896458 1.29191
179.141952885777 1.2497
183.137788285265 0.792089
185.15222757774 1.31611
193.155416246945 1.0644
197.153018388868 1.65985
199.169706605934 1.51488
203.180011756445 0.555113
207.186575746598 0.787174
211.167500121129 2.44451
213.182763372759 2.34833
225.185529045383 2.8444
227.20027659608 1.4442
235.20164688771 0.673282
239.197542774771 1.82408
253.214557283074 1.91867
267.225837564715 0.596407
273.256367327056 3.21806
291.267687925966 19.7641
308.266295003902 11.9542
309.277715000355 100.0
309.485450988467 1.06862
309.567251133375 0.67376
309.634843639561 0.700734
309.79168206568 0.761141
309.869620176703 0.565315
309.986707553273 0.693539
310.111372740357 0.504905

>collision 10.0
41.0399329990986 0.847942
43.0565423956074 1.57055
55.0548153085671 9.73539
57.0705965202775 22.6002
57.1313713374876 0.514026
59.046168790748 0.542926
67.0549261614297 9.92506
68.0588058324958 1.12275
69.070046298874 39.7631
69.1454076197443 0.817332
71.085771072479 19.9967
71.1329800797427 0.607361
77.0346200960347 1.09665
81.070496012149 19.3461
82.0743828799555 1.03048
83.0855828503041 46.9791
83.162896546997 0.666417
83.1938122578123 0.552193
83.2794780496948 0.747309
84.0884645285632 1.28645
85.0638073674726 1.19385
85.0997099241403 8.78922
91.053457618249 3.05084
91.0917320934538 0.953863
93.0688994357386 2.06585
95.0851247387518 21.2332
95.1389756748633 0.791028
96.089001371742 2.82007
97.1016787378127 70.6876
97.191439559075 1.00728
97.2249754474377 0.639073
97.5654566806122 0.650352
99.0808160667118 1.71889
99.1154731619738 2.20441
105.068110078635 3.45731
107.08585384501 4.89074
109.10036211681 14.4366
110.105360055284 1.28487
111.080636275006 2.99568
111.116628135565 49.9594
111.215200080179 0.837226
111.389407865372 0.550914
113.053982123605 0.531033
113.095163189957 1.70449
113.131180888882 1.02443
115.076221239592 4.74531
115.108938933613 1.69473
119.08609189063 5.08971
121.100761160489 8.19609
122.103948248232 0.989811
123.116768175722 12.4853
123.164477681917 0.971245
124.119696649709 2.46344
125.095621583328 5.57386
125.131274802322 26.6413
125.23373295372 0.560833
127.147462719381 1.72148
129.090637945078 2.528
133.099697234574 8.75689
135.116242873563 7.48816
137.116768294098 8.08903
137.196401239804 0.631708
138.132437695066 1.9234
139.132708476107 8.33955
139.214565332961 0.506523
141.107564684786 1.62888
141.16797378602 0.721426
143.107412623891 3.24784
147.117484443733 10.0105
148.114775062329 0.697809
149.130603093679 10.619
151.12640817762 8.05349
152.148697344704 0.965089
153.132588778148 4.85687
155.107172815118 4.47374
157.123692917742 5.07625
161.13057646285 11.2056
163.145962776897 8.13504
165.130255815693 11.9575
167.142065093106 5.0719
167.200690255334 0.61678
169.125232241582 6.22363
171.135055800948 2.78076
175.148114594746 9.5936
176.150459075421 0.766934
177.162549090944 8.25418
179.148213952985 11.9873
181.160219559536 3.97308
183.136897190321 2.56257
183.17452235131 1.2754
185.151523787515 4.45217
186.923357244889 0.618243
188.150913685103 1.15684
189.161870216921 10.9076
191.179019177791 6.99496
193.155600442705 20.4671
193.190702928406 7.02429
194.158928205879 1.29713
195.17353798922 9.20215
197.151649087377 4.25756
199.167040291177 4.26561
202.172260535009 0.589388
203.177080961919 10.7189
205.200310887634 1.49828
207.179012219629 15.1188
207.307853181865 0.814736
208.169988891738 0.540542
209.189193383738 5.83552
211.170024582606 7.27034
213.182955837781 7.07855
217.194323646063 3.41738
219.212292188286 0.751761
221.190397920707 10.6486
223.203776575927 1.08004
224.176046176752 0.622959
225.184579705605 5.62352
227.197438381211 6.45297
231.212590573808 0.945969
235.205194802133 9.2168
238.18227943187 0.635016
239.19889489794 6.6225
245.230272133718 1.39854
247.240435036536 2.72637
249.258758370635 3.23279
253.214818752826 2.59769
253.271195138016 0.513526
273.256619300539 55.8883
273.370252302189 1.31734
274.146332487837 0.812472
275.672515931123 0.534923
277.185918629074 0.54158
290.251833012917 0.822103
291.267584621487 100.0
291.424831779353 1.64889
291.487186933318 0.805271
291.539835212859 0.78126
291.576289770349 0.70293
291.669994038937 0.68369
291.773074714219 0.721986
292.012992902985 0.831134
292.104461753148 0.721133
292.218591288193 0.607478
292.507954694698 0.523075
308.265668968356 21.2881
309.093764158119 0.572659
309.278483516772 35.2115
309.416499051754 0.821421
309.47847844671 0.505233
309.701985654908 0.562778

>collision 20.0
41.0389371908454 5.51661
43.0180707250486 1.57396
43.0551155526128 8.84932
55.0166350672745 1.04344
55.0547948630948 45.419
55.1052012890731 1.4843
55.124490665371 0.898465
57.033950046631 2.05075
57.0707150289722 35.6276
57.1404762620062 0.747486
59.0483364377106 0.824842
67.0548171506888 21.3416
68.059610842821 2.57287
68.0958762476158 0.512401
69.0701085119132 100.0
69.146541249138 1.63477
69.169524536996 1.34899
69.2112575595169 0.566858
69.3414330378217 0.581083
69.4646806555162 0.631377
70.0726309232408 0.608138
71.0499730475264 2.94193
71.085683653572 17.5857
71.1639036932537 0.629431
73.0646353145313 1.90374
79.055009371449 3.90817
81.070275267266 40.6151
81.1542792299485 0.705457
82.0750130008784 2.94533
83.0489598310943 2.59016
83.0858472679495 66.411
83.1690740015776 1.07505
83.2008439569456 0.633785
83.3809815702023 0.592732
85.06537125542 3.8073
85.1009205611474 5.71913
91.05493792944 6.18521
92.056149232075 0.63779
93.0697260646243 17.5865
94.0724410997594 0.670887
95.0855686863847 44.9968
95.151319512367 0.547869
95.1758869243714 0.721263
95.415146443017 0.53931
96.0887392499232 3.43751
97.0648180297275 7.58799
97.101071154519 80.8886
97.1892622042297 1.20422
97.2343857522937 0.708078
97.4323042500128 0.533892
99.0425387549292 0.8755
99.0806776090704 3.21849
101.056228810238 1.71149
105.069351733412 8.05802
107.085372311358 11.8791
109.10070053356 26.7443
109.155773204953 0.993264
110.104676218521 1.18802
111.079693513434 3.75917
111.116584076309 28.9489
111.19285564964 0.538476
113.055839041136 0.803809
113.091851278293 1.13231
115.075682758834 2.34618
117.067912896935 0.543114
119.085603707323 12.2969
121.100851375038 19.0011
123.115382870039 14.0257
124.120017561856 1.79303
125.09507774204 6.85074
125.131199978312 6.59203
127.09105290867 1.246
129.131038632127 0.734003
131.084071743926 0.502502
133.099810668258 17.7867
133.165655541604 0.797798
135.117265419615 14.8008
137.119904647457 7.2862
138.128989253578 0.573344
139.111750196553 4.60437
139.145094358044 1.15364
141.096832319873 0.922076
143.109367744708 0.967754
145.09697797307 0.948927
147.115966636428 14.7273
147.229391658013 0.560405
149.131843940728 11.3778
151.110620022993 7.2158
151.146839971893 4.93757
152.118892559361 0.547344
153.12798401679 3.89343
155.146104964521 0.657771
157.118717374996 1.11828
157.161972905199 0.532843
159.118469614857 0.625038
161.131665081377 14.5333
163.146159364323 5.06232
164.1489208602 0.629397
165.126148528473 6.71141
165.158787156702 3.11592
167.139788193667 3.14612
169.117499932926 0.949401
171.136009141781 0.579336
175.146690111513 10.7648
177.163408141369 7.69146
179.159696213425 3.24513
181.156707945719 1.46624
183.168614709855 0.543482
188.14656368066 0.607228
189.161943844607 7.01623
191.179625602636 3.03268
193.161485551751 5.492
195.175077658224 2.71084
203.179176693488 4.11391
205.189228201362 1.1727
207.173930950262 4.42604
209.187526075039 2.25367
217.195478654329 3.77731
221.18943597926 2.29169
231.210449291915 1.86992
235.204236897803 1.38044
245.231308530967 0.565851
247.237604335186 2.13233
249.258912641974 2.68202
273.257996138771 14.6056
291.266452637615 11.0049
308.268890415044 0.668841

>collision 40.0
29.0390775567865 1.47994
41.0396214424858 20.5063
41.0981059090574 0.81732
43.0176219042558 2.17931
43.0555423368298 14.0765
45.0345334848307 0.559486
53.0373678747763 0.757875
55.0183702899763 0.964058
55.0548964655674 100.0
55.1228443522424 2.0092
55.1446349661714 0.873529
57.0328132126198 1.75292
57.0706624596359 13.4298
59.0504318831402 1.04642
65.0380408650419 1.18457
67.0546850550592 34.6212
67.1297822323849 0.685178
68.0570276300454 1.88217
69.0324669037024 0.72358
69.0706848418265 60.4233
69.1460200964458 1.14736
71.05040719085 1.66563
71.0854200846288 2.32146
73.0633443090589 0.799588
77.0389364873861 1.60159
79.0537431266135 10.8059
81.0703002190773 30.7521
81.1518824683964 0.528795
82.0730650230443 1.31289
83.0489438162312 2.10147
83.0855995566564 16.194
85.0632182600138 1.83882
85.1017928918887 1.01199
91.0541306030426 13.3213
93.0701944390086 12.3738
95.085265069739 23.1188
95.1441602120978 0.635709
96.0903152021209 1.67785
97.0653156869684 4.60717
97.1008522973164 7.8289
105.069389272782 7.70003
107.086343802946 7.46471
109.10157032338 7.94315
111.079059996892 1.286
117.067655750804 1.18305
119.085818512251 7.19554
121.099656535386 2.26607
123.079616630139 0.759576
123.115776250384 1.39799
133.101061824502 4.46994
135.117134065544 1.18021
137.094915576254 0.657974
147.11307468005 1.55463
149.130851166945 0.556326

