>compound L-Sepiapterin
>formula C9H11N5O3
>parentmass 238.092765348654
>charge 1

>ms1peaks
192.08705485919 2.00505
220.081907465043 1.23705
238.09285570468 100.0
238.232958759904 1.84303
238.275462601171 0.951015

>collision 10.0
105.044411898492 0.618623
165.064460897493 14.1217
166.07133411518 2.36966
175.057338048961 0.820566
178.070710250706 2.21179
192.087145965695 50.7376
192.212646041118 0.866516
195.073906481535 4.50139
196.082269394546 2.02095
220.081900340006 32.414
220.213804599161 0.576059
238.092765348654 100.0
238.230685383174 1.61721
238.273549962632 0.930769
238.316647672703 0.634825
238.355872221197 0.538129
238.458313007434 0.525588
238.530548338624 0.521508

>collision 20.0
56.0483842823105 0.529839
60.056823598895 3.22369
68.0501236796915 0.562691
86.0338779875008 1.79703
93.039317597789 0.509903
95.0495297007954 0.731879
105.045494080439 4.00862
107.060022656238 2.17505
108.053351548609 0.685046
120.050236214973 0.720275
121.0500509764 0.792034
122.070081035795 2.8594
123.053919090142 0.777971
124.049508053712 0.848192
125.045695827336 2.53284
126.052658460412 1.38988
127.062797042502 0.694619
132.056377638138 0.922302
133.039790994881 4.386
135.059486042288 1.37452
147.064297574879 2.87006
148.04604681033 0.863567
149.078564283383 1.57572
150.066159270981 7.93563
152.056361676286 2.28931
154.070580034823 1.38967
161.035627316461 1.16176
163.061085772723 3.28455
164.056097152064 5.06878
164.089061622783 2.05473
165.065916521713 58.8237
165.182405797076 1.01388
166.071545785436 12.5338
168.087293742324 2.60753
174.075125776522 1.431
175.060820846987 14.2092
177.063745414719 0.546178
178.070434332687 7.57528
191.078979043077 1.0097
192.08720184873 100.0
192.213036234821 1.58573
192.248744507053 0.931681
192.295787485861 0.570534
192.357495420707 0.624757
195.074060092866 13.5854
196.08098006446 2.98037
202.070398678628 1.46543
203.056405683021 1.10219
220.082265432162 9.22049
238.09222400998 7.19446

>collision 40.0
28.0178031260929 0.77916
30.0325031922703 0.865393
40.0178225042336 0.780653
41.0393502174548 5.9853
42.0344082307175 5.30902
43.0288433182637 16.4255
44.034019337237 1.14589
44.9816004711531 0.888218
45.0335297118345 4.46483
51.026140553496 1.06977
52.0193342856804 1.50043
53.0391829702418 14.4409
53.1067202164535 0.596514
54.0342928240267 4.67696
55.0284949752646 19.4301
55.0982235905037 0.610276
56.0468075264532 9.51694
57.0426651530106 2.06618
60.0556285811093 6.05578
64.9756498038708 0.588489
66.0300419203406 1.22555
67.0385946374528 8.74692
68.0486408193668 46.5283
68.1519296655219 0.702215
68.3077725637732 0.617084
68.341596203569 0.644669
69.0085074808175 13.7697
69.0449060660035 11.8533
70.0649995943109 8.46046
70.1256403983986 0.70988
71.0265994403807 1.52175
71.0570021008124 0.850242
78.0327139053721 18.9723
79.029697863162 9.36422
80.0488989762759 13.2985
81.0447710932484 11.2789
82.0529019830237 4.65823
83.0591975047682 5.04685
84.0466083676992 3.35986
85.0491577032008 0.734651
86.0352516857276 8.6188
88.2588772265573 0.817533
90.0314401639957 0.912032
91.0317061610123 0.62022
92.0248906182225 5.05201
93.0373551937845 17.6281
93.1310397041841 0.687978
94.0392671734863 17.2892
95.05022844321 65.9985
95.139097909443 1.58153
95.1660156718674 0.656789
95.4014345054077 1.02395
95.7692011704055 0.804774
96.053139710881 13.8255
96.1362345954204 0.629076
96.3901975501314 0.705793
97.069989080609 5.96938
98.0596005553428 8.89653
99.046498478481 0.863182
100.04870785144 0.588707
103.027839210005 2.47311
105.044389066356 65.656
105.138647093961 0.952138
105.168231296112 0.896812
105.307276089765 0.588404
105.524671395047 0.622727
106.046596199414 9.64687
107.037498802613 12.6565
108.050212390911 7.30216
109.042521083388 6.95595
110.036274989601 9.98541
111.063729832038 4.487
112.04681450263 1.01298
113.043588754863 3.10402
113.073132618349 0.811061
117.044178739362 0.90144
118.041323674196 3.08656
119.034444885363 7.81211
119.101626730023 0.629059
120.044109614562 91.9349
120.134138689245 1.5745
120.167929133878 1.06821
120.189929888525 0.809493
120.301998651886 0.611516
120.343817388737 0.599907
120.493797133518 0.689133
121.051923974764 10.6715
121.182289686982 0.940752
122.069152649836 30.3533
122.227795564132 0.687508
123.05070268548 9.79666
123.096427286778 1.37973
124.049864355637 32.6547
124.152277794826 0.819341
125.042937749163 4.93527
125.098121605821 0.616458
126.053155215188 6.90762
130.039631595525 4.81734
131.037394262307 0.756555
132.058161008717 3.22829
133.040357881409 28.1192
133.360934854955 0.598384
134.055261891309 1.31943
135.029249499429 6.19255
135.065327888047 8.88436
135.443037788577 0.640249
136.059847715385 5.95701
137.04567624931 6.7507
137.090099556301 0.774111
138.053789543677 0.877719
139.059451243941 1.58083
146.056806968778 2.84033
147.062100928853 38.9273
147.137186123762 1.50675
147.174117981887 0.965195
147.204012066942 0.585165
148.050400406731 7.39633
149.047521845258 27.9437
149.139205596725 1.07838
150.06552163452 18.6082
150.367393360535 0.885876
151.059731171413 2.62131
151.10701258201 0.828301
152.054164865427 5.56143
157.046668688246 2.49798
159.061010457887 0.790433
161.045090728315 1.56397
163.059410700184 6.11279
164.055470749807 44.4806
164.205721532515 0.824644
164.301443348681 0.635091
164.542922866586 0.659268
164.581752758856 0.592005
164.808463045843 0.623198
165.064542022607 100.0
165.181546577873 1.76837
165.259389284483 1.42905
165.478062347543 0.737922
165.557637336506 0.603257
165.680510254325 0.623145
165.814191665677 1.09778
166.072899116499 23.6228
166.150750064324 1.2007
166.482139938565 0.67319
166.520744412896 0.678804
173.054585633307 1.8864
174.076507669772 4.67888
175.060089923924 24.2301
175.48392433926 0.815675
177.053174526791 1.47747
178.074332206583 2.48791
185.044383148141 1.11413
190.068094837355 1.6449
191.078884567426 8.59095
192.089015673841 3.29939
194.066522680664 0.620083
203.053366681736 0.791209

