>compound 5-Aminoimidazole-4-carboxamide
>formula C4H6N4O
>parentmass 127.061415547635
>charge 1

>ms1peaks
55.029564421102 0.712865
110.034855749676 75.9998
127.061415547635 100.0

>collision 10.0
55.0293044316534 2.58349
82.0398987224154 1.15137
110.03465827304 100.0
127.061252494889 0.753335

>collision 20.0
55.0293707942934 56.8825
67.0289958373932 0.538997
68.0131726711956 0.785098
82.039983685174 16.5936
93.007936277982 0.705232
110.034885521104 100.0

>collision 40.0
55.0293726183791 100.0
65.013404435256 1.44692
67.0288772971042 0.722506
68.0132212170696 2.79535
82.0398499562593 3.31127
93.0080717959823 0.704023
110.034655043872 2.77515

