>compound (-)-Epinephrine
>formula C9H13NO3
>parentmass 184.096904862481
>charge 1

>ms1peaks
107.049700719468 0.685977
144.988458961916 1.79582
166.086701241625 84.2585
166.248796537642 0.865526
184.096904862481 100.0
184.262640096668 1.54419

>collision 10.0
57.0584282938274 1.93003
58.0660627409693 1.17765
107.049041322722 2.83281
120.079782936497 1.46391
135.043735533626 3.09561
137.059184010785 0.851017
148.074910931751 1.31908
151.062179882085 1.53639
166.08586567872 100.0
166.245177808832 1.57212
184.095602456917 0.627063

>collision 20.0
32.0500279743802 3.47352
42.0351765984919 15.6891
44.0510377652885 1.47711
51.0245441505774 0.520134
56.050281873349 4.7217
57.0585597052276 43.1609
57.1548247576413 0.627043
58.066293748834 19.3293
62.019781858365 1.10453
68.0498217361548 0.804354
72.0447176217544 0.831272
77.0394870364259 4.54424
78.047578455696 0.587038
79.0548331511917 9.09887
80.0517316320028 0.712078
81.0343071140819 2.49093
91.0548180277753 7.41718
93.0687760321745 0.740541
95.0729959902721 0.86288
97.0657988886363 0.88806
97.9716307847386 1.29409
98.4673037348254 1.08242
103.057206868316 0.758987
104.04996425732 0.530739
105.055802207294 1.0861
105.481670417791 0.552393
105.98125685173 2.18654
107.049210195124 70.3243
107.176886571349 0.849818
109.029207687151 7.90506
110.036452489166 1.20953
119.049413577869 3.21365
120.080799366576 30.6371
121.063631455034 0.653664
122.060339950077 0.733652
123.045236012104 9.93237
124.052291957301 0.915297
125.060694033641 2.09046
130.065603277225 0.739551
131.060857461993 0.793275
133.052706153383 9.27056
134.055258216386 2.02193
134.921966314474 0.754661
135.043924061463 30.5391
136.043546252882 0.522022
137.059993938229 7.6217
146.059720220983 1.7749
147.069185420877 0.508913
148.075405480529 25.8748
149.081968174774 1.67557
150.0551036955 0.643609
151.062947542013 42.517
165.075646713071 0.742271
166.086337379626 100.0
166.247380283385 0.996234

>collision 40.0
39.024306441876 1.06886
41.0400125339205 2.15997
42.0352700581975 28.8534
43.0424343862683 1.96695
44.0504863528711 3.63423
46.9964732452469 1.61304
51.0242003465376 20.0664
52.0315063594797 0.705108
53.0397374336604 4.07218
54.0432821928426 0.696089
55.0192077079778 4.4465
56.0508931440287 14.9686
57.0589861327498 18.9831
58.0663449806702 3.14226
63.0245197921568 2.3831
64.0315346003894 1.26997
65.0401687979736 8.45699
67.0523297107556 4.6758
68.0501967339095 1.17748
70.0305911427161 0.505474
72.9377789638623 1.08114
77.0399021106837 100.0
77.1509032192315 1.25308
78.0475031574868 10.3567
79.0546039666148 26.526
80.0510268913518 9.91497
81.0346402035843 12.9638
82.0430714015557 0.506406
89.0384812304723 4.557
90.0438122577306 0.578882
91.0554158866382 16.0218
92.0508373389122 1.88835
93.0616026060195 2.4228
94.0651247556944 5.35947
95.0506221443573 2.72487
96.0501088524003 0.742648
103.055221927912 2.29961
104.049859335177 12.2192
105.042835192333 9.90393
106.057870649649 2.52575
107.049667535896 21.9846
108.045832537056 2.20122
109.028494038401 1.4586
110.036742140094 5.26401
116.050906479714 0.836394
116.905542345983 0.643801
117.050686622321 0.955234
118.064809668211 2.20336
119.053830189739 0.804488
120.080814381964 4.22328
122.060947102183 1.98203
123.044807361672 40.3386
124.052754085678 2.99507
130.063816928549 1.1984
131.06578897104 0.976504
132.045344420392 3.13249
133.052725591042 5.22716
134.058068195732 3.74168
135.045078500883 0.615321
136.042233915255 2.44965
146.062183573549 1.98374
148.075441899566 2.94091
150.055195071731 3.42192
151.064128545233 3.13312

