>compound Rimonabant
>formula C22H21Cl3N4O
>parentmass 463.086045121343
>charge 1

>ms1peaks
362.984905312111 1.14227
463.086233825246 100.0
463.275108371112 3.89415
463.346596401757 1.62861
463.442132674777 0.725487
463.540338275266 0.711598
463.609083871237 0.576044
463.693965311839 0.530257
463.740658572457 0.511401
463.857138362181 0.501268
464.069007433001 0.598076

>collision 10.0
84.0811354927003 1.01219
362.984901665485 6.19941
463.086045121343 100.0
463.275089177491 3.96195
463.34718377521 1.68698
463.487819941188 0.704542
463.541261255676 0.705034
463.617826981446 0.552497
463.698558994525 0.508948
463.773364646911 0.529918
464.084797617935 0.618774

>collision 20.0
84.0812352081747 9.2417
99.0913438518996 1.19169
337.005549271726 1.35083
362.985386678107 69.0319
363.15656270382 1.81683
363.215214564475 0.792789
463.085623661021 100.0
463.274813295775 3.09701
463.345549411004 1.34059
463.490742543487 0.600085
463.542184228082 0.613561
463.604222318718 0.538196
463.665168365252 0.511229

>collision 40.0
42.034862420392 1.28466
55.055185223606 0.977546
56.0504997626409 1.00222
84.0812497822054 8.09176
99.0917877987975 1.60651
137.015061251041 1.23487
164.025692434049 5.06015
265.052046980129 2.66662
281.963521000324 1.44334
299.013164219665 4.22717
300.021123237391 4.77276
328.015957704168 1.25649
337.005527507618 1.25692
362.985634738789 100.0
363.156480288587 3.19276
363.215443934711 1.36748
363.301240534962 0.604839
363.344195137938 0.581649
363.389335799769 0.584337
363.443319620605 0.528453

