>compound 1,2-Didecanoyl-sn-glycerol
>formula C23H44O5
>parentmass 401.32615727034
>charge 1

>ms1peaks
155.141608448111 0.820238
229.179632514634 100.0
229.31695665472 1.98984
229.358194183023 1.03063
229.435628716079 0.510323
383.315816897897 71.6062
383.487911674123 1.47026
383.547241726295 0.661591
401.32615727034 18.0445

>collision 10.0
43.0550011493672 0.564336
57.034405352738 0.576109
57.0706024798689 1.12019
71.0861581398043 1.98594
81.0703592586803 1.4966
85.1013654076697 1.25006
95.0855809244154 1.77896
137.132023291012 0.783129
155.142607936974 5.63644
173.152817514325 1.33618
229.179607629406 100.0
229.317018101504 2.31206
229.360480739802 1.11465
229.429269178327 0.515765
229.501195022752 0.53734
383.315533726531 50.0603
383.488807235914 1.02675

>collision 20.0
43.0552108396194 4.92495
55.0551457133332 0.676956
57.0343795002869 4.71861
57.0705878529028 11.8504
67.0546589242576 2.6664
69.0703323823143 1.42382
71.0859999554149 18.4615
81.0703558325195 10.4253
83.085576090955 1.09282
85.101483003811 10.6325
89.0599670149041 1.87814
95.0855022390196 12.6567
103.075218090665 1.59977
137.132052435966 4.12068
155.142602979187 22.1721
173.153300761776 6.92472
229.179650810418 100.0
229.316687492265 2.06334
229.359121772092 0.993229
383.315098979935 20.8795

>collision 40.0
29.0390354145882 1.0926
41.039548774969 8.35921
43.0188277533424 1.21934
43.0551007327154 100.0
43.1152732504626 2.06565
43.1325277040071 1.13851
43.1519553364718 0.506103
55.0551335724949 7.63962
57.0342424673339 39.3799
57.0704325969287 76.2675
57.1214065229542 1.68676
57.1398591671245 1.66009
57.1591759764902 0.854138
57.1782959420174 0.552999
59.0490055483752 0.908546
67.0546220044047 11.5431
69.0702398825382 11.2189
71.0504539997254 0.885581
71.0860439495574 64.7197
71.1633506430535 1.35353
71.1850359821951 0.665633
73.0656959090508 0.80033
75.0448382074257 1.50894
79.0543840371766 0.971264
81.0700464969032 26.5054
83.0503334713672 0.659999
83.0856098231038 2.97978
85.0646188047207 1.1188
85.1012713069044 28.5534
89.0595303609538 9.91491
93.0697484377935 0.730031
95.085516695223 33.66
95.1734209112676 0.590201
97.0647817577875 0.612048
97.1011764661277 0.596018
101.059690396521 0.550063
103.075499396298 6.29988
117.090798301467 1.61925
137.132432344724 1.89137
155.142532073417 3.37625
173.153973768379 3.54381
229.179466840804 4.82299

