>compound Thioetheramide-PC
>formula C40H83N2O5PS
>parentmass 735.582664842533
>charge 1

>ms1peaks
184.072491312813 4.60171
735.58323166771 100.0
735.822342348539 2.18219
735.905003220488 1.15464
736.012215021242 0.762954
736.16054175568 0.727569
736.357747288179 0.688844

>collision 10.0
184.072693058398 27.4427
184.194696362453 0.513234
735.582664842533 100.0
735.820766964026 2.0679
735.9062773541 1.05349
736.058838535854 0.782942
736.329681060923 0.692551
736.581550216084 0.85108

>collision 20.0
86.0964963176965 0.9639
124.998884289291 0.662654
184.072740498624 100.0
184.196332937915 2.0482
184.233427901181 0.973691
184.272059048217 0.599077
735.58227263419 29.2382

>collision 40.0
60.0811100781896 1.37833
86.0966185053479 5.79583
104.106320064393 0.765539
124.99955320381 2.97793
184.072892393145 100.0
184.194776938887 2.28474
184.235379761698 1.06188

