>compound Bestatin (hydrochloride)
>formula C16H24N2O4
>parentmass 309.181140912895
>charge 1

>ms1peaks
120.080708204251 4.5341
309.181307228402 100.0
309.339008334223 3.18243
309.392001876811 1.23534
309.511430184148 0.541079
309.552864759941 0.527429

>collision 10.0
86.0967249581904 1.15442
103.054245999872 0.59764
120.080687707925 51.4924
120.180799365139 1.13471
120.213646160163 0.515503
132.10184006917 1.10532
144.101413681236 3.24835
150.090500689999 0.897538
172.096828260696 0.863823
190.106626394821 1.8168
196.096481782968 0.658076
263.173872508487 0.871798
309.181140912895 100.0
309.338732466531 2.74962
309.392139949589 1.08962
309.509417942186 0.523441
309.553515583583 0.503273

>collision 20.0
86.0966813714188 5.66054
88.0397215080993 0.515557
91.0545697951978 0.820395
103.053869671696 1.27522
120.080810711538 100.0
120.181255884071 2.9261
120.213894581572 1.27749
132.100456696102 2.17088
133.064446078541 1.08745
144.101459526746 8.49366
150.090878441782 2.03742
172.095015033162 0.900297
190.106968819672 0.960335
196.096924141945 0.593078
228.137300913721 0.6001
263.174597193664 0.683568
309.180417717945 5.5224

>collision 40.0
30.0337853333615 0.887904
42.0350485222646 0.779101
44.050527599691 1.08006
70.0297226574638 1.00277
74.0244932134599 0.625935
76.0397289847787 0.542873
77.038710062705 4.24413
79.0545263186309 0.762105
86.0967899579201 11.3228
88.0388083322778 0.578149
91.0543218060387 9.70986
93.0702090317806 5.28634
103.054186203407 19.099
105.069487216361 2.71594
115.05390012146 2.86139
117.064264366742 0.8125
120.080816635576 100.0
120.181109979307 2.58511
120.212848642271 1.13788
132.080995147922 1.37805
133.064089957748 2.72958
144.100881391531 0.667523

