>compound Cimetidine
>formula C10H16N6S
>parentmass 253.123192352705
>charge 1

>ms1peaks
95.0603570529212 0.936256
117.048065728425 1.59841
159.069493519386 2.38909
253.122229265565 100.0
253.267405309078 2.29548
253.315950597464 0.794313

>collision 10.0
95.0606010010846 26.1454
99.0664569347797 2.83657
103.032089316168 1.44016
117.048085885958 53.2971
128.026876978442 0.827754
159.06992645535 95.0982
159.186205739262 1.17442
172.089946078214 4.61665
211.100739710879 7.90947
222.0807230815 0.509337
253.123192352705 100.0
253.267789811757 1.03347

>collision 20.0
44.0496884970347 0.754041
54.0340701206462 0.672421
57.0454185419084 3.52526
61.0115112628204 1.66335
78.0375526810514 1.27614
82.0401223190962 2.52074
95.060833327242 100.0
95.1508423597937 1.04947
99.0667172848526 17.1601
103.032521230569 2.85877
117.048158911119 66.1307
117.1485287216 0.552737
128.027184780023 2.12979
132.059072041383 0.671253
159.069751584732 77.7147
159.185857348268 0.697114
172.089768969533 0.827239
211.100345734572 0.622171
253.1228769972 1.13269

>collision 40.0
41.0390790552055 3.17258
42.0341335361277 3.56677
44.0499213739772 5.79409
54.0344200958266 9.7441
57.0455530987773 10.0477
61.0115829706517 9.46026
68.0248489588261 1.92646
68.0494000248453 1.68511
74.0067604465939 0.55554
82.0404140764869 11.5521
95.060870460333 100.0
95.1505547867784 1.11507
99.0667012546484 10.2377
103.032432653814 0.90142
117.047990750256 16.9382
128.027459436579 0.699596
159.069900394127 0.576146

