>compound LY294002
>formula C19H17NO3
>parentmass 308.128910184399
>charge 1

>ms1peaks
308.128766790306 100.0
308.283773948971 3.84082
308.342065149841 1.66032
308.41757702874 0.666809
308.459366024807 0.622654
308.4997644546 0.653704

>collision 10.0
308.128910184399 100.0
308.283833440249 4.07314
308.343263487477 1.77962
308.418756158032 0.700947
308.459975766662 0.655531
308.552425014191 0.532874

>collision 20.0
112.075387273965 0.56486
197.059629538491 0.736078
264.101946143379 1.17595
308.128726799011 100.0
308.283831313717 3.79743
308.342792157546 1.67535
308.418808890258 0.661415
308.499670685003 0.640604
308.540178285909 0.516328

>collision 40.0
41.0392800965894 6.1309
42.03456237821 2.89639
44.0502178515588 1.72009
54.0346228367076 1.62161
56.0502456059463 2.60502
68.0133976240985 4.60021
68.0496867137636 7.8986
69.0337823523076 1.50766
70.0293556832957 4.24247
82.0653420010053 1.91257
84.0803614957078 4.71677
85.0519770295918 1.55048
91.0544011626184 6.04972
94.0289220540638 13.049
105.033009806793 1.4078
110.059302335853 1.95967
112.075393785956 32.3231
115.053840613325 9.28591
128.061131760007 2.04795
129.068939992388 3.29984
138.054658800026 6.51383
141.069233007478 61.5343
151.053971973657 3.82135
152.061595586912 24.8396
153.069259954648 23.7089
154.077240244225 26.0043
155.085424438887 1.55672
165.069038992479 8.21681
166.077081393728 2.0905
167.084803407358 8.31631
168.057159234011 4.08461
169.07550764086 22.1276
177.068548412103 3.2622
178.07701088691 8.28964
179.084594188322 9.23492
181.066926988372 4.84205
182.071298174221 3.43415
191.084152155563 2.8671
194.075671661237 1.84673
195.079937672018 2.97586
196.061123746793 1.28844
197.059321317045 92.0187
197.184865162543 1.90716
207.07984133367 1.88507
221.059649405073 4.71848
223.074816341148 11.1913
236.08344992994 5.84041
237.089658733606 7.01794
250.085671278322 1.48957
252.137053377871 1.23096
264.101484601046 39.3781
308.128050920865 100.0
308.283278199052 1.88657

