>compound Hyperforin
>formula C35H52O4
>parentmass 537.393323443356
>charge 1

>ms1peaks
275.140286864499 0.693202
277.144834982661 3.85741
345.203091946998 1.98916
355.223747091247 1.39028
411.289637373457 25.6575
413.269518875878 8.16045
467.31803542691 1.48885
469.331992605523 11.3479
481.330421734161 5.99385
536.389797787525 0.501288
536.615894346153 1.16566
537.163757749234 0.693439
537.394088113351 100.0
537.757340007728 0.786979
537.865517250323 0.773907
537.990688320766 0.680539
538.158003742904 0.898719
538.26742814679 0.601923

>collision 10.0
41.0398549027249 0.587418
69.0709159387365 0.878694
71.0485389785027 0.722912
109.101916946992 0.970188
123.116691216644 2.44242
135.113664313785 1.07415
137.131563714412 0.738283
161.130873660128 1.00443
163.038325163936 1.31491
165.055701549261 0.866414
203.070484530967 1.07821
205.078491424687 0.68046
207.10053168596 2.42016
209.078764681506 1.5318
219.098214258315 3.26252
221.11112869318 4.40141
223.096992909268 3.83018
233.11944729752 0.523128
235.126893891247 0.552846
243.094295503605 0.50765
254.094950919422 0.744942
259.131976273604 1.09512
273.159225821143 0.745993
275.152998622507 5.91323
277.144037926086 72.7935
277.45542744409 0.535405
277.527635985562 0.523356
277.930944263508 0.542444
278.156908280391 0.528854
287.165888148626 1.55186
289.152729416319 1.42074
291.157779990928 1.17108
299.16448899794 1.23483
341.212372197716 0.751336
343.219981279883 1.89081
345.204684744399 18.224
345.317233204633 0.583183
355.226095135909 21.8382
357.2074179958 2.02119
395.256472357592 0.505427
401.264340929989 1.6211
409.264748570321 0.773847
411.288813226642 100.0
411.523918873514 1.03794
411.58080829784 0.545434
411.733259938326 1.12255
411.860146980142 0.512048
411.999333001957 0.772424
412.145224928163 0.573496
412.268345087762 0.800619
412.586681894277 0.588736
413.268442107012 84.5046
413.446872907466 1.70654
413.531232236011 0.928122
413.584185947665 0.656451
413.631900816718 0.761164
413.695926588755 0.731984
413.876343476637 0.780475
413.963573747389 0.591285
414.13776471955 0.720434
414.391254144811 0.735096
415.029185655369 0.60326
425.267402711703 6.29237
465.338112460093 1.9638
467.311980349742 4.22367
469.330181551018 52.238
469.618342883346 0.560928
469.688421007145 0.665978
469.842731745826 0.523667
470.186823826681 0.514019
481.330983265303 28.4767
491.049968179754 0.547386
536.35115495527 0.813645
536.456500329002 0.679112
536.615720891095 3.23982
537.163580023892 1.79412
537.393323443356 60.0224
537.606728841769 1.86121
537.73485643181 0.566891
537.964954715969 0.716723
538.298039142497 0.676493

>collision 20.0
43.0543809681761 2.55919
69.0705636781998 3.22181
81.0665280127474 0.583269
93.071227476897 1.291
95.0853347152427 1.43592
97.1020320299127 0.557902
105.067167813982 0.708989
109.099723554143 0.678477
111.115193911327 0.609989
119.085910162133 1.06883
121.061733560849 0.702026
121.097883351138 0.767877
123.116627257364 3.33376
133.100969159948 0.650631
135.117035174255 2.92393
137.132241081103 1.40483
149.129059499967 1.32269
153.05085990604 1.26745
161.131242171066 1.67371
165.055100516169 2.91969
167.071659812631 1.1673
175.072367105101 0.869323
177.160281771547 2.09693
179.06692454074 0.772106
189.060779653585 0.629915
191.069026399637 1.13338
191.176567331802 0.500611
195.07076878611 0.529573
203.069165791783 6.45598
203.174903303438 1.86827
205.08592272748 3.16111
207.100910736739 2.63224
207.141573661972 0.541532
209.078897849485 4.64257
217.080749527168 0.811071
219.099376791839 20.6384
221.095873285114 17.4694
221.205352840431 0.597535
222.085862433348 0.523598
223.095311961931 13.5784
231.100524085367 1.05968
233.116215292856 1.26295
235.127335364438 0.834878
237.110739129687 1.81812
243.101460370843 0.856672
247.125295296102 0.816763
249.119622330824 0.666942
257.111234149757 1.07094
259.133327950931 4.53368
261.143742080738 1.10487
263.119300196259 1.11333
265.139651489784 0.72186
271.128282998009 0.841075
273.144649186091 1.39541
275.148802747048 8.87525
277.143019475213 100.0
277.295008875075 1.90656
277.333829857607 1.08337
277.368011470669 0.774671
277.405995525098 0.571539
277.455183409797 0.714192
277.525349182777 0.760809
277.675844860183 0.641698
277.739958015137 0.650394
277.866660002366 0.700182
277.930875808615 0.624648
278.15392613199 0.569191
287.160170663065 4.97075
289.143338542019 4.7457
291.163968738528 2.33417
299.158010872921 2.01337
301.143670830535 0.811355
303.155698756242 2.14997
317.177793690282 0.95568
327.19553701762 1.01941
331.193037411319 0.887923
341.208554540143 1.02398
342.22609430393 0.512359
343.224816533519 2.8425
345.20407626734 12.9174
345.295088212088 0.551702
355.225502475074 28.6318
356.235166643281 0.715288
357.205356880997 4.13484
395.258308920399 1.36113
401.266955018107 1.94022
409.282147678071 0.611977
410.263527504465 0.56164
411.288813141432 36.1733
411.433976755861 0.91289
413.268780061074 47.3419
413.451465674451 0.838833
413.568224631352 0.549376
425.273452962268 1.3452
465.332509907997 1.03685
467.316150096032 0.830685
469.328483770243 4.45888
481.332214200193 6.56265
536.603600054877 1.89401
537.375424906118 0.786682
537.487416670466 0.559408

>collision 40.0
41.0405014710399 2.08096
43.0190268332343 1.60225
43.0541788871053 4.34136
53.0379669635242 0.829419
55.0180729344886 1.1242
55.0546304787825 1.49357
57.0350556825661 0.771409
57.0697174427875 1.00953
67.0541106294156 0.914074
69.0701280090196 18.6358
71.0490535794967 0.794656
81.0702397031713 5.90359
83.0848102930875 1.49166
91.0561502579795 0.758847
93.0702691101695 2.84314
95.086169270059 3.57882
105.069833585516 2.45554
107.047427951472 1.21649
107.08584303105 2.42889
109.033048705979 0.962349
109.102387087536 4.23659
119.084928228292 1.96671
121.080405991572 2.81125
123.116111870828 4.14891
129.07380776314 0.519462
133.099181621824 1.26402
135.041583566035 1.96749
135.102680666721 3.96833
137.059476361478 0.898778
137.133096785555 1.46205
147.078466366077 2.23014
147.113051340864 1.57319
149.058798889269 0.796262
149.128996315944 1.08618
151.040823843333 1.9049
153.053424729078 1.48823
157.061567431841 0.955687
159.114852813894 0.547585
161.058718282065 5.44504
161.129840022961 1.01141
163.038726241959 17.211
163.145788975227 0.627023
165.054286490514 11.6093
167.072365199769 0.863017
175.074600983065 7.76549
175.140737697624 0.593726
177.053042222275 3.26963
177.087815257944 1.263
179.066739669873 2.58286
185.062684813578 1.8997
189.095421169598 1.26148
191.068455599091 5.57877
193.082877229071 1.24625
195.061634446436 0.731034
201.089934666394 0.879853
203.0694179107 100.0
203.236486882883 0.884481
203.339434729431 0.516926
203.558874427193 0.597418
203.672281743492 0.580886
203.718226599195 0.662874
204.073313457463 0.585802
205.085128685731 10.2456
207.102033985045 4.90844
209.08042995279 5.96262
215.099870853772 0.524836
217.087490583957 4.89318
219.101669749859 39.9837
219.240438291397 0.627014
221.08132486555 65.9417
221.213194404456 1.3947
221.262194248934 0.57525
221.301893079213 0.63969
221.35054972789 0.662318
223.096242964336 8.00665
229.121944089904 1.47294
231.111637302744 2.29005
233.111682811427 1.12271
237.109617964229 0.508085
241.11964396827 0.611513
243.105121290562 1.12569
245.111774230285 1.98576
247.127852447139 0.721431
257.11583223953 5.60065
259.132883104985 14.6425
261.120008692377 1.10125
263.129468950328 0.94641
267.134233515843 0.523582
271.129475284993 2.49062
273.14654344219 2.0084
275.135012385342 4.48792
277.142523121649 23.5345
282.268191739376 0.593708
287.168253454698 1.77053
289.144476378856 2.39498
299.164113945613 1.15855
313.185645495754 0.993766
327.195969134113 1.16375
339.196010153556 0.826512
345.208069954719 1.30852
355.223849297354 1.91599
357.19906243249 0.635684
395.258653907669 1.043
536.616204309266 1.00337
537.615532017401 0.511495

