>compound D-Aspartic acid
>formula C4H7NO4
>parentmass 134.043979268911
>charge 1

>ms1peaks
43.0176698392348 0.599743
46.0291682539257 2.81384
70.0290710060469 0.743288
74.0239354825523 9.67183
88.0391986480296 19.216
116.033670821037 12.9444
134.044163429886 100.0
134.150054969051 2.36574
134.184110763678 1.07295

>collision 10.0
28.0178675350036 0.533396
43.0185353602232 8.37321
46.0290317914177 20.6764
70.0287748775495 15.2938
74.0236833641427 100.0
74.1025059797576 2.37227
74.1276062019115 0.987104
74.1689984483928 0.504576
88.0391616500692 69.0751
88.1241613795553 1.4611
88.149865819183 0.678608
116.033461142435 15.4585
134.043979268911 15.4693

>collision 20.0
28.0178146218248 3.38712
43.0183199734663 31.2628
43.0785902526883 0.658536
46.029194926356 29.173
46.0917400870015 0.602393
61.0279935235259 0.521243
70.0287305372952 28.1631
74.0236863824274 100.0
74.1022647825541 2.12805
74.128001890332 0.856148
88.0388292212685 17.2534

>collision 40.0
28.0181824120728 7.12831
29.015184920908 0.756313
42.0340730560467 2.49193
43.0183985569155 100.0
43.0794168562042 1.62771
43.0942998327013 0.848292
43.1141744539992 0.610912
43.136756802978 0.657777
44.0492624586127 5.08673
44.997407771608 6.35556
46.0291638929168 33.5976
53.0014283461194 1.92505
55.0168068410752 0.571998
56.0130079853166 0.528367
70.0287332229618 8.09651
74.0235239646462 17.4154
74.0778810595148 0.638109
88.0339295034206 0.622272

