>compound cis-4-Hydroxy-D-proline
>formula C5H9NO3
>parentmass 132.064953872601
>charge 1

>ms1peaks
68.0498861387601 1.38267
86.06031980918 18.3728
132.002864732031 0.594041
132.065080795532 100.0
132.147804101697 4.93984
132.202197470459 1.25367

>collision 10.0
41.0392891622785 1.12972
58.0656399797719 2.97395
68.0499138101249 17.3228
86.0602497117095 100.0
86.1451477536308 2.4878
86.169914909366 1.01697
86.1972411981184 0.529918
98.0958777500316 1.02918
115.122607185445 0.755099
132.064953872601 39.5924
132.148140170722 2.40009

>collision 20.0
41.0394224343053 13.4436
58.0657039372554 17.3588
68.0499176494573 74.9613
68.1252836245728 1.75728
68.1487689490895 0.744009
70.064619717986 0.924641
86.0602406261064 100.0
86.1452871178776 2.31982
86.1703267683605 1.08663
98.0956139979857 1.89874
132.064952977775 2.0894

>collision 40.0
30.0340793121498 1.22637
39.0236683172122 14.7708
41.0392995260383 63.9688
41.0986585182719 1.21389
41.1152747614651 0.572777
42.0346856028462 4.78737
43.0426842386151 1.74191
44.0502309426734 1.22081
56.0490622256414 1.35269
57.0577640370862 1.08819
58.0656820568123 24.6041
62.9828314034687 1.18333
67.0421766106264 0.517872
68.0498086930698 100.0
68.1249836285313 2.07949
68.1501333097653 0.905919
69.0355928244505 0.503402
70.064793179501 0.587112
86.0599172870784 9.88162

