>compound D-Xylulose
>formula C5H10O5
>parentmass 133.049348153901
>charge -1

>ms1peaks
41.0382464213666 2.54415
43.0194694353305 6.36347
44.0497557731004 1.10002
44.6237508680064 0.558902
45.033946117884 2.62112
46.5216696501242 1.33226
47.0127394143258 0.967586
49.0292093839814 3.13207
55.0187656100442 12.1894
55.7452811317032 0.518952
57.0342936650559 19.2849
57.0935424542962 0.615558
57.239659854017 0.534441
58.0640657948771 1.25254
59.0496439289029 4.56591
61.030295324977 4.44604
69.0342551508423 9.42343
71.0159808651406 0.575762
72.0458688563295 1.81914
73.0293478150062 12.4644
73.0943222400536 0.517298
77.0252701554465 0.96375
85.0295505914472 16.5849
86.0974660860334 1.0226
87.0432693675086 5.83619
88.8542992633234 0.558927
90.9767771672432 2.05006
91.0421275095313 0.561811
97.0288155454788 7.02371
98.100242555483 1.06565
103.039606616054 5.43281
103.490882633166 0.624434
104.989979133297 0.553138
112.005449507907 0.543241
115.039496472158 23.5894
115.119127956245 2.74419
132.063799986736 5.67619
132.103723961745 3.37003
132.149253787301 32.9667
132.279393431492 0.613413
133.049348153901 100.0
133.150023352032 5.01713
133.22552373812 0.773904
133.338838556612 0.996763
133.438905624591 1.18843
133.483077325047 0.68313
133.558507073389 0.641061
133.64160457667 0.619877
134.030762293867 0.757147
135.03076229387 1.0e-13

>collision 10.0
29.0392569928907 3.79251
31.0176808780021 12.6035
41.0390370223126 24.1838
43.0190815709487 48.2667
43.057957718985 2.15247
44.0502745548624 3.73083
45.0351424092648 26.3671
47.0124363558177 1.61146
49.0304336769916 1.87147
55.0188888816141 66.5415
55.087390647992 1.71358
55.228360243711 1.17092
56.0492030338341 5.11642
57.0343189574155 100.0
57.0872610466999 1.79858
57.1245225991171 1.17627
58.0138656676381 1.82246
58.0312745545559 1.22399
58.0668959947176 16.3816
59.0513694260863 26.5182
59.0895949906865 1.21193
61.0292378903134 34.9529
62.9877944492849 1.11699
69.0344284191297 57.1124
69.1017778053311 1.41552
70.066098963552 4.17197
71.0130118748889 18.6742
72.046512412672 5.89133
73.0296735264135 38.1795
75.0907352868552 4.15659
82.5165249506847 1.11179
85.0288159683651 40.6188
85.093497411907 1.12807
86.0579560577963 4.46719
86.0969287047031 3.8659
87.0439323255268 7.44707
90.9738506051908 2.91407
97.0291353112834 20.1873
98.0962096115995 19.8069
98.1561033096962 1.19727
99.0906975053182 1.48442
103.036366819016 5.17349
115.038094989238 10.2633
115.122648791707 22.5034
116.114519519819 2.48061
120.525783904159 1.52451
132.065595862277 2.42083
132.102568509341 1.28821
132.148848198833 43.4126
132.245952712485 1.22421
132.493162554881 2.29083
132.739416621382 1.09523
133.049595851071 8.18751
133.143774857892 2.81517
134.14377485789 1.0e-13

>collision 20.0
29.003192125476 1.77907
29.0384416798903 7.89374
30.0344424191541 2.32039
31.0189086588433 5.62592
32.5029011546368 4.03381
39.0233593683245 6.04702
41.0384478801561 33.5086
42.0344010092271 2.09931
43.0187124082587 100.0
43.0632945851398 3.28802
44.0516161112697 24.1105
45.0347663336973 66.5639
47.0131350336184 3.22207
53.0410767684514 1.54272
55.0181650168301 39.787
57.034606160891 61.3372
57.3435815682199 1.55877
58.065618796984 46.6622
58.2820031610743 1.48608
59.0497889837515 9.46036
61.0276904814742 24.1437
66.020419651209 3.76005
69.0343212811208 56.1297
70.0655772761065 27.1037
70.1154542720984 1.6356
71.0148981980455 22.9111
71.068588324743 3.12586
72.0440620385065 3.58969
73.02720259657 13.6294
75.091767457684 6.9251
76.931360531325 1.7978
85.0283409800168 5.55435
86.094943131757 2.55579
87.0412138431983 2.77357
91.054196858906 1.60373
98.026872837567 3.54988
98.0961370657191 72.1457
101.022673936291 2.56151
115.124330757828 15.2835
127.00914514957 1.56729
132.152600851357 1.49424
133.085999787235 3.86527
134.08599978724 1.0e-13

>collision 40.0
29.0018109102371 2.29637
29.0368383168168 2.35849
30.0344437958173 5.53056
31.0159700408314 1.19072
31.0347596382642 1.87178
38.1564400451698 1.0259
39.0235464696055 13.936
40.0258522126505 1.32421
41.0389464662458 52.2861
41.0746625241535 1.57173
41.0981430092937 1.30171
41.5138517932353 1.3601
42.0348353942831 59.3435
42.0798058411529 1.43628
42.1206233519565 1.24428
43.0189015142976 48.2803
43.0393206247375 19.7675
44.0504933903331 100.0
44.1094969401452 1.90752
44.5247909627163 1.03504
44.8443561282234 1.15819
45.0346409506442 24.084
46.5072340947517 1.0294
47.012423247355 2.75033
54.0347226972511 1.15272
55.0197135415207 6.9112
55.037828930633 3.19869
56.0518856295267 1.88691
56.2842735893604 1.16436
56.9424459888646 2.02933
57.0349702685644 7.56883
58.0659444992645 96.5617
58.1556156883532 1.33719
58.3856387146677 1.12978
59.0713770558202 2.77539
59.6755714644984 1.0567
61.0291014970595 2.13694
62.9798462235506 1.68752
63.9291346014033 1.47914
65.926289446361 1.05112
67.0142552703541 1.25691
69.0338328490231 5.51746
70.066269609193 64.2841
71.0130426151021 13.3981
71.0718737028764 3.03543
71.2529112710866 1.25236
73.0275575109971 1.18672
98.0969004934559 4.0522
99.096900493456 1.0e-13

