>compound N&#38;epsilon;-Acetyl-L-lysine
>formula C8H16N2O3
>parentmass 189.122391540638
>charge 1

>ms1peaks
84.0807936020953 1.8661
126.090800365376 5.41648
143.117199191701 1.31062
189.122813012468 100.0
189.24655385329 2.81366
189.287944691006 1.20693

>collision 10.0
84.0808564733902 25.1522
126.090941477347 100.0
126.193562013159 2.69051
126.22615081536 1.17137
130.085182783552 2.21302
143.117178774731 8.78526
189.122391540638 32.7364
189.247754089004 0.590153

>collision 20.0
43.0188570182249 0.795473
56.0499339045218 0.93378
84.0810116097181 100.0
84.164406747123 2.83428
84.1909268198656 1.18699
112.075342585029 0.66654
126.090754277629 22.7713
130.0852375552 3.60161

>collision 40.0
41.0391100394622 1.15468
42.034545797626 1.50526
43.0188243205217 3.6337
55.0548295910255 2.87903
56.0499618205842 24.5733
56.1185393981027 0.535198
57.0708311162158 0.510883
67.054416014078 3.94046
69.0581045150682 0.547094
84.0809119034022 100.0
84.163765468967 2.4502
84.1902310387208 1.04818

