>compound trans-Cinnamic acid
>formula C9H8O2
>parentmass 149.059256795243
>charge 1

>ms1peaks
73.2867684261752 0.619563
77.0342535655824 0.590469
80.9529153820204 0.89083
83.0135897976409 1.27475
103.055118286861 2.41826
106.046062357273 1.24427
106.944558346459 0.666871
107.045596069175 0.958385
124.044244809506 0.796388
125.035237413256 3.13964
128.038539933105 15.4791
128.541265884068 6.2672
131.048488795263 60.4604
131.155958879071 0.741517
131.184441591185 0.752572
131.318849430387 0.550913
131.379180904732 0.662612
132.050680137574 0.617948
133.98052840341 0.700759
134.403071959615 0.643178
143.036755955108 0.939248
143.749696942474 0.741498
148.056445675922 0.632765
148.553779149512 25.0595
148.621352313199 0.991363
148.659688313997 0.656359
149.059256795243 100.0
149.201202410895 0.979049
149.312459774853 0.743132
149.87494750375 0.700608

>collision 10.0
77.0384687757585 0.854252
84.0039407633821 1.63926
85.530378929441 1.17275
93.0362372767152 1.38936
103.053858507076 23.2054
106.043009357034 3.81673
125.032008677123 0.973122
128.038257770232 5.37561
131.048704017187 100.0
131.152731580071 1.91836
131.183995262609 0.992666
131.230881542681 0.569147
131.367245952576 0.603133
132.053105731592 1.17267
149.058859906152 4.0315

>collision 20.0
43.9851841889478 0.830746
51.0240389349571 0.708975
77.038470368692 15.9628
79.0544156272114 2.73172
84.0032049030916 2.55141
85.529874331656 0.618093
93.0357824210378 0.77144
102.045445348277 2.251
103.054076350734 100.0
103.144828065191 1.61063
103.171579789197 0.822813
104.057353364324 1.21149
105.067714328031 1.04139
125.02460107203 0.528871
131.048058147666 28.7656

>collision 40.0
43.9842814956423 0.780085
50.0163143449205 0.541779
51.023517362339 18.6403
77.038613436199 100.0
77.119381289855 1.77496
77.1416791846811 0.947643
77.1698026848033 0.616392
77.2390987587071 0.536494
79.0568346730847 1.40998
102.045883232106 3.95929
103.053930213688 15.6211

