>compound 3-(2-Hydroxyphenyl)propionic acid
>formula C9H10O3
>parentmass 167.068784837028
>charge 1

>ms1peaks
39.0065722817488 1.69795
42.9131045463141 1.66185
54.8133387987644 1.61063
59.5726681442495 1.85367
91.056349534471 2.41132
107.047024935145 10.7957
121.064065009803 24.4506
125.024948744515 1.57611
125.525549120712 8.11287
125.984250409468 21.7483
126.415313029991 1.79437
146.032994091605 3.14784
149.059159100149 89.8167
149.158928185147 1.88614
149.315883819318 1.65129
149.517588721006 1.66098
161.941094683648 1.7897
162.550134104692 2.32275
166.088034249445 11.3089
166.619189762686 1.7676
167.011028118603 4.74217
167.068784837028 100.0
167.734997561882 1.97382

>collision 10.0
55.0175673938308 42.2535
77.0374243524924 4.06107
79.0570594776205 2.06086
82.5111840793847 1.2372
84.9606420663169 13.8148
91.0600672658282 1.29623
93.0677824136757 4.4036
105.009308300095 1.23271
107.048602262103 73.0961
109.074842006072 1.26443
117.054404828928 2.20686
119.186574078613 1.31619
120.054991231132 1.25962
121.064570793985 100.0
121.166133403012 1.79766
125.985574493967 1.82403
149.058007706649 42.6628
149.161804744969 1.63625
167.063410200982 3.4689

>collision 20.0
39.0211167268303 1.01718
55.01798777914 41.6215
55.0652718700002 0.876892
55.15926068293 1.08901
59.0491087131038 0.980167
63.2859788615097 1.06007
67.0543358241458 1.70362
69.9692709237998 1.10278
77.0378279208127 13.874
79.0528113342226 8.45672
84.9590422404124 19.7665
85.0103383832499 1.22637
91.0552736310152 6.28001
93.0696329600982 8.20733
101.982786470101 1.76337
103.051198850467 10.8816
107.048199098857 100.0
107.144480086129 1.32645
107.248736300268 0.994827
107.3169072596 0.951338
107.465711835604 0.929717
108.057948697921 0.977864
121.064245931241 78.7923
121.14505633985 1.71743
121.494203594452 0.908173
124.050930814561 1.18496
149.056952391503 4.84469
166.115811303906 0.910598
167.116809692515 1.5568
167.906704219882 0.87075

>collision 40.0
27.0234548153946 1.16632
39.0248768203747 1.21434
41.7752229610598 1.01463
42.0331320543884 1.12507
43.0142935831228 1.86373
45.0338335871922 0.739232
51.0231086287643 12.8416
55.0176086640053 14.2037
60.9594963185502 1.59073
65.037857719907 2.41589
70.0323948560657 0.678013
75.4991050966355 1.21973
77.0385935986417 100.0
77.0998085005684 1.90436
77.13822500559 0.683991
77.161592338562 0.743786
79.0544178873831 22.6358
84.957695251834 1.92471
91.0525356701334 8.78878
93.0693376352542 1.60808
100.872172714013 0.665539
101.040413286797 1.00991
103.053703233987 5.03951
107.048028724879 7.24743
121.059104733639 1.13181

