>compound (&#38;plusmn;)-Nicotine
>formula C10H14N2
>parentmass 163.124295210215
>charge 1

>ms1peaks
84.080224503184 0.588746
106.064274981988 1.3601
117.056211498222 1.06458
130.063881521471 2.19921
132.079589603592 3.77656
163.127064312734 100.0
163.237728836075 12.9547
163.276540505231 5.93114
163.333805754506 2.21502
163.363340377998 2.04143
163.393876515439 2.47195
163.441226694527 1.30068
163.516521760443 1.10733
163.634952080113 0.814573
163.668713970943 0.764728
163.689013819083 0.70575
163.733763239458 0.627333
163.766074849334 0.604708
163.834702322793 0.541706

>collision 10.0
44.0496553239227 1.12642
80.048967163491 3.14917
84.0803123106306 6.00069
106.064364186814 13.3991
117.056239716106 4.62036
120.079633842661 4.93408
130.064155396709 17.4049
132.080001287665 40.5612
132.185175439307 1.50347
132.21705517216 0.621915
163.124295210215 100.0
163.237980696222 8.25458
163.275810711937 3.62816
163.33387180842 1.25232
163.363236149322 1.16173
163.393952119902 1.34942
163.44192252512 0.74048
163.544720877935 0.604211

>collision 20.0
44.0495232313099 4.11547
77.038316376702 0.753181
80.0490847827901 11.9564
84.0803017814013 16.7634
90.0457980630111 0.590158
92.0485828091622 1.92083
94.0643050568742 1.07993
103.053426398452 0.881756
105.068689486432 1.19451
106.064342716428 32.0431
106.158871952334 0.890987
115.053168235315 3.45427
117.056512514132 55.2654
117.154994731592 1.96471
117.186261563657 0.75614
118.064147681924 0.622903
120.079726607835 16.5871
130.064558032724 100.0
130.168613546437 4.11405
130.200950752263 1.84633
130.254929291976 0.604838
130.306375320795 0.602259
131.071521690679 1.54146
132.080037887441 78.0188
132.18524146441 3.10313
132.217306194007 1.33489
163.121749788436 18.8807

>collision 40.0
42.0339897064207 3.89008
44.0496939161877 5.58366
51.0229171338094 3.27015
53.038614863479 2.70275
65.0383970409015 9.86173
77.0382109042845 22.603
78.0335137975768 11.1408
79.0527023706978 3.33532
80.049027346148 13.5315
82.0646418444344 2.07046
84.0802358654993 10.7121
89.0379550439863 10.3737
90.0457890575325 24.109
91.0533153089319 2.71338
92.0487636373132 8.71493
93.0569126457537 5.0894
103.053363881467 16.5884
106.064189580408 10.4894
115.052989685128 4.10984
116.048710341536 1.51949
117.056566953127 100.0
117.155016043892 3.78255
117.186045343266 1.44713
118.063688121981 3.05903
120.079642368776 2.1122
128.048238023281 2.32761
130.064203115307 55.8633
130.168457409354 1.43148
131.071346255084 1.81283

