>compound Cisapride
>formula C23H29ClFN3O4
>parentmass 466.190816655204
>charge 1

>ms1peaks
184.015235480849 3.3627
234.127909156466 0.855905
466.190639879561 100.0
466.45656521125 5.35429
467.189367304421 0.946537

>collision 10.0
184.015515756931 19.7109
184.181779563282 0.559987
234.128900621355 5.21913
434.163657671486 2.1702
466.190816655204 100.0
466.456603227191 5.12631
467.183594012735 0.74222

>collision 20.0
96.0808382827266 2.19007
140.996866431702 0.652088
184.015882984538 100.0
184.181941452785 4.51077
185.019020707453 0.562128
234.128750240765 23.3821
266.154704311778 0.814091
283.18122765365 1.47753
297.099917061825 0.88673
434.164342585655 4.6618
466.19026982778 62.3782
466.456407939934 1.75931

>collision 40.0
90.0340408455172 1.07658
93.058125001234 0.795646
96.0809193064414 7.17271
113.00294590498 1.03118
122.096500607948 1.91428
126.010539241419 1.64963
128.025543111329 0.824797
140.997634044139 3.03336
156.021369261269 0.678724
168.991611084615 1.87812
184.01600356384 100.0
184.182048371284 5.37644
234.129461053065 5.25774

