>compound 4-Hydroxy-3-methoxycinnamaldehyde
>formula C10H10O3
>parentmass 179.069932901988
>charge 1

>ms1peaks
55.0175042601804 1.66457
101.004893748703 0.713105
118.578753957381 0.584745
119.047337120023 0.606744
133.062913644269 0.559095
147.047122765552 2.22186
161.057787998654 1.94452
164.042794212724 0.821429
178.159218147566 1.20392
179.069283537144 100.0
179.193322770114 1.46798
179.228987378252 1.06977
179.28643998286 0.65208
179.380744829119 0.798848
179.490980476145 0.868379

>collision 10.0
41.0906236089191 1.00455
55.0182140749759 19.8395
84.0105420940262 2.21243
91.0531606957068 4.06609
91.08085438152 1.00538
95.046373547452 1.43781
101.002049263547 1.66853
105.070147514727 8.81105
115.052353063263 6.86282
119.050140353866 8.2666
123.045123382311 3.86138
133.061525028911 15.9603
137.057671304221 1.19374
146.035408304795 6.67256
146.07973811921 1.11179
147.043894374184 60.5232
147.117340072077 1.881
147.157767685078 1.32467
147.187777561348 1.23721
161.058698591224 39.0971
161.367118975708 1.05047
173.971844083671 1.11168
178.124661649928 1.28358
179.069932901988 100.0
179.22508036592 1.08216
179.288444750402 0.966699

>collision 20.0
55.018467143339 100.0
55.0698514661506 2.48222
55.0874296730658 2.18065
59.0602405792137 4.09828
77.0409311422907 2.82177
79.0551689055096 4.02523
84.0117584197 5.12654
89.0352625236215 6.02578
90.0445655035734 2.77971
91.0546640629577 60.6524
91.1087350766928 2.65172
102.041871667121 3.86915
103.051148375023 3.41101
105.068989385835 23.5966
107.049156438857 6.06434
108.058457908747 4.66392
115.054244194739 8.75927
118.040658337349 6.62706
119.049031589281 78.9328
129.036658055327 2.64001
133.062733419157 20.4169
135.0438044864 9.42216
136.053129482331 19.7547
137.058154226792 4.90293
146.035152487293 32.9943
147.043808904232 60.2746
150.0611609698 3.68021
151.081217926732 2.12949
161.060160508343 37.3342
162.124368515914 2.3974
178.103353562313 5.47801

>collision 40.0
39.0232663518136 11.267
41.0429143300013 9.85964
43.0181425948812 7.88245
51.0258948434058 8.20954
53.046290088558 3.48726
55.018399341014 20.9703
57.042779438863 7.12317
63.0269818181517 5.98785
65.0387624244288 100.0
66.0489333898429 9.7725
77.0401911231476 46.0597
79.0549022886316 72.6144
80.0598542533254 7.29178
82.0407650238896 10.8139
89.0380191100953 55.5426
90.0475580137462 24.5596
91.054088848434 77.2578
91.1009227990848 4.02074
92.0271921211395 7.35825
94.0418604300905 6.50459
102.047954654461 6.15644
103.053964335977 13.3267
107.050554834976 41.6168
108.016687821965 6.94223
108.058613265994 3.50286
108.920864158004 7.31599
118.042135246122 29.7297
119.047778290075 6.43653
132.057512243251 3.26605
136.050993698464 7.83183
146.029602061854 4.17539
147.041787755806 8.20098

