>compound 2-Deoxyribose 5-phosphate
>formula C5H11O7P
>parentmass 237.013072850038
>charge 1

>ms1peaks
81.034644943192 2.48506
200.992544631697 5.05045
219.002606780211 3.99919
237.012828373306 100.0
237.151284697128 1.44027
237.187681972877 0.982852
237.230851332103 0.803048
237.267275523876 0.626462
237.304517382468 0.572822
237.436164404901 0.640828
237.610991608071 0.698335
266.61099160807 1.0e-13

>collision 10.0
53.0392586970042 1.48467
81.0340180607988 100.0
81.1173879966518 2.02447
81.1433959430288 0.770789
81.1649650521275 0.553344
81.3840533365123 0.956778
81.4269437423973 0.628193
82.1840165564596 0.634172
90.9738397711735 0.686813
110.629775144957 0.585553
120.966419275739 6.27123
121.026320481579 16.059
125.031948211816 0.92353
139.03768497753 0.731929
157.044852947271 2.63017
164.92431823587 1.55259
192.985458577275 1.8258
195.01826785268 0.856807
200.991818708597 98.0516
201.160203008767 1.24406
201.21367852625 0.737879
201.331195468862 0.584537
201.465843725978 1.01504
201.636826695219 0.64879
201.732206627123 0.594115
201.800388160688 0.547757
219.002524713734 14.258
219.376074951661 0.906537
237.013072850038 77.8496
237.120490895707 1.98572
237.170185340636 1.20248
237.303916220309 0.619641
237.359564099996 0.617728
237.515508804351 1.00451
237.621688325563 0.582681
237.670601198851 0.773243
237.701682111433 0.586205
237.812306517563 0.705432
237.920306123937 0.702915
266.92030612394 1.0e-13

>collision 20.0
53.0398918282869 2.25161
80.5764376798636 0.650067
81.0333685489268 100.0
81.1122031217175 1.45371
81.1378984346914 0.686623
81.2720551642349 0.951971
81.5070143446737 0.660508
84.0100076150444 1.50678
90.9742225026855 0.81855
106.807863873656 0.54198
120.964625705562 4.41655
121.025312049141 1.19131
157.044292111028 0.751115
164.932800828 1.30781
192.986706244317 0.970904
200.987051002322 4.06035
237.00979287708 1.27746
266.00979287708 1.0e-13

>collision 40.0
53.0394348259162 36.8573
81.0344185804097 100.0
81.1177039761885 1.86867
102.018139632294 1.10791
116.640522528994 1.43005
217.837703435346 1.21493
246.83770343535 1.0e-13

