>compound L-Ribulose
>formula C5H10O5
>parentmass 133.049601359915
>charge -1

>ms1peaks
31.0179606962944 1.57494
33.7083730250617 0.693476
37.3672263758691 0.670911
41.0389785549487 2.82143
43.0197267164649 2.336
44.0507987353126 0.896711
45.0345702047043 7.33423
55.0173863540807 0.562713
57.0333980005818 16.4656
57.0764418579736 0.676816
57.1023451729262 0.591213
58.0688641282696 1.21441
59.0500469893906 4.57799
61.0282454253457 7.49941
69.035090060251 10.5642
71.0146590714612 1.36563
73.0291022628433 87.2837
73.1302519737576 1.10493
73.1504221830323 0.562364
73.3434302318714 0.806987
73.6565977214764 0.555101
80.0122295243711 0.587078
85.028899878651 31.0036
85.1110752393034 0.552614
86.0592925259 1.36188
86.0961349413208 9.11228
86.8589360337273 0.526158
87.0446822084936 9.89754
87.0975106578594 1.17538
90.9776316926324 1.64714
91.0376459538239 2.33852
97.0287587720826 5.3207
97.096955087846 0.752162
98.0973281836797 1.10919
103.03639764402 1.17084
111.514013399012 0.575433
111.562871220603 1.05461
112.010476174229 0.778547
114.052492428843 1.04502
115.039103457755 100.0
115.123948521632 2.90175
115.180044842339 0.688794
115.245206833654 0.728814
115.384397805147 0.80293
115.529370971911 0.546552
115.596523199942 0.612097
115.730974031687 0.593646
116.123671419986 0.536885
123.508746956332 1.06653
132.090257685087 21.2357
132.149324478915 35.6332
132.240659960776 1.31895
132.281989533329 0.835564
132.329875284721 0.559055
133.049601359915 73.1735
133.148552168287 4.7084
133.184220146854 1.48334
133.232582422763 0.527932
133.28968713143 0.635154
133.36246484987 0.673663
133.412941446105 0.595047
133.450102571488 0.67129
133.593465421297 0.651932
134.5934654213 1.0e-13

>collision 10.0
29.0021433591667 0.661359
29.0387295814133 1.53244
31.01763672124 3.99748
41.0401526940542 10.1466
43.0187695410996 24.97
43.0631687734582 0.744705
43.0790866250562 0.885634
44.0539535527388 0.743047
45.034646946441 57.3293
45.0968879830937 0.833562
49.031458616457 0.603147
55.0213058508066 0.891209
56.0279274478444 1.32711
57.03425476337 59.6117
57.0880966315812 1.01968
57.1249028491763 0.566219
58.0666678215907 8.85668
58.4735214577988 0.562081
59.0503401846799 16.9735
60.044035890317 0.754481
61.0288323328773 20.1257
61.0926270003878 0.680568
68.049099208882 4.1393
69.0342438710732 32.5851
69.1108655877363 0.659233
70.0648622959773 1.59265
70.0850487799842 0.709514
71.0127669742994 6.27678
71.0475604051972 1.12071
73.0291942417351 100.0
73.0854845571655 1.90893
73.1079518057331 2.03891
73.1441981777687 0.904002
73.26336016153 1.17968
73.3224290123205 0.591347
75.0438029202564 0.638521
75.0901391147058 3.47587
85.0291638808902 57.1554
85.1355368790102 0.764452
85.1931677748823 0.552209
85.336326805865 0.551288
85.4242299945148 0.571245
85.5365515939677 0.742302
86.0609633467005 10.6811
86.0962602397398 32.1107
86.368361217112 0.632893
87.002541400933 0.546253
87.0451329323412 13.1601
87.0990515541936 1.91676
90.9786823852718 0.984111
97.0283493188033 8.64675
98.0975028970246 15.8453
99.1012812805726 2.02398
103.03520993358 0.681809
112.018814692102 1.00177
114.056784132488 1.739
115.039553155298 13.7531
115.122986080285 23.9599
115.209021108593 0.652931
116.125574376409 1.75884
132.06429405124 9.23778
132.096316449429 4.47029
132.149417542982 32.7597
132.496672498711 0.536066
132.592315376201 0.539318
132.651771131151 0.657167
133.141545661604 1.31727
134.1415456616 1.0e-13

>collision 20.0
29.002079682181 3.25207
29.0195189711458 0.603813
29.0392405675376 2.49565
30.0336203830165 2.72932
31.0167631195024 5.04711
31.0320958171719 1.28972
39.0210289783873 2.09873
41.0397512859757 28.9924
41.0803547212847 0.64577
42.0350153323917 3.9243
43.0186362799318 41.2477
43.0529191770361 5.73694
43.0765519582765 1.5265
43.0942528121849 0.777458
44.0507694619338 27.884
44.0949395901856 0.786599
44.1308290508063 0.588855
44.9964210982026 0.671396
45.034510960662 94.4449
45.094482723534 2.22241
45.1152217219768 0.978749
45.3587278427439 0.773533
46.9849495263254 1.9053
49.0303789196003 1.46849
55.0171822675896 3.72769
55.0522232897773 0.663591
57.0339501354544 34.8281
57.0928216000038 0.789883
58.0659093263349 100.0
58.1349683909949 2.33506
58.1545356185858 1.25346
58.1750077886162 0.613007
58.3065050173907 0.819426
58.3600890158546 0.58524
58.5523040586486 0.936549
59.0093725053893 1.59399
59.0539892945917 5.56225
61.0292818951314 14.1704
61.0731978395986 0.60655
63.9304745859696 0.649419
65.9258218950647 0.779173
66.9507165407028 1.53376
67.0176262783539 0.650297
68.0498411607881 10.1359
69.0342802953986 24.3439
69.0638548065112 4.4384
69.0902002335504 1.09731
69.1108120084441 0.878518
70.0654856082716 35.3646
70.1191847026618 0.975472
71.0144149818584 7.1465
71.0682910945374 1.23703
72.9379204427198 1.51409
73.0288641720181 29.241
73.1041635686804 0.76095
73.9847044886157 1.14518
75.0920810766017 3.76587
85.0287628630812 18.0579
85.092737625124 0.689551
86.0605141718542 8.40354
86.0968214898161 7.18426
86.3771052056536 0.661193
87.0509169378556 0.913929
98.0964798801832 96.2157
98.188493801373 1.92681
98.2103203433207 1.18503
98.2420574021182 0.711442
98.270880859789 0.607938
98.3354244998177 0.606067
98.4431228899104 1.05141
98.5571909685225 1.14232
98.7020144668776 0.68266
99.0989944636235 7.76384
113.101175478922 1.23382
115.122453268464 20.9013
116.12194326009 1.58546
117.849141792695 0.643504
127.960334658972 0.851298
132.149914130479 4.04089
133.14991413048 1.0e-13

>collision 40.0
27.0230734482607 1.38345
29.0042602589181 2.12914
30.0336543929205 15.2555
31.0179040763521 3.5911
39.0232025609955 22.0498
39.0804542551198 0.650396
41.0397742264714 70.3093
41.097026253032 1.32668
41.1519374414561 0.809411
41.5454904575866 0.631199
42.0094633837625 2.09739
42.035220687236 58.3311
42.0957628809391 1.41553
42.1330470994034 0.63705
42.2147185585061 0.865
43.019088959085 51.6331
43.0436016408903 19.2675
43.1036233487472 0.841222
43.1178931307847 0.764724
43.5085982823095 0.719736
44.0504381865982 100.0
44.1117579304833 1.61006
44.1278602058899 1.60184
44.1775455929335 0.7776
44.2062675041153 0.606436
44.2862898691006 0.712439
44.7680680674209 0.62208
45.0345880467272 25.3827
45.0828551000012 0.606427
45.1119440246553 0.749324
46.9880254540475 0.937917
53.699951407702 0.572891
54.0328394443124 3.06132
55.0194101774371 3.21263
56.0521699887981 2.56641
57.0354677634567 4.60934
57.0798026073294 0.602357
58.0659065731367 94.665
58.1534030264422 1.1031
58.1670200307865 0.878488
58.1913375543915 0.699083
59.0666825653022 3.61937
60.9881058153 1.26616
62.988326251506 1.57017
68.0504621612477 7.27331
68.962225127856 0.701607
69.0363531745481 3.64058
70.0658426564064 79.0053
70.1331266006072 1.33276
70.163835782937 0.668165
70.608980503744 0.647786
71.0131624818212 3.05386
71.069983251848 3.30847
71.0952800069308 0.811071
72.9367729433545 0.580753
85.0274792566124 2.25703
86.057183440407 0.672415
98.0965727908248 9.95415
98.961287904837 0.820085
99.961287904837 1.0e-13

