>compound Digalacturonate
>formula C12H18O13
>parentmass 353.070794516814
>charge -1

>ms1peaks
57.031353209478 0.602699
71.012819381906 6.01028
73.0288812371516 1.05783
85.028243810054 6.03959
97.0276883400494 6.21431
101.022681479486 0.755048
103.038442392986 0.511765
113.020840593328 1.04403
127.038112260772 4.62592
131.032837432779 5.29647
139.03824241091 4.772
141.016605543903 13.3229
149.042999263478 5.31541
159.027597023231 7.52399
173.041826716515 2.45871
177.038872185053 19.9459
183.027171962079 9.31417
201.037652326786 10.8571
219.04898848904 25.5487
225.042919837914 0.585797
261.059663912445 1.27716
289.053503380492 7.45833
299.037325894554 0.760885
307.064168903963 1.78207
317.048319911926 3.87283
335.06043504369 40.3349
335.235187885288 0.721617
353.07102101065 100.0
353.236353280463 1.71658
353.29869773851 0.907946
353.388602724062 0.692438
353.478031172008 0.572011
353.715443994662 0.607274
354.71544399466 1.0e-13

>collision 10.0
43.0167312401012 1.32572
45.0331261956396 2.29405
49.0308546635991 0.832175
57.0313002264212 3.99521
61.030286224343 1.69829
69.0350924151808 4.16694
71.0126740312224 70.5217
71.089236937238 1.6489
71.115274383649 0.615474
73.028966511708 22.6182
77.0201405210877 1.03755
81.0344010906875 1.14096
83.0133693332001 0.883341
85.028110278563 61.2097
85.109397265736 1.18454
85.4514791841663 0.695033
89.0201045739121 0.788746
93.0293977826135 0.655813
95.013192881376 0.643602
97.0278379700762 90.8428
97.1170923869122 1.56694
97.1436932506275 0.782732
97.2098741058522 0.611425
97.327110544747 0.55255
98.6932163760062 0.732661
99.0075359980399 6.03277
100.956967812166 0.542058
101.021985225928 10.6386
101.069357838694 0.834291
103.036743197587 9.61474
105.016365581661 2.57333
107.042461053821 0.615687
109.026766055154 2.32209
111.047285462763 0.728433
113.022590162598 10.8717
115.040141686602 1.01715
117.015649516167 3.45245
125.02250865645 0.680228
127.0375301251 64.7303
127.140458215359 1.33025
127.171967541609 0.745976
127.234405953549 0.574995
131.032432582399 51.0015
131.130910151468 0.775749
131.170717520779 0.511942
135.027911884449 0.610815
137.02080713451 0.862887
139.037475943425 47.0128
139.137469726488 0.651859
139.79360251815 0.661947
141.016951018612 100.0
141.098776313826 2.33547
141.126489876316 1.4764
141.155563359204 0.843865
141.197114282178 0.710847
141.228583709138 0.595033
141.330073288195 0.602795
141.393672656418 0.509721
143.027137951153 1.63595
145.049681894292 2.21282
149.042295656005 30.457
149.155001426793 0.561361
151.031627369087 0.598497
155.031051871749 6.73725
159.026991702432 58.1178
159.141697317462 1.33055
159.342826366952 0.577671
159.530924074013 0.530679
173.042957438251 17.1256
177.037936214586 65.1602
177.156766621236 1.32511
177.701596799289 0.535465
179.032530150774 1.17631
183.02762761963 67.0839
183.186356204112 0.521288
183.379167562154 0.533575
183.60345042969 0.582354
187.02101109137 3.70181
191.046134078227 0.876292
197.039389165298 0.719541
201.037312166771 47.8249
201.150165965595 0.88562
201.481052507578 0.528265
209.040270413663 0.642272
219.047535182299 52.5718
219.186284605385 1.14959
219.348191088952 0.585226
219.555940458428 0.569392
225.037063514842 3.79005
229.026570728725 1.19632
231.055189799098 0.701752
233.030377440164 0.820583
243.045563064376 5.29776
253.027577045383 0.711208
261.059852366392 2.14533
271.039369271577 3.49265
289.053444693911 28.0536
289.192340487398 0.995828
299.037465335759 1.32399
307.060329592632 2.5255
317.050872276349 9.10632
335.058283344034 30.9404
335.284350017134 0.558688
353.070794516814 10.9834
354.07079451681 1.0e-13

>collision 20.0
43.0181569948242 1.18665
45.0338878935222 6.87951
57.0336278998358 5.79439
59.0115587245248 0.563745
61.0295397627293 1.33503
69.0325524565315 7.65868
71.0126429461557 75.0664
71.0900274636092 2.01795
71.1108933263553 0.781571
73.0282789838787 39.0205
77.0221838776943 1.12595
81.0297109002945 1.69372
83.0135770027424 1.47091
83.04898586673 1.41605
85.0280867166832 67.4595
85.1107832566073 1.18579
85.1413703863229 0.551807
87.041458493999 0.992603
89.0230677045895 1.65145
95.0124892448108 2.58259
95.042645783552 0.527883
97.0278551728313 100.0
97.1172173228061 1.60384
97.1472460347666 0.902198
97.1819706128689 0.702043
97.32081291144 0.526309
99.0059328607102 7.86
101.022401638818 18.3278
101.076351122922 0.665394
103.038512738117 12.3879
105.015186252617 2.44622
109.02778936961 6.34561
111.043345781876 1.37704
113.0226251001 12.2468
115.036398991743 2.40339
117.017078145134 2.42175
123.006999034021 1.47212
123.037470557843 0.598749
125.020592987251 3.19287
127.037759737437 72.538
131.032856966883 14.5677
137.022936317086 1.50961
139.037504356164 40.3645
139.145186472231 0.671405
141.0169811628 29.8364
141.124589215317 0.729268
143.029822521445 1.76803
145.050727968012 3.08882
149.043027742913 2.8285
150.991817721743 0.573235
151.031151289539 0.566969
155.031340103663 8.00384
159.027171296426 30.4253
161.046792939958 0.575703
163.037946705461 0.914931
163.331241212757 0.53464
165.014505123198 0.876159
173.044086391289 6.17278
177.038360549817 5.54846
179.03309989778 1.07398
183.027218017161 41.9596
183.148034000178 0.886526
187.019699102947 1.74882
189.012178574006 0.523652
201.037893599455 8.96559
201.10773778872 0.801695
215.055805213048 0.932824
219.049831029261 1.79799
225.038976504496 2.00914
243.050906506453 1.16505
261.056666838932 0.766668
271.04116290622 0.978006
289.053544464325 0.801727
290.05354446433 1.0e-13

>collision 40.0
29.0005451693319 0.540438
31.0160994329779 0.729908
39.024431208684 2.40462
41.0395254019977 5.71376
43.018204650366 17.4251
43.0551694490423 1.29915
43.0793100176379 0.51761
45.0337984156793 37.3019
49.02765594759 0.977608
52.0299787611908 0.687681
53.0014109796523 0.946176
53.0390074509707 4.28158
55.0177429350119 4.19041
55.0552236103169 3.96427
57.0337240046384 21.7762
59.0121574842908 1.50774
59.0485836729987 0.82909
61.0284820164265 9.16388
68.0242262386386 1.29283
68.9966036721644 2.0273
69.033300268734 23.2451
69.1070193183933 0.520917
71.0123933943128 100.0
71.0878758488958 1.80238
71.1094223052555 0.796474
71.1288833224892 0.798945
71.1724171207193 0.685417
71.2250156936466 0.723667
73.0281960067129 57.4328
73.128538895184 0.572527
75.0439856419764 3.24285
81.0316795465125 10.625
83.0121667521633 8.07291
83.0474650384382 1.56
84.0197350920973 1.22156
85.0277205580364 63.9315
85.1118015458827 1.59282
85.1561364683938 0.584679
85.2092109596299 0.529431
85.3071581340418 0.590155
89.0207353358212 0.690577
93.0336157517398 1.02542
95.0127588567428 15.7593
97.0276570931405 93.1586
97.1144907900386 1.61181
97.1486370343362 0.767458
97.178635157048 0.515818
97.2505819919459 0.739547
97.3475952779586 0.652886
99.005795993356 8.39534
101.0228201326 26.9964
101.111398228816 0.739925
103.037350177311 4.58704
105.032225538737 0.763304
109.0276128281 6.21479
111.00675299342 1.73156
111.041798192379 5.39758
113.021995427659 11.2205
117.021437552251 0.987554
121.024971573104 0.7786
123.007485140454 3.28846
123.044812405884 1.65888
125.022497060502 4.19938
126.031012242744 0.824058
127.037366125 26.8994
131.030144620697 1.01407
137.020837628111 3.38336
139.0376339528 18.6904
139.130686577703 0.531734
141.017506767149 5.0257
143.031290245731 1.84058
155.030947278771 2.37356
159.029558384405 1.74771
165.019892640155 0.596764
183.028606720391 5.22954
201.043060437291 1.21074
202.04306043729 1.0e-13

