>compound &#38;beta;-L-Fucose 1-phosphate
>formula C6H13O8P
>parentmass 267.022924484472
>charge 1

>ms1peaks
27.687147944075 0.69673
34.1833176771469 0.655727
108.376083546625 0.646468
120.965727379512 12.4511
121.042289819399 0.955638
121.41026962789 1.64953
169.047525690314 7.14228
182.918122098152 0.728763
251.156706267784 0.637517
262.397469313894 0.66209
267.025028050744 100.0
267.187661637745 1.87707
267.308129229994 1.25796
267.414993309857 1.21028
267.528887307463 0.811209
267.600140520439 0.763797
267.873284994647 0.78735
267.986602777478 1.14827
296.98660277748 1.0e-13

>collision 10.0
120.966471706043 100.0
121.04197755029 2.63393
121.09691939118 1.60837
121.185897652252 0.928265
121.240222070232 0.87373
121.502185384179 0.918336
169.048229186944 20.6638
210.074922050252 0.995293
267.022924484472 12.3865
267.112245397262 0.937044
267.153326404688 0.973224
267.214775997203 0.853952
296.2147759972 1.0e-13

>collision 20.0
120.965558163314 100.0
121.040279776224 2.74774
169.047586508684 2.8595
250.738659745946 2.47651
279.73865974595 1.0e-13

>collision 40.0
55.1336262326576 80.3273
55.6037320097581 78.6568
189.366068768907 100.0
213.600296673293 76.4814
242.60029667329 1.0e-13

