>compound Chitobiose
>formula C16H28N2O11
>parentmass 425.176837734921
>charge 1

>ms1peaks
84.0432989612005 0.699542
126.054977024607 4.01587
138.053458716003 1.5979
168.062117965926 0.829532
186.076974125775 2.13955
204.087118201938 98.701
204.216662697387 1.58644
204.265625198647 0.6879
204.311007390542 0.608781
204.369475132589 0.607713
204.488140689457 0.710903
222.097111410616 4.6136
407.166314764251 13.978
425.176837734921 100.0
425.361110637123 1.83075
425.477601795702 0.961369
425.664105694893 0.978135
425.806685434032 0.652848
425.93266669734 0.727553
426.081716530059 0.578073

>collision 10.0
84.0448826832995 1.55969
126.054998340297 13.2533
138.055654501456 4.47702
144.061545699472 0.578702
168.065248649079 2.89802
186.076824703959 5.4535
204.086912736626 100.0
204.216252369661 1.42826
204.26357250414 0.74856
204.533802732302 0.530621
204.698247833575 0.638893
222.096914011477 5.05108
407.165084106941 9.45978
425.17738196543 4.07695
425.280071932826 1.28951

>collision 20.0
61.026888050962 0.544427
84.0456302977253 13.1462
96.0420400402164 0.855084
97.0295870362319 0.946563
98.0616611928613 1.16573
126.055359036163 84.2674
126.157954647561 1.79199
126.18409370362 1.04653
126.218122098824 0.619058
126.574989458055 0.594474
138.055669780851 38.6449
139.030783085891 0.538676
144.066289585388 3.54578
168.065409677455 15.4107
186.07578797004 14.7474
204.086707517537 100.0
204.214731017526 1.77394
204.279415331457 0.716903
204.41974657333 0.863478
204.788442516201 0.673567
222.094036622385 2.45603
407.170112758539 1.55502
425.28625712565 3.82307

>collision 40.0
41.0410953634801 2.54392
43.0202312698251 1.56213
53.0419980638683 0.799173
56.0518344447778 1.75788
60.045365514292 1.48425
61.0297866263941 4.66251
68.051307446029 0.871808
69.0343925057232 2.10698
70.0641837412721 0.510776
71.0517407579324 0.720595
80.0501508957285 1.94239
81.0335249174187 2.47591
82.0655564054937 0.801967
84.0452819069198 100.0
84.1297696444592 1.65694
84.1541203060578 0.824168
84.1850695860386 0.543369
85.0355767085794 0.693177
86.0616652203805 0.575993
96.0448181007388 12.2437
97.0329066425295 0.736705
98.0608688513723 9.12932
109.028621492297 2.12073
110.062041133719 0.853881
124.037406807465 0.687682
126.055410731755 84.8937
126.157767024547 1.44577
126.190644704448 0.617809
127.046195984411 0.925396
138.055095831086 70.0553
138.191237196149 0.62403
138.325617199618 0.585797
138.470466815336 0.60147
144.064822523772 14.1552
144.1265856138 0.546921
162.074310453752 0.606505
168.065264901183 3.56661
186.078813205961 1.90485
204.086195808314 1.91888
266.456204029796 0.561435

