>compound Cystathionine
>formula C7H14N2O4S
>parentmass 223.074068664279
>charge 1

>ms1peaks
56.0499963928763 1.17364
88.0217665307817 2.40143
134.027775756437 5.98427
177.060978174336 0.681299
222.876656685306 1.24401
223.074445244502 100.0
223.208291076958 1.04268

>collision 10.0
44.049960254497 1.46433
56.0496791985123 8.25186
88.0221650952974 16.1111
122.025192327051 0.737001
134.02664772407 100.0
134.127674794137 0.685307
134.690512666148 0.722388
149.022383431743 1.10059
160.040622246999 0.736075
164.922013735706 0.697834
177.066117840654 4.83666
206.042358165769 1.06483
223.074068664279 39.1653
223.201760537431 1.36183

>collision 20.0
44.0497183195511 2.43931
56.0504803874501 9.26526
61.0071928192966 0.62641
74.0241387670699 1.12293
80.94967955796 0.538662
88.0219435693091 100.0
88.104707170581 0.735597
90.0356335188335 0.892536
134.026670958058 66.5586
149.024946558178 2.33558
164.92049763919 0.536352
223.20118085277 0.50271

>collision 40.0
42.0353967000203 0.998161
44.0501324189382 5.59443
56.0501907782385 9.91174
61.0109014437052 5.34128
74.0238593776786 0.899586
88.0217413335332 100.0
121.026591191779 0.564283
134.028253909165 0.526622
135.936943331771 0.558256

