>compound L-Norleucine
>formula C6H13NO2
>parentmass 132.101796595037
>charge 1

>ms1peaks
86.0972324783453 50.0393
86.1810941955785 0.793701
132.101796595037 100.0
132.206167157019 2.62553
132.239660195274 0.876634

>collision 10.0
30.034034151128 1.39888
41.0393446263786 0.541214
69.070476472869 3.41434
86.0968207863697 100.0
86.1813882200768 2.88662
86.2086916392678 0.95835
132.101653438818 2.78748

>collision 20.0
30.0340346020816 11.527
41.0394797657183 13.5985
43.0550888858277 7.22818
44.050296190253 3.69354
69.0705066449833 25.9318
86.0969151835857 100.0
86.181089360778 1.02029

>collision 40.0
27.0234280776458 0.556944
30.0340166051552 7.70497
39.0237828649937 11.9497
41.0394915023964 100.0
41.0984667801506 0.61738
42.0348162508448 0.703522
43.0184812777277 0.906912
43.0550450032613 35.376
44.0502630819727 14.2429
44.997542914381 0.650423
45.0347229278256 2.4139
53.0398211745919 1.41695
55.0181702503972 2.09686
55.0549073146176 3.06909
56.0502773607852 1.15362
69.0700843560976 3.11544
86.0967186259774 1.43259

