>compound Citalopram
>formula C20H21FN2O
>parentmass 325.171175177446
>charge 1

>ms1peaks
109.045052177522 0.603182
262.102749055849 0.501939
325.170455666318 100.0
325.395402072947 2.294

>collision 10.0
109.04489891018 4.23902
116.049411044897 0.532467
262.102822563631 4.77686
280.113520846192 0.853472
325.171175177446 100.0
325.3967815986 3.54807

>collision 20.0
46.0656928195401 1.412
58.0655136828472 4.98838
84.0809211269795 0.562862
109.044490029233 63.3661
109.174936830583 1.77323
116.048804021646 8.15071
123.024210499851 1.0404
144.043839508355 0.880355
156.079998287836 1.99265
166.06413206929 4.32343
184.073503956312 0.545918
221.062646048488 2.01007
222.070828403421 0.917233
227.070826251226 0.741042
234.070193303368 8.0217
235.089371978502 1.64531
236.086752094755 0.798479
238.065114787958 1.30217
242.095050882796 1.99682
247.0780490016 3.72277
250.100744804177 1.31119
262.101723948095 45.7418
262.307057004549 0.665524
280.112232298549 3.35286
307.158417491195 3.82143
325.169908992946 100.0
325.394147882839 1.97853

>collision 40.0
41.0396563100897 0.503658
46.0658054818078 0.679427
58.0660250985333 8.54642
70.0659703014774 0.509854
83.0294057634637 2.79244
84.0809061254447 1.44821
89.0387727994382 1.38666
103.054487345651 0.744282
109.044884561757 100.0
109.174940019267 3.49584
116.049307892828 14.0767
121.044808632093 1.21335
123.024106634674 0.915084
127.053609675923 0.646971
129.069760868221 1.98367
130.06401052986 0.77274
133.044551196291 0.75906
139.053893023228 0.593651
140.049058614756 3.38623
142.064885106357 0.717947
144.043922698002 0.714614
154.065396415218 0.923601
156.080321531499 1.67017
159.059487323493 0.500819
166.064476449337 7.10197
190.065148809721 0.975678
202.073718658607 0.566443
207.05911724884 0.828424
208.055730540231 0.912731
214.06592198486 0.765367
215.084491894248 2.75927
218.058763440648 1.33605
220.064565310945 3.41722
221.063246941333 6.28105
222.071606992613 3.02694
226.066906483262 0.58215
227.071850679053 7.58977
233.073571756188 2.12996
234.070853993981 17.3327
235.084075826489 2.53219
236.086763950284 0.635027
238.065339591385 1.35431
240.079586390992 2.22296
241.087859964534 2.09197
242.096605685762 1.77748
245.068640657437 0.933483
246.072013265719 6.97571
247.078525646908 13.7415
250.102557764296 1.2935
260.086480198714 1.18869
261.093808455929 1.73829
262.102103414467 5.13976

