>compound Adenosine 3'-monophosphate
>formula C10H14N5O7P
>parentmass 348.070536321246
>charge 1

>ms1peaks
136.061613431755 5.14334
348.07062819028 100.0

>collision 10.0
85.0282960881716 0.657692
97.0269589126594 0.598561
98.985086790257 0.746493
115.038740260471 0.781778
136.061157661653 41.0464
213.014437870509 1.01748
330.060233706972 1.52974
348.070536321246 100.0

>collision 20.0
69.033979609479 1.03932
85.0284892054669 3.00975
97.0284773910344 4.10599
98.9836045452435 4.11561
115.037354341044 1.2869
119.034575510764 0.693626
136.061389472718 100.0
136.997721365831 0.672838
164.995239518224 3.74264
213.018160111436 2.00018
250.091112922451 0.544316
330.060808268929 1.68317
348.070351915497 12.7747

>collision 40.0
41.0394140664747 1.44548
57.0338624777647 2.7268
69.034145625461 7.92351
80.9731472446311 1.61678
85.028549188726 11.9132
97.0286095510581 6.12346
98.9843057656837 16.278
119.035081551504 4.83815
136.061571419864 100.0
136.999631173688 1.84478
164.994812394593 1.0764

