>compound D-Serine
>formula C3H7NO3
>parentmass 106.049898087021
>charge 1

>ms1peaks
42.0350200740528 1.20256
60.0450257571567 44.4624
64.0164698756845 79.0331
65.0194362377853 2.06331
70.0300612430341 0.744218
88.0391474187033 6.89702
105.042060439751 6.3191
105.982051462612 0.586094
106.049898087021 100.0

>collision 10.0
30.0330670679368 1.03011
42.0347471563975 12.3824
43.0187665713527 0.774842
60.0452638105629 100.0
60.1156436991078 0.614142
64.0165436271402 7.74328
70.0290819628855 6.33009
88.0397030183498 9.55233
106.050650731064 9.63877

>collision 20.0
30.0335730283154 1.93553
40.9875621986936 0.513314
42.0345323863767 48.3289
43.0186132601777 4.87114
44.049338168489 0.647735
49.9920959028222 0.519911
60.0451414684893 100.0
70.0299498336713 3.83218
88.0391754156282 2.7176

>collision 40.0
29.0160004250141 3.01922
30.0337442358887 6.08154
41.0279050411257 1.29753
42.0348005361488 100.0
43.0187481639714 20.6979
43.0391421037978 2.87638
44.9974960688927 8.58267
49.9551337342007 1.06735
51.0212503372755 1.0594
60.0453523484424 23.5679
70.0303124637671 2.00342

