>compound L-Methionine S-oxide
>formula C5H11NO3S
>parentmass 166.052544723065
>charge 1

>ms1peaks
56.0513865737938 4.02647
74.0242258465194 15.5394
75.0270034538914 6.81494
102.053144249563 1.61829
149.026803713304 4.88496
166.053184142717 100.0
166.166106234112 1.50985
166.225329365095 0.526753
166.424382193952 0.523274

>collision 10.0
28.0181039353062 0.703489
46.0292070581358 2.72085
56.0504148080785 33.126
56.1178170666327 0.599118
58.0658753437968 0.573798
61.0113645564811 0.664825
68.0250549386699 0.599088
74.0239897435522 100.0
74.101192055331 1.72215
74.1403182939662 0.599711
75.0267507784537 29.6073
84.0434384329631 2.25547
85.0289225207023 0.750026
88.0806855641383 0.571445
102.055102206778 15.1221
120.044796013634 0.540808
121.031315887644 0.617558
131.013897228161 0.890021
148.038244576303 0.607536
149.025329223831 25.4703
166.052544723065 41.925
166.165441959595 0.692544

>collision 20.0
28.0185046993311 4.04878
41.0403401832652 0.950307
46.0303344637192 10.8465
46.9958253607533 0.910409
56.0504939025988 76.9715
56.1179480037584 1.53299
56.1504435303075 0.611674
57.034726311236 2.56435
58.0652644202458 1.24208
61.0102628456862 1.38546
65.0078940087458 4.57113
74.0249071103769 100.0
74.1000198057845 1.94345
74.1301830978148 0.666577
74.1814740142681 0.701627
75.0266824182374 9.1656
84.0443994163626 4.2359
88.0414507048848 0.866794
102.055482310786 16.4125
105.475574435285 0.623603
121.033708133367 1.47824
149.025929897149 4.20496

>collision 40.0
28.018677946864 5.46417
32.9803826872388 1.32129
39.0216025648931 1.05378
41.0400198589617 3.30018
42.006342579495 1.14992
42.0457370744539 2.02094
44.049604161614 1.5694
44.9977322674625 0.823226
46.0307685824595 6.23683
46.9949283734575 2.60285
54.0363785791709 1.90314
56.0504571160212 100.0
56.1159425014467 1.5915
56.1794322331121 1.18223
57.0235893271257 7.6463
58.0652346443577 1.80325
61.0155758359078 1.0468
62.9905965465312 2.04557
65.0052831265223 3.00963
68.0296634204965 1.99772
74.0253231491469 5.06353
74.0574997009328 2.07053
75.026394945412 1.67942
89.0044202849482 0.946553

