>compound (4R)-4-Hydroxy-L-glutamic acid
>formula C5H9NO5
>parentmass 164.055021596132
>charge 1

>ms1peaks
100.039361618308 3.54273
118.049592889283 5.82026
122.05676034261 2.71118
146.043938716276 7.75527
164.054690804187 100.0

>collision 10.0
54.0342036650906 3.09157
72.0446284493043 4.73502
73.0297745611079 0.534807
74.024130603685 17.4117
82.0288216625389 4.45845
83.0136675550381 1.0622
100.039018531023 100.0
118.04935350522 67.3974
122.056852413986 2.22625
128.032652516129 1.26369
146.043932790492 30.3433
164.055021596132 25.5082

>collision 20.0
44.0499578524379 2.82773
46.0305534702089 1.60248
54.034527040721 17.2423
55.0184830837773 2.11409
56.0510295048267 1.68671
72.044669111762 9.96685
74.0241767018266 23.1142
82.02899185402 20.2829
83.0126081979591 4.37579
100.039446317968 100.0
110.023018385705 0.593473
118.049347074879 3.07721
118.083728317594 0.863767
146.043383975675 0.744382

>collision 40.0
27.0228808955308 1.1201
28.0181573854286 1.53731
42.0353936652943 0.531761
44.0138789899519 1.77178
44.0503397039762 32.991
45.0342477768866 2.0573
46.0296561745512 4.40713
54.0347225335442 100.0
54.1028798884621 0.537277
55.0186819289493 52.7021
56.0502501505989 4.63961
72.0447556498676 32.7763
74.0237760573337 5.10679
82.0285725040816 31.799
83.0121558260312 5.53387
100.039357585724 11.1169

