>compound N-Methyltryptamine
>formula C11H14N2
>parentmass 175.122996165238
>charge 1

>ms1peaks
132.080994902312 3.84014
144.081302731514 18.586
175.122996165238 100.0
175.243216206734 4.96221
175.282568771253 1.65636
175.318588651565 0.708031
175.404752488063 0.574136

>collision 10.0
44.0507286116768 4.35332
117.067640626557 0.545456
118.065110842071 0.559619
132.081337235562 21.8101
144.080790129533 100.0
144.190170386021 4.81348
144.225259505477 1.59221
144.258452340768 0.656005
144.336395792277 0.515452
175.123084892602 4.90817

>collision 20.0
44.0507474773895 7.78486
91.0546468803962 0.548582
115.054403285119 1.55623
117.068929699686 6.75752
118.065281035402 0.684044
127.054335545153 2.52701
132.081219360197 16.2028
143.073051710383 3.82262
144.080752784412 100.0
144.190295191638 4.52045
144.225133409239 1.4462
144.258630483081 0.595142

>collision 40.0
39.024042909944 2.27966
44.0506912771808 32.7131
51.0239701926204 2.12923
65.0395334237302 5.80337
66.0349198702754 2.3929
67.0423554915222 2.09919
77.039316591185 25.1289
78.0466437905567 1.48984
89.0390029508513 8.85711
90.0468434172824 10.839
91.0549392016703 61.6977
93.0580130222528 1.60364
101.038612379574 3.55277
102.046204730376 1.86697
103.054590841673 6.93783
104.050141263908 1.50793
105.070261956244 2.75055
115.054737814807 100.0
115.152330687305 1.50346
116.059214985991 14.7269
117.06245489156 84.4955
118.064978433424 3.44056
126.046538363138 2.05149
127.054315708367 34.6414
128.052404681211 10.2777
129.057351658721 2.88522
130.065066163894 3.63312
131.073028099979 1.99827
132.080790627951 3.81919
142.065239315781 10.1684
143.073324062031 76.9796
144.08090162412 26.1577

