>compound Dhurrin
>formula C14H17NO7
>parentmass 334.088202101467
>charge 1

>ms1peaks
334.093255824808 100.0
363.09325582481 1.0e-13

>collision 10.0
145.025144551841 3.97641
185.040637093976 3.84927
212.051847924189 0.680447
307.077531947645 0.754032
334.088202101467 100.0
363.08820210147 1.0e-13

>collision 20.0
50.0008695366822 1.53245
123.043542342302 3.96838
145.024992265092 62.8769
145.132347900085 0.921734
185.041093442894 39.2341
185.163074733723 0.667544
201.035586930531 1.06544
203.052368339175 0.680564
212.052613275544 4.44151
279.079914662035 0.536716
307.07735977325 4.29314
334.087836177331 100.0
363.08783617733 1.0e-13

>collision 40.0
50.004647326071 4.63251
61.0273276395084 4.93429
69.033759227982 3.29946
73.0260061482869 7.6375
77.0375799788565 17.9697
81.0301123960895 6.80866
85.0288480866407 7.59312
91.0372500321868 3.5416
95.0493463153286 90.6783
97.0318452362989 10.8451
102.960475698708 4.91863
123.043727307571 100.0
145.026153417203 25.9984
185.0373224434 7.93915
203.042623563784 3.09666
232.04262356378 1.0e-13

