>compound D-Glutamine
>formula C5H10N2O3
>parentmass 147.075750925279
>charge 1

>ms1peaks
84.0446426711169 4.45507
101.071001093989 1.6048
130.049714079585 31.8334
147.076202622017 100.0
147.186053950163 0.678085

>collision 10.0
41.0394329529109 1.22462
56.0502091750816 2.43231
84.0449034099974 100.0
84.1290447360545 0.679174
85.0286581574912 1.2193
101.071140503489 6.20785
102.05476309166 3.46009
130.04957025495 95.1017
130.155510683706 0.534313
147.075750925279 10.255

>collision 20.0
41.0396730502562 6.62666
56.0504141756051 11.4633
84.0449287234247 100.0
84.1284501655127 0.721501
85.0287668956336 1.61113
101.07137815171 0.538943
102.055253423552 1.28715
130.049600851053 4.66671

>collision 40.0
28.01885960219 3.47508
29.0396450796581 0.868846
39.0242128900567 3.08985
41.0397505300571 26.8325
43.0190412913319 0.702489
44.0145689657375 2.70196
44.0518995201798 0.596152
45.0334283319926 0.813377
46.0294070394121 0.625721
55.0176142232456 0.952538
56.0504565483313 100.0
56.1202576390739 0.783073
57.0369277356591 1.79729
59.9314759037679 0.897231
64.9283033649631 0.791424
66.0351610076232 1.05384
74.021913326964 0.804609
84.0447606261117 34.0084

