>compound (R)-(+)-2-Pyrrolidone-5-carboxylic acid
>formula C5H7NO3
>parentmass 130.049260080869
>charge 1

>ms1peaks
84.0445448356014 14.182
129.051425857417 8.84655
130.049728110952 100.0
130.156886010127 1.05524

>collision 10.0
41.0397601956869 3.82558
56.0504790492675 3.28821
84.0447040394479 100.0
84.1275578005156 0.596381
97.0031034140432 0.634823
102.056256403185 0.534817
129.050430982609 0.826494
130.049260080869 22.6517
130.157972972964 0.705036

>collision 20.0
41.0395115421663 23.0253
56.0504597127192 28.3725
84.0446715488661 100.0
84.1326992022676 0.59823
130.048187514897 1.76394

>collision 40.0
28.0189706167881 6.54723
30.0334821282419 2.79242
39.0236787322884 5.63098
39.398349860584 0.83728
41.0395338999703 33.7178
41.0699995781087 0.968087
42.0102706705718 1.83677
43.0186735139534 1.2146
44.0141777782446 3.27899
44.0510991587984 3.4322
54.0364137865159 0.776903
55.0190842464252 7.9029
55.9331455110964 1.08883
56.0501145570249 100.0
56.1018013371022 0.841912
56.9410880268859 0.771775
56.9665359233026 4.80911
57.9362984716045 1.04296
64.9735991937805 0.862826
66.0321488000089 1.5574
71.938344748591 0.818087
84.0444734585363 17.7776
88.948703190302 0.792477
114.952855351317 1.71931

