>compound Nivalenol
>formula C15H20O7
>parentmass 335.111584298979
>charge 1

>ms1peaks
106.797283612634 0.737009
294.098529729566 0.659387
334.201912440311 3.50275
334.256409432509 4.18523
335.111856131087 100.0
335.258040542025 1.88918
335.329140954364 0.554434
335.530026163347 0.558821
335.613206772956 0.772971
335.755946878704 1.22219
364.7559468787 1.0e-13

>collision 10.0
84.0824687333602 1.41172
113.10587773738 0.541935
126.138181912017 0.525967
226.758752101622 0.551251
234.127499042598 0.591968
256.089674642335 1.21638
256.960136522636 0.685226
293.163617029036 0.763819
293.214977022803 1.15404
303.134838338366 0.505391
331.944848159472 0.610236
334.151955325396 1.12627
334.207663709241 2.24018
334.253036997276 1.70522
334.330988071007 1.59254
335.111584298979 100.0
335.312996687511 0.733039
335.423740254878 0.993548
336.013699387132 0.772783
365.01369938713 1.0e-13

>collision 20.0
84.0801406417078 4.12204
135.11554854596 2.73003
244.140343487485 2.6889
263.157192601352 2.82433
316.192121035472 3.29153
334.206199409607 13.1655
334.285033686484 3.44574
335.109138808654 100.0
335.186629532916 13.7343
335.264180486742 6.05875
364.26418048674 1.0e-13

>collision 40.0
34.809797625011 67.9151
58.0618943328067 72.5806
69.0316396885217 57.4984
70.0669583693511 52.2589
84.084749980399 100.0
91.0526473644696 50.0758
118.065905149965 46.8831
123.093539211327 75.8504
147.063897472869 52.7821
295.374108584172 50.4356
324.37410858417 1.0e-13

