>compound Clarithromycin
>formula C38H69NO13
>parentmass 748.483885013908
>charge 1

>ms1peaks
158.116501259231 1.26801
590.38989799668 1.83711
748.484586134255 100.0
748.726513509394 0.500591

>collision 10.0
83.0491234616654 0.918218
116.107428295428 1.68322
158.116686701749 12.6811
316.211892958396 0.852664
558.36135491302 2.29592
590.389710616522 18.8385
716.455166734604 0.626485
748.483885013908 100.0
748.71512941729 0.560941

>collision 20.0
72.0826317491244 0.572252
83.0494097679483 8.81765
98.0963944919122 1.77327
115.074223573117 2.21155
116.071097707264 1.97402
116.107022236317 10.7644
127.074379001129 4.63674
158.116970774559 100.0
159.118507273951 1.06357
284.183186933887 0.80084
316.211934464349 2.07966
365.237544395261 0.796625
540.35104168519 0.769665
558.363393919573 12.9601
590.38949418132 60.3104
591.391450961352 0.806075
716.45069060988 0.853043
748.482133108939 31.4647
749.481650405488 0.504858

>collision 40.0
41.038867414096 0.999313
43.0181138422761 0.620554
46.0654878822252 1.40491
55.0550952196632 1.50383
58.0665060344088 0.687715
59.0503465578373 1.07667
72.081413582843 4.27222
81.0692518560132 0.699095
83.0493834666427 40.5716
87.0432031641979 1.65438
88.0758736212005 0.836882
98.096386602306 7.5756
99.081339802033 0.582642
100.075540078876 1.13121
113.059395460384 4.47587
114.090826942719 1.07923
115.07487854411 3.52288
116.06975814452 13.6164
116.106045119344 19.6427
127.075116790486 3.76133
128.104612048052 0.514283
158.116920587198 100.0
159.113092213716 0.721961
558.359457015042 0.999732
590.38769148965 0.601691

