>compound Demethoxycurcumin
>formula C20H18O5
>parentmass 339.124416201382
>charge 1

>ms1peaks
131.048067477939 0.564845
145.027517706674 1.17179
147.041217585652 5.23941
175.076842493706 0.828117
177.053432392654 10.1413
203.068710773752 0.527118
245.077801142245 3.18792
255.098858581124 6.49202
339.118795350185 100.0

>collision 10.0
89.037861046376 1.37656
91.054651421879 2.40649
107.05034886003 1.15977
117.034672376775 1.92165
119.04878019586 3.42788
121.064430099445 2.24432
131.049808885954 5.12029
136.05317134558 0.729762
137.059541583402 1.2168
145.029144396155 9.38274
147.044976852906 51.4683
147.151081113586 0.705648
149.05773849558 1.16297
151.040992007353 5.11001
151.070775102878 5.2007
153.062015633354 0.576556
161.057714018474 3.22306
175.075049761204 7.41361
177.054955812798 79.1824
177.172824147042 1.14854
189.055218328501 2.59489
191.068139420099 0.584179
195.078489616915 1.14437
197.055235285845 0.514818
203.072031696158 1.21943
213.054230433546 0.749536
215.073329132332 1.43552
217.096716907628 0.597984
219.062817703042 3.67319
223.075179522694 7.73853
227.071645547815 0.748727
229.085665964804 1.78152
245.081039001598 12.6509
253.083844993957 0.816099
255.101768558996 67.3472
256.107772016389 0.505126
269.117628927509 4.49777
321.110881218343 0.581784
339.124416201382 100.0
339.344534441139 0.716216
339.421862544042 0.767416
339.483789340267 0.890971
339.537193274944 0.835985
339.606796083149 0.642181

>collision 20.0
65.037342760177 1.08827
68.9973899034281 1.46403
71.0090946926508 0.568649
77.0395486203526 0.828515
85.028732221486 0.849433
89.0364785864869 4.15401
91.0523248177874 7.12623
107.047160860493 1.92203
117.030873157132 9.40387
119.045862142194 14.1163
121.026633357303 1.20486
121.062180286577 4.64823
131.045845899427 13.852
134.030197311651 0.672653
136.050704650317 2.32254
137.058937032377 3.59349
143.042987901845 0.522132
145.02639776939 34.9036
145.135317805693 0.544996
147.041336035626 97.2941
147.148342488492 1.38333
147.233503877719 0.617216
147.303017123823 0.629686
147.347595565588 0.522761
148.045972669783 0.750891
149.0577980229 3.58663
151.034826033351 4.49326
151.071105365449 7.73433
161.057892863353 4.93738
163.033921189054 0.711129
167.080269095836 1.18581
171.040065497267 0.538674
175.07239675855 4.81909
177.051183463393 100.0
177.170075783595 1.36371
177.221433624331 0.523581
177.347087579782 0.502531
177.535699070228 0.508178
178.051744934062 0.899489
189.049693624555 4.84402
195.075503251129 5.2012
203.066388223795 0.642358
213.046560936454 1.18975
215.072669586376 1.17087
217.08586545408 0.60262
219.059550806496 2.85256
223.071292776973 31.3305
224.080356242628 1.1189
227.070806475962 0.517226
229.080305979793 1.96932
233.084320964247 1.09194
237.08674689763 0.767378
240.075580004963 0.945887
245.077535924483 1.46279
253.077110252718 0.514972
255.097299129052 55.5199
255.232553289903 0.923965
261.08595667363 0.727901
269.113047719086 2.55059
339.115468232039 4.87467

>collision 40.0
39.0231086396232 1.40418
43.0181723825453 0.750697
55.0168267565768 1.04531
63.0226979475025 1.50873
65.0395555025543 6.77163
68.9961425190615 10.9508
77.0376186011307 4.20054
78.0470904659876 3.159
79.0535700194717 2.30869
88.7853662101251 0.577919
89.0384004092632 38.9144
89.118193683856 0.577189
91.0537718560144 65.5783
91.1376027018985 0.992077
92.0595739284798 0.588996
93.0639780070627 1.20861
101.037617081784 0.634745
103.05489998191 4.47787
105.072108639833 1.30327
106.043333687867 2.1009
107.049585892519 5.2362
115.051159533074 1.75064
117.032946098946 82.4068
117.127109521268 1.08359
118.035626504549 0.625993
119.048870595139 97.2091
119.14663874134 1.46696
119.185516247081 0.565116
119.280758315446 0.562024
119.408552310484 0.542342
120.051210728716 0.810836
121.062066516125 3.48829
122.037590749879 0.560512
123.04347427929 0.581281
127.055116604891 2.48675
130.033205086295 0.683586
131.048577364914 13.5348
133.067677369575 1.38549
134.033634661959 7.76211
136.049261293837 8.01349
137.058260305219 7.39437
139.054105529021 0.901972
141.070002863159 1.59044
143.044351459793 1.62316
144.050138786907 0.679681
145.027190469688 94.9483
145.136440876819 1.21801
145.191907053516 0.604028
145.378229065054 0.815669
145.559426893094 0.501638
146.032739272581 2.052
147.042759299707 100.0
147.153845227516 1.61424
147.239032964706 0.641739
147.369698991619 0.505187
148.045938316128 0.964854
149.058926172678 18.6358
151.060491458219 2.01544
152.058504177134 2.67564
157.063995634189 0.657178
161.056176376154 3.53271
162.041412382392 1.44845
165.068935226562 3.02524
166.07262423445 1.28851
167.081377085112 2.51278
168.054722215632 1.14602
171.039772215821 0.556638
176.060758728047 1.47537
177.057922026424 21.6297
181.063900081714 1.00882
184.080919617318 0.799385
189.05409368738 1.10389
194.071400315068 1.33842
195.077967584211 14.1119
197.055629631043 0.810886
197.082894905779 0.579011
205.066420528626 1.4536
206.07666633415 0.621082
210.062880565596 0.764549
211.066378942117 0.780412
212.084563847686 0.941207
215.092825030921 0.607102
223.076021094734 12.4994
232.087456595187 0.77243
240.076652112859 0.706672
261.083020496325 0.690982

