>compound Pinostrobin
>formula C16H14O4
>parentmass 271.096158071247
>charge 1

>ms1peaks
167.033272071713 1.49527
271.09641868875 100.0
271.24769832537 0.544645
271.651265372901 0.553135

>collision 10.0
131.048979792385 4.37093
167.033339345364 12.1333
271.096158071247 100.0

>collision 20.0
67.017915476019 1.87879
77.0384997790848 0.841027
79.0529298701627 0.563272
91.0557969188146 1.39891
93.03366707446 0.575916
99.0451775212319 1.0079
103.054655755381 6.2156
105.034131857832 0.790671
107.048439360107 1.684
109.063274046302 0.501518
123.043251176236 0.830555
131.048710101173 51.273
165.053003643085 3.8552
167.033471464228 100.0
173.057998491265 3.65969
193.048545312606 1.53832
229.085535361298 1.13134
243.098425693133 0.55514
253.082806119698 0.526121
271.096152922922 64.7458

>collision 40.0
39.024114353211 3.85628
41.0377361223467 1.58741
51.0238562509299 1.53793
53.0398157437247 3.79262
55.0181842562459 0.656435
55.0553506588617 3.32669
59.0143248872797 1.71039
65.0378825105597 0.93138
67.0185979752468 27.8401
68.0264550711695 6.94325
68.9977981917087 8.47815
69.0334529680414 1.30833
71.0479243558848 0.578255
77.0389467852995 14.5514
79.0171510271675 1.42543
79.0537615065073 10.7705
80.0246661294658 0.543139
81.0321711377117 3.35972
83.0127334464654 1.12771
83.0484037582289 3.42499
91.0540087897386 5.23612
93.0363789373297 0.581657
95.0484614358998 1.1808
96.0225167171134 4.09455
99.0414127579163 1.49953
102.045987642767 0.76554
103.054110502119 100.0
103.144112339005 0.527126
105.035759628932 1.12642
107.009824902395 2.48023
107.04720942389 2.30546
108.022123239966 2.59463
109.029928126062 0.7344
109.063673192669 0.86609
111.043582516263 18.2399
123.040418501 1.3249
124.015389033522 2.94876
127.00181082512 0.697472
127.054237781099 1.33852
131.048450966265 25.1105
135.008600020788 0.661847
137.02047680892 1.49835
137.057260392566 2.03704
139.038275063131 4.81945
141.050463911552 0.565778
145.060243041736 1.52836
152.009213058304 3.47572
153.064039995962 1.64985
154.078068611918 0.785715
165.068025988633 1.9389
167.033107128558 94.6911
167.150908015236 0.579974
167.594116622956 0.522077
171.04596731491 0.55869
173.059398114285 0.792514
180.042654401389 1.27921
197.057557898793 0.811736

