>compound EPA
>formula C20H30O2
>parentmass 303.231069484236
>charge 1

>ms1peaks
25.0064833054658 0.513389
77.0418504865516 0.709225
80.997740799288 0.501959
83.0858030283414 0.604284
91.055563112584 0.642212
103.056479606915 0.527076
105.071192432037 0.59444
121.104246233144 0.751655
131.086250629389 0.7632
147.119317169588 0.66635
153.091252829679 0.675455
167.104935322747 0.752644
175.146405126944 0.519885
181.11817289267 0.750606
185.129596707462 1.45626
207.137194995596 0.564299
221.148873576113 0.606743
261.193571235837 0.725801
262.099555192647 0.914005
282.154426752481 0.817065
285.22161581509 4.67824
302.150807399031 1.55471
302.239214042897 1.45431
303.115533936496 16.6653
303.231866655081 100.0
303.45198296469 1.72084
304.092656266129 0.776235

>collision 10.0
67.0545799392355 2.92639
79.0543634755967 0.789403
80.9969065797837 1.01282
81.0713142500539 1.99156
83.085439559 1.91317
91.0540309955146 4.08938
93.067175355567 1.3624
95.0866953520926 2.80598
101.06083140533 1.40413
107.086083596062 1.63271
109.100984925032 3.0698
111.078531295736 0.637796
119.085660721591 2.80569
121.101877645377 5.14307
123.115009135055 0.568096
127.034766005829 1.52713
131.087153708353 1.52276
133.10134998569 3.91144
135.114467422691 3.87129
137.132401321533 1.43334
147.115400808542 1.52341
149.134127303327 4.53938
150.134146912562 0.857924
159.12023223467 0.724546
161.136935614576 4.80724
163.150382384738 0.74261
167.104938396854 3.57715
171.117387141266 0.95209
173.131225714974 0.561265
175.147889194614 5.49261
177.128113531239 1.43562
179.103163892042 1.32831
181.118881879058 1.40277
183.115133937813 1.84955
184.131936842589 0.788874
187.111417948669 0.604265
189.160481051322 6.20539
193.123725867029 2.46508
195.138205227025 1.44417
197.126660689226 0.896154
199.0561373801 0.54579
199.149454947285 0.820202
201.1564828628 2.09942
203.177211996701 1.3699
205.118343639889 0.600176
207.132731826 1.10753
209.028882452287 0.552926
209.152765574197 1.14548
215.147723626167 1.0938
219.138086437893 0.918956
220.928396739676 0.567555
221.150673826842 1.54057
225.167365563248 1.11282
233.156272741817 1.39143
239.097669151982 0.689801
239.179308851065 1.91587
243.191887052684 0.699154
247.170838871318 1.30485
257.186800171581 2.16661
261.179296791256 1.47124
262.030284350829 0.737341
267.211218343172 3.83409
285.221460723407 10.4858
286.204941947764 0.59075
303.013565992323 1.78055
303.231069484236 100.0
303.769490598357 0.568491

>collision 20.0
41.0389089274325 11.7286
43.054429169843 9.47681
53.0348145032257 2.58417
55.0554184485153 8.96912
59.0500164396138 3.97783
67.0556854868235 28.6976
69.0706432095262 11.1913
71.0466166396677 2.39146
74.095075916645 6.94874
76.0787802137459 2.00141
76.9513070245845 1.73967
79.054248444213 27.2007
81.0710645489521 46.5695
83.052616843576 4.14673
83.0894555231692 10.2457
90.0650182555677 5.25808
91.054576032942 23.7611
93.0703179481156 38.8296
95.0867866931472 27.5012
97.1013564580465 11.967
99.008762959249 3.30372
102.131580083006 3.01594
105.069221241674 18.6554
106.073048777671 2.00844
107.084038873653 21.5515
109.099005145461 30.7155
113.187260382428 1.8216
113.959270765589 4.04895
115.078887019454 2.97424
116.055170749351 4.5673
117.069037971002 6.53391
118.069721676422 3.95336
119.08589260605 38.7715
120.065053084121 1.8663
121.100675648692 38.7605
121.32879380715 1.72382
123.115883999403 37.4645
127.954188094165 3.36858
129.063176206672 3.35611
131.08604614252 5.83055
133.100285948884 33.4852
133.641880067851 2.42769
135.117046907165 34.5722
137.131945285878 8.96078
141.073280738061 3.0689
143.086967736987 6.8989
145.104548925708 21.3523
147.119043031714 26.5604
149.121412701732 20.3169
153.090155144293 6.15519
155.080617288709 5.54476
157.100855819293 6.40626
158.869762668283 3.5053
159.117435202972 15.2245
159.981398257423 3.3845
161.129972008749 31.8046
163.032726176491 1.98096
163.130230696987 5.46545
165.090665388125 4.68102
169.038663357057 1.92199
169.096707566791 9.54023
171.119023884353 9.40164
172.11964147658 2.3497
173.132894425377 19.4711
175.149122471907 26.1538
177.122282470645 2.81123
179.105803784169 11.0219
181.123155062896 11.3301
182.969883183193 19.7048
183.116242535143 12.5762
185.132746585238 9.30367
187.143977407169 8.48246
189.16251244814 20.1069
191.112165954953 5.68454
193.117136130789 6.29514
195.133073906672 6.63292
197.133493943684 3.86324
199.143408704746 3.52134
201.138758817119 7.44132
203.182582075213 7.38047
207.133961954862 14.9485
209.144749928135 2.02422
215.132656548426 14.6095
217.155058406018 3.51045
219.146001529132 12.0809
220.857758556308 2.36658
221.156602291726 24.5228
221.853655914701 2.66816
222.391350715213 1.72421
223.159204681461 4.09166
224.14707882358 4.74045
225.165511358783 3.09979
229.161043285664 3.27577
232.139776433001 1.81193
233.152236138577 3.27058
235.174511229108 2.57807
239.177147680465 9.92803
241.231411475301 4.80961
243.206207256646 10.7484
247.164738359788 7.76759
254.194578168352 2.06683
257.189664052451 11.1781
261.194023708442 3.07364
262.091133948646 2.04513
267.209685946614 21.6022
271.151781498647 5.83296
285.221628055246 15.8919
302.249602304616 4.46076
303.014762223013 3.85967
303.233319623478 100.0
304.132364099907 2.4633

>collision 40.0
29.0379753410025 3.31648
41.04147695293 9.30967
43.0556903347179 11.4523
44.0492491476239 2.52929
45.0343753996847 3.94301
51.027745067109 2.16069
55.0558644465417 43.4081
57.0682031076906 3.29025
59.0516976212079 8.78645
59.9853617358637 3.73507
62.930293171629 6.06209
66.0998801713682 2.48258
67.0548609712013 72.1231
69.0702025854588 19.6483
69.1304055616667 3.31304
69.3957264608471 2.54777
71.0494099713265 8.26992
74.096138606937 2.39556
77.0386939086672 20.6226
78.0505941614592 2.96445
79.0547838310458 88.9532
81.0709552093802 97.1825
81.3820503105323 2.13926
83.0897082751702 3.76504
85.0478443432722 4.47313
91.0541118561565 80.3021
93.0698909866728 89.4688
93.1895156893627 2.12263
94.06719316001 3.36238
95.0484342263799 8.44337
95.0860412204142 41.479
99.0800346433898 3.29325
101.059669495461 3.08846
103.050073474055 2.38001
105.070724368367 100.0
107.086475384648 36.6434
107.672007033993 2.94214
109.10313644101 11.366
117.06972525916 17.7566
117.402692892026 2.2065
119.085676116268 42.7506
121.102318109773 18.1452
126.953150441728 2.84591
129.06951798811 6.86674
130.078418177166 2.241
130.864248009863 2.16881
131.08537228174 26.3593
133.102106017855 29.5752
135.115752400343 7.56517
141.068701402409 3.69348
143.08455619617 9.50135
145.098692961722 17.3734
146.106672277734 2.9838
147.119364804026 14.3724
148.964978912481 4.56226
155.087434327543 9.05184
157.101201121317 11.0892
158.094765569727 4.92454
159.112057664336 7.50573
161.132162486896 7.15199
168.097021204176 3.28907
169.101639216451 4.43592
171.113574814522 5.12181
173.130815372895 5.61293
175.146749353969 2.62426
181.101413741741 2.34496
189.128850009108 5.61468
199.152766117357 3.33548
201.159904185746 5.10383
239.180085626599 2.75856
243.207061935728 3.87086
269.162574926817 2.21071

