>compound Chrysanthemin
>formula C21H20O11
>parentmass 449.107928328613
>charge 1

>ms1peaks
287.05477723852 11.2027
449.107848352245 100.0
449.296591421617 0.631035

>collision 10.0
287.054739959344 100.0
287.203456883617 0.507226
288.058399869093 0.74993
449.107928328613 88.1279
449.280170494863 0.680238

>collision 20.0
287.054989004279 100.0
287.205160686674 0.608946
288.058102628072 0.610197
449.108568838756 2.9794

>collision 40.0
137.021865242911 1.1799
213.053743733121 1.30165
231.065718484354 0.810357
241.048960302421 0.742642
287.055005762168 100.0
287.205707826559 0.654985
288.056364883961 0.521329

