>compound Malvidin 3-O-glucoside
>formula C23H24O12
>parentmass 493.133844929673
>charge 1

>ms1peaks
331.081198965697 8.86312
493.134239562157 100.0
493.334710344322 0.550479

>collision 10.0
331.080881158888 98.5978
332.079188095305 0.594847
493.133844929673 100.0
493.324423068263 0.581155

>collision 20.0
315.049405257981 0.529364
331.081260317408 100.0
331.24067097703 0.59761
332.08718716628 0.617864
493.133976800478 3.48638

>collision 40.0
150.030263699238 0.757489
178.025300255352 1.36558
179.034395669893 1.39444
242.055830632072 3.32569
269.04159838637 0.936233
270.051585065416 5.16985
273.037965162304 0.597201
286.049259801684 1.88863
287.054066841797 6.93766
288.063616753026 0.650571
298.047425459487 2.07775
299.054018989928 3.28641
315.049721640796 11.2701
316.057774000769 5.12206
331.080765291033 100.0
331.247680474405 0.554638
332.079462890565 0.739104

