>compound Pelargonidin 3-O-glucoside
>formula C21H20O10
>parentmass 433.113007573431
>charge 1

>ms1peaks
271.059555767827 10.6452
433.112878502157 100.0
433.296937577294 0.676918

>collision 10.0
271.059997117529 100.0
271.208063301769 0.513414
272.063314147138 0.682304
433.113007573431 88.1926

>collision 20.0
271.060194392878 100.0
271.210542861613 0.63735
433.112327921789 2.0793

>collision 40.0
121.027753585938 1.66009
169.063180039314 0.633737
197.057895969502 0.501267
215.067810722241 0.622135
271.060089871982 100.0
271.208325061025 0.646484

