>compound Pelargonin
>formula C27H30O15
>parentmass 595.16781382939
>charge 1

>ms1peaks
127.117802012591 2.34243
154.711850905727 2.04185
502.819745263169 2.97552
505.805547722453 1.99683
536.962451505852 2.0167
571.890960361296 3.9785
595.16781382939 100.0
595.314872428672 2.17164

>collision 10.0
271.066653926222 9.44267
433.114229539973 24.5731
433.181175850111 2.55123
515.004227960428 3.645
595.169177329363 100.0

>collision 20.0
38.8912653189773 0.605516
90.9727096324111 0.582923
268.293711066646 0.63761
269.46090765033 0.553807
271.06044746815 100.0
271.213916640021 1.05325
271.429829477798 0.555884
272.065066238306 1.23366
272.535163993465 0.611641
387.822617586847 0.569738
397.086043710791 0.641881
402.822671794591 0.706624
416.851033456932 0.563348
433.114140382623 64.0651
433.279013510795 0.855978
434.006740402395 0.542562
434.096221164617 0.569412
462.84673726017 0.801034
594.400494475548 0.569418
595.168769386063 21.3705

>collision 40.0
271.060892282433 100.0
271.175196852721 0.749833
272.06217328457 0.891942

