>compound Ononin
>formula C22H22O9
>parentmass 431.132676780452
>charge 1

>ms1peaks
253.04679794529 0.596039
269.081076464638 25.6862
270.085458439831 0.560813
430.285554008039 0.843184
430.389188352488 2.42507
430.906906930495 1.4525
431.132186146932 100.0
431.38150867371 0.770048
431.717800907318 0.669181
431.859039702694 0.583628
432.009874210139 0.717388

>collision 10.0
90.9751480426444 0.597682
158.963191798576 1.30094
226.953933418979 2.3669
269.080493467128 100.0
269.695584835018 0.561835
270.0855103857 0.579573
430.389290436732 2.4097
431.132676780452 32.6082
431.307005323486 0.632542

>collision 20.0
89.0304047412387 0.501635
90.9786745119063 0.905666
158.966362075898 2.1655
225.094912412632 0.81203
226.949561857567 1.1475
253.060494054127 0.741641
269.080473762821 100.0
269.227812942511 0.538161
311.295236111364 3.31553

>collision 40.0
57.0714569408827 0.59241
69.0708375069855 0.592555
71.0866677075813 0.739397
80.9495631311396 0.776728
85.1061944275552 1.13618
89.0456477011066 0.935197
90.9771452643168 5.79444
99.0446722005328 0.563688
106.625348608363 0.607955
107.055429576301 0.598877
109.022802538471 0.547109
118.04235019859 2.45239
123.04594931248 0.712974
128.064446504248 0.830633
132.057131984174 1.22593
133.055829302492 0.892094
136.014353650815 3.26485
137.023652537919 0.620338
153.069569798838 0.955202
156.056362208571 0.611674
181.06066292347 0.800115
196.058678673855 0.606834
197.057899062603 1.37716
213.090367616867 4.00325
214.09624755425 0.645225
226.065476292859 3.81081
237.050517272611 5.62136
237.103709711152 0.669744
238.498973313889 0.770751
241.087859812394 0.608125
253.046547843524 4.81919
254.056052270075 13.881
269.080535146897 100.0
269.526608250512 0.865393
269.833663729982 0.633849
269.95676793479 0.555055
270.137064613796 0.516334
311.294892431029 5.09053
431.288986189184 0.609415

