>compound Pergolide
>formula C19H26N2S
>parentmass 315.189194267926
>charge 1

>ms1peaks
208.110973908353 0.881696
315.189350998753 100.0
315.414144413765 3.04437

>collision 10.0
208.111280111945 3.40747
315.189194267926 100.0
315.413936886189 3.00765
316.093248813831 0.542663

>collision 20.0
61.0102753499292 0.800228
72.0814705506008 2.2564
112.111173682053 0.671843
130.06389618339 0.971637
154.064874264658 2.79791
155.0731130881 0.652152
167.072162820325 2.98832
168.080074088412 1.03599
170.095766718483 1.02627
179.083774307276 0.691132
180.080421395208 1.9661
181.094122380688 1.00664
182.095959981795 0.856725
192.081068312954 0.789156
193.087461512136 1.99759
194.096329161664 0.699666
196.111428394241 2.13
198.126269423878 0.766176
208.111396246384 19.8846
210.126511792357 2.37339
258.131410890893 0.64455
267.185150166706 2.43619
315.188749428792 100.0
315.413452447385 2.45031

>collision 40.0
30.0347158949634 1.40044
34.9962084644323 0.623296
41.0392308258852 3.86608
42.0342149136205 3.29329
43.0551317144209 10.2048
44.0507651265047 8.30654
45.9872276474443 0.553181
55.0545849971975 1.68528
56.0495509914464 5.79043
58.0659823359582 9.49594
60.0818047693348 1.57927
61.0109892490135 48.0071
61.1065977495753 1.65219
65.0393744474149 0.860016
67.0532040839586 1.16694
68.0508904918004 0.938405
70.0666909096137 4.82332
72.0814325682028 51.8181
72.1881568613967 1.56991
75.0265024186025 0.812489
77.0372648687161 1.09067
78.9244486070971 0.712909
79.052745325277 1.65327
80.0473744643705 1.00604
80.9430849842595 1.1238
81.0628755717369 0.716259
82.0657491317075 2.62649
82.9459297967317 0.514263
84.080688871833 1.18976
86.097851283164 0.517757
87.0270123780246 1.51859
89.0417309090352 1.59112
91.0545806443097 1.53506
94.066433725939 0.753054
95.0753989445793 0.82531
96.08176820871 1.32092
98.0960569842444 16.0301
100.111397860286 11.8839
101.042181886871 0.61292
103.05652790387 0.937699
112.111909807532 13.8926
114.035069798908 0.504273
115.05246058414 1.36847
117.058873276861 0.990602
124.110394842759 3.88674
126.040765437335 0.62191
127.052779155599 4.70134
128.060321847903 4.49173
129.068789054324 6.17077
130.065046119347 21.4898
131.07149248183 1.0906
139.054142283504 0.893479
140.063542161781 1.07205
141.068816425742 5.68603
142.071986857159 1.75474
143.081748193982 7.21906
144.080423710152 10.3168
145.088386070744 1.24912
151.052013428531 0.713086
152.060420252791 3.82673
153.068178618785 17.3771
153.219075248144 0.619814
154.064256656188 100.0
154.217384463636 1.5259
154.651107504226 0.523717
155.07311437032 32.7154
155.22353389866 0.786304
156.079963495289 12.7305
157.088390369711 1.66437
158.098248463119 1.781
164.062038745033 0.639445
165.068931342725 23.0651
166.074876520645 12.5914
167.07235066295 98.0968
167.233133269411 1.41789
168.080542235511 41.1917
168.245242225041 0.639612
169.086785254704 12.9619
170.095109205561 21.7436
172.113443294575 2.33276
178.071400924482 1.22133
179.08387679238 26.9851
179.245428246178 0.540651
180.079605791161 80.5516
180.243326710441 1.58772
181.094341793448 38.6569
181.261233290147 0.664667
182.094459817364 25.4914
182.261116148781 0.580976
183.096920226858 16.7985
184.108162692719 5.12335
186.125309747503 0.620703
189.067946262662 0.602231
190.076635483883 1.63827
191.080551207792 10.2985
192.079879537571 49.2622
192.252993020578 0.875821
193.087772669728 77.6958
193.260940130098 1.27677
194.095586340954 20.8873
195.103003980851 10.3668
196.110540251116 20.2348
197.11061640947 1.87509
198.125932745007 11.6692
204.080357054904 0.826911
206.095029967499 12.7973
207.103241875523 11.0241
208.111323139891 96.2599
208.287317357577 1.47823
209.109708009951 3.87377
210.125211573287 11.4669
211.123856144341 3.7413
212.130465632946 2.595
213.139334057754 1.20895
221.111797242193 0.586443
223.122305394758 4.02786
224.128701125734 2.46848
225.13794981923 7.87898
226.144765110519 1.67205
239.154384845831 1.66625
244.116796920249 1.8258
246.131061560998 0.809755
251.151169053054 0.73395
253.163554230283 0.602604
256.115222719485 1.04802
257.110031332203 0.832434
258.130049417386 1.14807
265.169080249557 1.15594
267.184919401681 2.21972
272.13401083223 1.21624
315.190146165792 8.09844

