>compound Tetrahydropalmatine
>formula C21H25NO4
>parentmass 356.184619625501
>charge 1

>ms1peaks
192.102672982277 2.25228
356.188806552279 100.0

>collision 10.0
165.089970603781 2.164
192.100743211866 11.681
356.184619625501 100.0

>collision 20.0
105.069651376499 0.502034
131.073348050384 0.620965
148.076373803965 0.955634
150.067899981733 3.21552
151.075218310718 1.2371
165.09185546495 20.0195
176.07155643221 2.12901
177.079689533486 1.87558
190.087772809353 2.22988
192.103439992739 100.0
193.106753996626 0.662036
204.102877793314 0.718417
205.109866908177 0.835983
308.139806183794 1.35102
324.14966841713 0.753215
339.160811713724 0.791579
340.1571327168 1.11105
341.163133307122 1.18537
356.18867584552 97.6704

>collision 40.0
77.0386580626332 0.842015
79.0542128481346 1.33602
91.0532078123149 0.893669
103.053193965205 1.31103
105.069004852852 3.04306
107.048821446594 1.12136
118.050747102663 0.646872
120.057809246304 0.621282
121.063746551114 1.38481
130.064035197623 0.720654
131.071692114321 6.95683
133.062689297713 2.21036
134.071084666356 1.72763
135.042992927209 2.14584
135.074296232163 1.34838
146.060905659037 0.633409
147.067423876494 1.49589
148.0744288304 11.6592
149.064471580694 0.530794
150.06620652645 10.6512
151.07376616077 1.77286
159.066493873035 4.00919
160.074098220913 1.74979
161.081937474647 0.828349
165.089643403454 10.3814
174.059927367915 1.00196
176.06955069784 20.9792
177.077156904095 19.8659
190.084973154456 3.30158
192.101053384575 100.0
193.103097202407 0.515765
205.108010313799 0.534083
293.114699290223 0.741847
296.130166068853 0.516452
308.127898477702 0.8545
312.154996121346 0.513215
322.141363205529 0.752898
340.151912518012 2.18753

