>compound Demecolcine
>formula C21H25NO5
>parentmass 372.182413669785
>charge 1

>ms1peaks
26.7970909659929 0.741735
173.681943124808 0.81419
219.038105448095 0.838105
247.145031090782 0.755889
259.193562088769 1.30282
287.123587472145 1.08764
310.117586408322 0.724841
371.309595203695 0.798593
372.182413669785 100.0
372.481406704949 0.873461
372.740164628604 0.868492

>collision 10.0
44.0529703272557 1.43914
72.0462190108906 1.4052
191.102091696863 1.02174
245.182767398718 1.29683
268.107098166201 1.69667
283.09853741572 0.965109
293.098568566374 1.2357
310.118711945795 1.52801
312.162526969898 0.897392
313.138082864074 1.63962
315.122334542311 2.61375
316.156627003515 1.07468
326.118617812757 2.80311
340.15371696832 4.81971
341.141144970514 4.45813
354.168845956876 1.87374
372.1830614539 100.0

>collision 20.0
72.0461304417681 8.85037
80.9499102179836 2.66195
161.049597117737 2.46355
165.062959428294 2.49659
169.063425412265 3.49042
182.077817230242 2.71583
184.083501518032 3.99695
209.422076688511 2.81498
237.08045820574 2.60164
239.100875875857 3.90645
247.075515102237 4.47875
248.123931475722 3.63188
249.062097905659 3.64145
256.109407441108 3.38121
272.10499024512 2.86201
278.097055630243 5.05053
280.129494377955 2.70921
282.124858655812 8.80212
287.128262038146 5.94747
295.09653785769 12.127
297.131178861464 4.26706
300.113773131923 2.72434
308.130610332909 3.5165
309.127981664992 5.51843
310.121331510124 28.6453
311.12233578457 7.89873
312.159078533694 8.46984
313.131993737356 3.09029
315.122568668597 6.95789
324.116324290022 4.74992
325.12834957928 8.22662
326.130993564795 6.83288
340.157854052417 18.7873
341.151051518808 9.49983
342.129183610795 11.6866
344.15473495487 7.10079
357.1480812083 7.62893
372.180616907181 100.0

>collision 40.0
44.0502498970369 98.6842
45.0344015929869 23.5476
56.051417948455 42.8596
70.0646931909719 53.8003
72.0451558063291 86.0692
100.075515199858 21.6167
139.082200229589 17.1173
142.079750826637 17.8002
144.0807217851 25.8181
165.065526269731 15.0789
176.07350931422 15.6984
196.093364518532 23.5139
209.100772560879 29.1167
210.089497779535 15.4231
211.089831771716 34.5337
213.089602104905 19.101
214.052323399335 18.02
217.084172958099 25.1169
218.073468982281 28.839
219.074129625071 26.7274
223.077721332831 21.048
224.08029087915 19.9178
225.048705002847 18.9546
225.101540744389 14.774
227.064347378036 17.2753
227.10675908423 23.4198
236.085594384337 26.7579
237.084991382503 20.3801
239.067875749502 21.9718
240.074471401348 30.0575
241.085322418446 79.8862
242.090914913033 14.7936
247.077498708901 19.7714
249.065865952612 21.4321
250.124217362918 16.4382
251.09578408892 18.4845
252.072712513909 24.5432
252.117389943003 28.2817
253.095640439523 47.5741
255.096531994726 48.0269
255.357882299467 14.8132
257.080002225549 33.8737
263.066526823221 36.6424
264.094820737166 34.4879
265.04253320387 15.614
265.083345369798 31.7236
267.104463920251 59.8445
269.075107847469 22.8928
270.092883250511 17.9734
277.092897778714 27.0826
278.082489625452 26.0287
278.125811950763 17.7285
279.093860648799 16.2631
280.20570726105 16.9146
282.116881067131 100.0
283.096840995601 56.0213
284.094023174599 20.498
285.110636429566 17.7471
287.090390914318 30.2154
292.13566449916 27.2392
294.102339937413 16.564
295.100229026572 83.9844
296.128095383086 22.5041
298.10488546807 15.4052
299.111094378622 50.678
306.107303125625 16.2436
308.125299223123 38.7335
310.116494957318 35.8665
311.111886423479 20.6196
312.110843951104 15.2118
314.126633781693 18.8698
323.473908637745 15.3915
342.131646984752 16.9363

