>compound Senecionine
>formula C18H25NO5
>parentmass 336.182517109766
>charge 1

>ms1peaks
336.182517109766 100.0
336.346136090983 5.66575
336.412352080794 2.15773
336.526872307483 0.813902
336.571974530225 0.963014
336.646507161917 0.516368

>collision 10.0
336.182557608365 100.0
336.345978280433 5.78255
336.412617821934 2.24906
336.526836301076 0.919768
336.572006078768 1.0469
336.631191659168 0.569641
336.704404153187 0.511389

>collision 20.0
94.065089877288 1.52148
120.080603998471 3.47889
138.091211841956 2.80973
308.186977615211 2.36074
336.182577896689 100.0
336.346354918506 5.59485
336.411364592066 2.13397
336.526967014573 0.782263
336.572193138715 0.909778
336.632962027026 0.50149

>collision 40.0
41.0391180298343 3.38645
42.034303317956 3.3708
43.0184076374655 28.5235
43.0537828067235 2.57166
53.0392162101765 4.66548
55.0183328326049 1.68824
55.0546979013851 7.78365
56.0499295331881 3.24013
57.0340355225992 1.61269
59.0494151039279 3.77405
65.0388162111076 3.20289
67.0543287367048 29.8369
68.0498583092473 13.5362
69.0565863510103 2.81414
77.0387396684104 16.4025
78.0342388816812 2.29679
79.0543159000488 14.2086
80.04978020823 23.7741
81.0691034754572 20.333
82.0653467369641 13.7082
83.0494325718308 3.93256
84.0445042412213 2.0058
85.062951673735 1.31364
91.0543274278212 25.7673
92.0496333613284 5.6245
93.0695331174313 27.3426
94.0653687975295 97.797
94.1543122108838 1.37446
95.0790776481007 3.5589
96.0807311711338 32.0578
101.059634419241 1.80559
103.053965314663 12.895
105.067441944488 6.1129
106.064853318255 3.02186
107.084143879254 16.4763
108.080542355244 17.5649
109.0822240341 3.60458
110.0600740792 2.31461
110.095970271588 10.2732
111.076692959908 1.37745
118.06474849388 11.21
119.075689246509 2.3311
120.080797127852 100.0
120.181243623356 1.51063
121.087927681332 3.69752
122.096023452431 13.4293
125.095724245204 11.5993
135.080072130585 4.33931
136.075184246895 1.66571
138.091275554104 69.0656
140.106892937623 2.45078
153.090774902023 11.1204
156.101547985283 3.79185
220.133174455786 4.35755
308.186880262433 24.1488
336.182214390541 32.0378

