>compound 6-APA
>formula C8H12N2O3S
>parentmass 217.065304441061
>charge 1

>ms1peaks
33.4198949400346 1.78082
68.591601008054 1.16214
69.0435507758574 3.2012
70.0281531331175 1.28942
81.1351884318341 1.17201
90.4875685577279 1.4739
107.695471816041 1.41623
114.583342173275 1.66461
138.001740032524 5.63991
139.048765191379 22.1094
141.214711796629 1.0194
143.066234676324 2.59139
161.46916739584 1.00094
176.504188913698 1.20979
177.004091251879 14.6577
177.508754895956 4.15058
178.002544393158 5.82178
189.07016848055 76.4561
198.77459962566 1.34863
206.880244215004 1.02108
216.170402958557 1.08027
216.924297650414 1.0437
217.065304441061 100.0
217.152721653951 4.12408

>collision 10.0
69.0491846703564 11.3765
70.064540898267 4.17525
72.0776026127245 1.90681
74.005142846271 4.40457
83.0540562447711 3.62015
85.0420369560845 3.82437
89.0195479858483 2.57227
91.4854214183648 5.73742
97.994087168896 13.9777
98.0622520371892 1.88612
98.4980029335572 2.91313
98.9913497108826 4.40437
99.4960178932892 2.41602
114.036125026719 5.19703
115.019021057822 2.89159
116.071007727876 8.4943
117.013365795313 3.22392
124.113117376928 1.76384
136.036484793153 2.78329
137.005691298111 8.20316
137.07329980773 6.32316
137.501748242992 4.0572
137.999348124241 21.9731
138.502960062469 4.57025
139.049844299339 24.0401
143.06382309177 7.62997
160.042524903744 14.482
171.058620361365 5.61709
172.042897867481 4.95088
189.06894052885 100.0
217.072236086424 39.4332
217.653015879086 2.24186

>collision 20.0
44.9797425477003 4.59517
55.0508847747541 6.81944
57.0448082216948 14.2511
58.0656839149508 7.14974
58.9903570231432 12.7543
59.0511817893405 9.40922
62.0063990480784 13.599
69.0451974955008 95.7613
70.0271668880415 6.83467
70.0655851819106 58.928
70.9950765694825 6.72236
74.0068785602054 31.6038
75.0229076774342 6.07486
82.0645372074333 10.3389
83.0539671239141 8.43102
87.0274418588874 25.6147
89.015156544846 6.49391
89.9793267262668 7.48318
90.483118451353 14.0944
91.481454226504 19.8292
94.0642869849038 4.5749
95.0660880977188 6.80834
97.0714939302505 5.82788
97.995072486491 33.0873
98.493317354387 11.4429
98.9891379951545 28.1334
99.0942707039668 5.67484
111.295515799447 4.88505
112.071865017088 5.04028
114.037345623857 100.0
115.022683220929 10.959
115.054254809037 4.76012
116.071084729465 8.76267
119.085829679738 8.14062
121.039928126219 22.3567
126.036685255215 17.2034
128.050940134082 11.3225
137.068543050346 22.5061
139.049717101649 32.2477
141.02840406529 6.69894
143.064488722731 9.56672
160.043577821904 16.3106
189.068587260617 23.1559
189.113199873738 4.80725
216.141456969692 4.5749
217.099573788776 16.0483

>collision 40.0
39.023680722649 14.1897
43.0510572868346 12.2667
44.9785492949583 22.6327
46.9956560294759 23.1905
51.4751476806106 30.131
53.0391113154663 7.403
55.0531830862126 17.6188
57.0468041324191 16.9026
58.0568493304407 10.3862
58.9891742877384 100.0
59.9859382046233 13.3037
60.5334406067011 7.68461
62.0091421953835 16.5688
66.0345017954076 15.1782
67.0401696062332 14.7791
69.0432933300808 35.7738
69.5211503085648 5.94494
70.065630205281 33.546
74.004533521125 11.4545
83.0560866097322 12.9553
84.0441234388277 11.1733
85.0092801806845 9.00957
86.0188700680512 9.02598
87.0248048958836 56.6053
91.4812811198447 13.3132
93.0440632295157 33.8428
95.0608124027528 13.7427
96.027389785805 6.85179
99.9872409755677 14.9387
106.061084888443 7.88317
107.058575408217 9.12964
114.036665396676 27.2683
121.040847460456 13.4507

