>compound Niflumic Acid
>formula C13H9F3N2O2
>parentmass 283.068773272616
>charge 1

>ms1peaks
265.059754076069 1.79429
283.069591853669 100.0
283.28042130845 1.21913

>collision 10.0
265.057135769752 12.8295
283.068773272616 100.0
283.280293746612 1.10119

>collision 20.0
145.025289423809 0.549497
217.059850491158 0.855189
245.05104080012 5.12537
263.064197253212 1.75258
265.057654699471 100.0
265.257938470088 0.993773
283.068692685739 52.8458

>collision 40.0
51.0244733904953 0.688211
66.0348474716333 0.67649
75.0253410348438 0.869031
78.0345702649981 14.732
79.0427468720575 1.53542
93.0445880692765 0.644468
95.0306986795396 3.41392
103.029333479259 1.1891
121.039274008296 1.86123
125.019624524058 1.03308
140.049787222165 2.16391
141.057496142329 1.79897
145.026367586573 41.0063
163.037161049152 1.13031
167.060215271188 1.54067
168.068284570277 29.9867
170.040415766245 2.5167
177.046529416946 0.56682
179.06147471736 0.540226
183.039063477675 1.77793
190.04530938962 4.40365
196.064274074476 23.2776
197.050811202178 13.7215
198.032759935082 0.558368
210.050314655106 0.893751
211.046150987158 0.652609
215.060621901618 0.792662
216.052744131619 1.01326
217.056901358485 36.8068
218.044432151551 4.56599
225.044779978262 1.64643
235.054897316173 0.70726
236.055191346427 2.02316
237.064164841837 5.89985
238.044884815172 2.41595
245.052526027299 57.0035
264.047771393436 2.1576
265.058572681156 100.0
265.257989571599 0.609866

