>compound L-Gulonic &#38;gamma;-lactone
>formula C6H10O6
>parentmass 179.054457253583
>charge 1

>ms1peaks
42.0360149475702 5.29557
43.0226691154303 0.75391
53.0404936839538 1.17974
55.0184544261737 1.31696
57.0331046990394 2.2178
59.0498159884763 0.646282
61.0286080562066 2.55019
69.0330890004653 2.59257
71.936957843332 0.60244
73.0288983628114 18.6196
85.0293055358636 2.57083
87.0467753555387 1.35671
92.9986975353698 0.837117
97.0289219572872 7.95822
99.0465193204035 0.557174
109.611598974822 0.798187
113.021744130952 0.626688
113.963314810999 0.718663
114.993988419057 0.550008
115.038449920366 60.6682
115.135834409108 1.00302
115.53499203989 0.562118
115.610685452176 0.845165
117.412876913699 0.590887
123.00848985333 0.866791
123.506966647682 1.90798
125.021267201293 3.92751
133.048772158952 64.56
133.205242258938 0.608518
133.233970596082 0.620706
133.698767096439 0.712152
137.008521185676 7.2594
137.081504114238 0.665212
137.503440274456 8.72845
138.011353346288 0.545299
143.032775533761 4.62349
151.0592589228 1.41287
156.971234704844 0.540113
157.519612409181 12.1771
158.01663735256 33.7732
158.166405042834 0.525763
158.519939773969 4.37349
159.014461449854 0.52736
159.057327911747 0.530672
159.360527274092 0.552338
161.043029252339 24.0618
174.973877883706 0.718614
178.097536554274 0.663365
178.522087105341 1.04298
179.054457253583 100.0
179.17600900859 2.07692
179.214001637089 0.853851
179.273584131973 0.93673
179.315440138429 0.530094
179.452819748105 0.900411
179.523751156948 0.771071
179.585738484755 0.592743
179.688240162528 0.777348
179.934856909587 0.718662

>collision 10.0
31.0186530459259 0.776318
41.0395289217124 5.98599
42.035262799584 9.24437
43.019241174828 3.06987
43.0522841294623 0.586587
45.0344306054387 4.22922
53.0374684921008 1.55678
55.0183922680003 5.39923
55.9425693651745 0.559963
57.0341941719176 17.081
59.049551093168 1.86602
61.0293138899679 9.20661
68.0524137804752 0.706896
69.0332843034704 35.319
69.0871746876602 0.791102
69.1107204925681 0.692401
71.0138268597067 6.57767
71.0474434606777 1.42753
72.941938052658 0.837006
73.0286438987866 66.9598
73.1257128780572 0.719047
73.4507567859221 0.759382
73.6626796853841 0.512945
74.0297628681709 1.78409
77.020143031415 1.02159
78.9830889172399 0.598242
81.0341503183705 2.65755
81.061022934456 0.53438
82.9979869056401 0.528106
83.9948193126485 1.07605
84.4897019328972 0.911762
85.0295084094741 33.2969
85.3035814528667 0.729788
87.0448054496736 7.3681
92.9954597380443 1.13933
97.0280208747562 61.2843
97.1164307311816 1.04012
97.5793101610385 0.590068
99.0429293549073 2.67539
100.108656245729 0.694304
101.616828290225 0.81357
102.493632706639 6.46874
102.993783855697 1.61737
103.040877372335 1.33866
104.997112127445 0.890207
108.916740381415 0.823304
109.000849423994 1.02844
110.490776394202 1.83364
110.959150471039 0.955968
112.965303938142 2.6299
113.021823786189 2.78306
113.506290219233 0.851212
113.96146035362 5.29311
114.006926778133 0.57719
114.505053068932 3.51916
114.603144739751 0.563921
114.946763172236 2.55003
115.038445054566 100.0
115.11779762537 2.23733
115.164628166816 0.911464
115.207595231194 0.512048
115.282562680244 0.565226
115.399922374845 0.663757
115.46696926333 0.711842
115.870202380321 0.527152
116.094458317353 0.649219
116.701375969817 0.659786
123.008943434302 1.58613
123.50689897269 2.91917
125.022776925665 20.9926
125.116692857812 0.634452
125.568604991284 0.55948
125.949094189163 0.858736
131.97334982926 0.578655
133.047875331051 17.2342
137.006028655508 1.83979
137.082278911592 0.637268
137.99176004271 0.615041
143.026639601236 1.07722
144.953390428827 0.538866
154.97573242434 2.44793
155.974621553965 4.06937
156.961174905518 1.3209
157.718180558168 0.533106
161.041167679091 5.57813
167.973872285846 0.670301
168.960337848719 0.658076
169.951297306171 0.514496
173.970303577125 2.93955
174.966472875814 13.1925
175.833719315998 0.515936
176.970519634891 1.198
179.054298587995 0.961778
179.091678364738 1.51091

>collision 20.0
29.0379843894595 2.74588
31.0174410887587 5.80537
41.039496415119 23.2621
42.0349652562182 10.1199
43.0176492682305 23.2038
43.0546506934226 2.3397
45.0345364795898 35.2487
47.0146483576799 1.38057
49.0265715967654 3.08223
53.038081435142 4.00593
54.9395037172024 0.970855
55.0182998227341 13.099
55.0532786179455 1.74379
56.9429338632329 1.66735
57.0340229523953 83.1498
57.1244323136546 0.806064
57.156548022383 0.825813
59.0495604765297 5.85216
61.0296580039975 21.7087
68.9974955566518 4.41333
69.033799802552 100.0
69.094089505441 2.50832
69.1595400079168 0.879775
69.487680685571 1.66934
69.998810048354 1.14885
70.4978840845006 1.11167
71.0122988807335 23.926
71.0742089802655 0.823238
71.2572614023502 0.932729
71.9382132950607 1.65467
72.9365568405605 9.03182
73.0283291188605 80.7844
73.1076444250908 1.79574
73.14614539595 0.850492
73.2986851185769 0.770344
73.5201069103459 0.853705
76.4914266417904 0.93867
78.4894025987474 1.99453
81.0338494796534 9.97909
83.0145083381352 1.12168
83.4978548072526 1.55098
83.9884289802675 3.71218
84.4816390626318 1.75526
84.9492034158259 0.920258
85.0283684452446 51.5392
85.1149901984875 0.901819
85.1398734814944 0.977273
85.1974730811378 0.899943
85.956450485969 1.7228
86.9513977588166 3.11814
87.0072090284445 1.31464
87.0458000210438 2.81005
87.985817209633 1.04362
89.7990908699238 0.897551
93.4970183546681 0.922773
93.9772519245008 2.48105
95.0158386187879 1.06895
96.972685160053 2.31081
97.0280055122328 54.5557
97.0922241528439 1.72533
97.1205230068278 0.785594
97.9671191990048 3.09742
98.2748184766045 0.798582
98.9516326769628 1.58514
99.0087960429574 0.772301
99.0418957268152 1.26805
100.965575417021 0.766591
101.967876178672 0.84222
103.039814586136 4.34756
110.682258638775 0.895391
112.965228015525 4.61932
113.021883284096 1.3185
113.961059330714 11.9003
114.947165808882 25.2666
115.038689270851 16.2118
115.098896021837 0.785062
115.950665867805 1.58895
120.081497818226 0.817724
123.934502153488 1.60888
125.021714460538 13.0824
125.952312908436 0.944179
126.954414652513 2.08489
127.97131018899 0.803937
128.961670805815 2.88423
129.960065274741 1.38816
140.955032329004 0.919317
142.938108007344 0.938
150.952905942671 1.07204
154.974463126635 1.72433
155.973949157325 3.40181
156.95163238401 0.846865
173.964435875686 1.01456
174.969028156366 5.14767
179.977189398821 0.906822

>collision 40.0
29.0014196232759 14.6516
29.0387826297061 11.7634
31.0171970466542 11.2268
39.0236407559556 39.6668
41.0393486816617 100.0
41.0752966784592 2.76508
42.0108471154317 4.29884
42.0340781430631 27.008
43.0187067908251 78.2298
43.6952457487118 2.78148
44.9981531363468 9.99095
45.0343104253053 77.2394
45.9844910053091 3.46568
47.013813429744 2.80883
48.4827841801643 6.62245
53.0027804972721 3.73553
53.039316362524 11.1392
53.9471444348022 4.4132
54.9367481633989 15.32
55.0186246828549 6.12067
55.9440173201934 48.2033
55.9871351422878 3.83863
56.9419364532735 49.4959
57.0345190654328 83.5397
57.0737832596446 3.41359
57.1057788228128 2.56398
59.012583427649 5.25514
60.0451352743201 3.67298
61.0279555952314 36.2287
61.9864070591494 7.75399
62.4790385934044 4.18466
65.4928553044323 9.72851
68.9949725848624 3.65844
69.0343095872838 40.3832
70.9559456510853 10.4727
71.0124568949042 80.9265
71.9401039474306 22.9195
72.9368582635169 81.1598
73.0308017569297 8.1855
73.2642353619623 3.15184
78.029579486616 4.01612
81.0318302517228 5.36302
85.0276142844537 14.1776
85.9567681974602 4.65922
86.952644537027 19.9727
95.0107071662276 5.99591
95.939776220572 2.5361
97.0288000065331 4.87804
97.9671088495027 6.12337
98.9536862639922 2.95616
103.054813671163 3.64803
113.955576240917 2.92347
114.946042068713 10.2664
116.309219538425 2.52184
121.068042144131 3.85073
153.899002629173 3.11248
154.904115401673 4.23353

