>compound L-(+)-Gulose
>formula C6H12O6
>parentmass 203.052830898809
>charge 1

>ms1peaks
203.052941042268 100.0
203.180926748225 2.12807
203.222547069443 0.933542
203.26370052063 0.560936
232.26370052063 1.0e-13

>collision 10.0
203.052830898809 100.0
203.180606144423 2.13909
203.221369265023 1.04081
232.22136926502 1.0e-13

>collision 20.0
69.0304318109327 0.639566
70.0640519091766 0.613458
185.039968706848 1.53322
203.052935493457 100.0
203.180707911426 1.7578
203.223629903454 1.01589
203.446156533893 0.522406
203.604928008267 0.661134
232.60492800827 1.0e-13

>collision 40.0
55.0516163306253 54.2594
62.0619138769784 54.8255
68.9342029345387 66.9557
81.0521718089652 100.0
83.0002910286987 48.73
102.96300693459 51.8599
131.96300693459 1.0e-13

