>compound GW 0742
>formula C21H17F4NO3S2
>parentmass 472.066705523754
>charge 1

>ms1peaks
275.038297597212 0.826663
472.066877853892 100.0
472.256443888834 2.00984
472.324797920347 1.04983
472.451238041651 0.579358
472.558224679816 0.555648
472.736755619899 0.585673
472.846234186859 0.540082

>collision 10.0
274.032804038981 0.83749
275.039378120183 4.37187
472.066705523754 100.0
472.257095454593 1.94502
472.329788816528 1.06708
472.552202588492 0.574307
472.733449302482 0.533497
473.065580708522 0.660106

>collision 20.0
198.0347802707 1.29098
211.041723839517 0.71945
274.031475616492 7.84427
275.038867650669 49.245
275.187501445219 0.871146
472.066430370703 100.0
472.25730175692 1.98319
472.320311855747 1.03183
472.430328902259 0.696021
472.620777184875 0.527016
472.927483924261 0.514312

>collision 40.0
70.9960027241305 1.55126
85.0111590174707 1.02552
86.018867245316 1.24515
165.02097567133 0.703099
190.030684354446 0.650092
201.030295728081 0.701714
206.042993804038 6.26265
242.058790752712 0.607657
274.03118915335 12.0313
275.038995739115 100.0
275.188090328794 1.82475
275.235004492113 0.905719
275.28299811178 0.690493
472.063331932132 0.515637

