>compound 11&#38;alpha;-hydroxy Testosterone
>formula C19H28O3
>parentmass 305.209773105536
>charge 1

>ms1peaks
25.3277007311376 1.09545
26.9187964322773 1.10801
35.1429843215629 1.18108
36.3101991791089 1.105
39.0911521257062 1.22321
46.2367367218136 1.19414
62.379952536188 1.15259
82.3515132236645 1.43171
90.980270638881 1.36199
95.0832825466505 1.73037
117.186921985246 1.1068
123.09137928924 1.64925
132.979946578952 1.13734
133.106924905001 1.53619
135.128232098267 1.10769
146.991245805574 2.07431
159.108820726917 1.78003
161.091413839279 1.53885
161.718480792362 1.14924
171.079710390388 1.27321
173.091914943025 1.99004
183.124809206718 1.41509
184.410800025381 1.13131
187.682550380991 1.18444
210.909391164607 1.07677
216.292916057336 1.40585
222.241106325088 1.13946
225.019026776843 2.16026
226.014857299478 1.67796
227.007140783988 10.7685
237.79782214155 3.45975
240.080423799099 1.07699
245.020436084697 1.13759
251.294758173028 1.16089
255.892971109304 1.36535
263.183788104325 2.42991
268.832812276349 1.10727
269.187248432665 3.40123
287.214209152679 1.29833
304.231858213862 3.25722
305.024308282056 8.60883
305.211499212361 100.0
305.418258925266 2.32552
305.497650568673 1.43873
305.606197294651 1.32159
305.728866623552 1.35269
306.020603791344 1.37921

>collision 10.0
67.0558801062863 4.59011
83.0458368732838 1.8837
90.9779456236076 2.92165
105.064108747245 2.74461
121.097652812575 2.45043
148.000249499101 2.07197
151.105893937032 1.74253
158.952010198585 1.52987
161.130168132593 1.48973
170.210277585094 2.83442
173.131831883435 5.15729
213.164209096922 3.64595
226.011197288876 3.77418
227.005467064257 16.3218
227.078469042714 1.77996
227.178392452274 1.96888
229.158692906335 1.69326
238.428752954095 2.18723
251.181242828365 3.59074
268.269667948697 1.5474
269.187636810476 10.4573
287.199977492453 4.67108
304.163105979326 3.24344
304.228141345084 3.56206
305.209773105536 100.0
305.365634228315 1.62001
305.831244099622 1.63475
305.890942787773 2.03686
306.065200138719 2.48976

>collision 20.0
55.018398217711 20.5006
64.977144095641 11.2643
81.0719203019262 7.79084
90.9747355616948 13.0806
91.2484022881129 7.83664
95.083392076233 15.2556
97.0643158809663 20.3925
103.009004183608 14.7728
105.003479130697 12.9709
105.07000342608 12.1812
107.087737567387 17.8199
109.065811010072 17.4125
119.08398502927 19.2692
121.062362062422 45.9735
121.091645991134 13.9182
123.078990673772 30.6819
131.090915978955 8.22677
133.101468415536 27.9445
135.114654461759 29.9155
145.102732293568 13.9971
146.998585417705 54.055
147.113262320757 24.5086
148.993593275825 70.927
149.133347898561 10.408
157.099774031735 15.2117
159.112275002871 9.0018
161.116289251828 8.27462
165.135462329224 18.4152
171.114363917797 9.7443
173.131545902659 26.8703
179.144680499148 10.8842
185.13641391095 8.10621
187.147622783679 11.2063
189.160412994905 12.5944
191.14694924837 15.0514
197.137520305413 15.2799
199.105210897835 10.053
203.129929417696 7.53925
205.161699946753 7.55968
211.149509368464 21.4835
225.166590240463 16.6663
227.165585501554 9.43301
241.187246751145 16.2482
248.044061081197 8.08653
259.16118533785 8.81809
269.191614745266 64.4617
287.199562928116 39.0682
305.20394590833 100.0

>collision 40.0
41.038655260331 20.9751
45.0372159122654 16.092
55.0531747876331 38.6893
57.0293540918809 27.8483
67.0536481463569 34.8316
69.0690550794541 31.8894
77.0388086161586 23.8338
79.0547894384209 77.3391
81.032088171754 19.2309
81.0688511348176 21.9683
83.0484814214948 43.8915
85.0673173322755 12.5148
91.055086217724 30.6519
92.057774600801 20.9625
93.0666829137152 22.5868
95.0682542331304 31.3529
103.00696179765 57.6059
105.001487532701 96.8855
105.070747852998 100.0
107.090296734688 17.3359
109.065550513525 40.8355
109.094641214692 19.8999
115.059711005276 30.5955
119.08744764771 43.0074
121.064271684427 83.4272
121.091257074401 31.4597
123.080619398275 60.542
128.066445886896 15.1275
129.066327960666 27.7683
131.079647960955 16.1305
131.970378814674 21.3475
135.08288918538 13.304
143.082935829389 31.3686
145.097717193988 51.748
146.99916522835 17.3421
147.111669354992 30.7624
148.993248742749 44.8826
155.0861647889 45.9702
159.113967632394 18.5684
160.127684663562 17.6381
161.124556113373 32.3725
168.086908533031 13.6551
169.096834695765 15.593
173.128861455297 21.2129
185.089492193015 19.5406
226.130186618745 32.9331
269.557203427496 14.4724

