>compound 12-Hydroxydodecanoic acid
>formula C12H24O3
>parentmass 217.179332633835
>charge 1

>ms1peaks
81.0704160064133 0.815596
83.0854731638687 0.660429
111.080742921441 0.806893
115.111001120596 0.992437
125.09496769419 0.661373
129.090940926129 0.67498
143.104884294517 0.594853
163.14757239213 9.09947
181.157910145573 23.4431
199.169080797934 100.0
199.29801501082 0.600647
217.104683096204 1.70807
217.179332633835 23.0323

>collision 10.0
41.0403348323645 1.02763
43.0188935083667 1.94164
43.0552777757331 3.59114
45.0353192091498 0.56753
55.0556925761783 9.91614
57.0342849137415 3.4886
57.0710564020627 11.0597
59.0494344836436 1.16811
67.0549378346284 5.19119
69.0340656283496 0.693612
69.0706546294999 14.513
71.0497349176627 5.25689
71.0859462279775 7.48226
73.066330629023 1.73015
79.0557229874402 1.67248
81.070391352522 20.2773
83.0493180039257 2.98284
83.0856342116499 31.7703
85.0653841064064 4.8992
85.1010908941715 3.99947
93.069898800497 7.92621
95.0860654750989 11.7894
97.0648359103391 12.7098
97.1013471665645 25.1282
99.0802273384062 2.99399
101.060947081475 2.70333
101.094914192354 0.504623
107.085370773625 21.4032
109.10144735206 7.28804
111.08042038339 11.0672
111.115155813389 3.42653
113.097751688334 0.720466
115.074885531391 4.67337
115.111154530747 2.57615
121.100847730127 15.8684
123.115901566999 7.39341
125.095890592818 13.4133
129.09119362235 2.96153
135.115870331746 6.11981
137.131410654966 2.6536
139.111562823199 7.66543
139.144770105643 4.41398
143.10745510119 1.94942
157.122168291289 1.05327
163.147559444516 100.0
181.158400114527 48.455
199.169223402484 7.71871
217.104382998489 5.42132

>collision 20.0
41.0394215945281 7.16309
43.0192695883804 5.12706
43.0554886664505 18.5174
45.0338981627878 0.854228
55.0199924095891 2.71095
55.0552379470997 100.0
55.1217481113993 0.61675
57.0344611909458 3.94074
57.0703831893328 22.7524
59.0515894710454 2.28459
67.0547836185146 13.1104
69.0334336094426 1.27726
69.0704884272597 73.555
69.1475790349534 0.562276
71.0488549718549 4.28397
71.0860761662621 7.79883
73.0661058660577 3.26118
77.0392118321867 0.573793
79.0545878566252 14.6168
81.0703707992993 30.7136
83.05000182838 5.34788
83.0860168587696 61.7313
85.0648418476697 4.79665
85.1001883056501 1.88541
87.080473872151 0.812929
91.0535911824689 1.88119
93.0700375062586 22.0314
95.0856108528518 23.99
97.0649611614695 12.5852
97.101271930666 35.5758
99.0805383112272 1.45233
101.059091782076 2.99139
101.092649161726 0.887426
105.069536139332 1.39059
107.085267739871 27.7059
109.101523910475 5.62541
111.080260797031 6.54681
111.114438452629 2.48834
115.075041267703 1.14665
115.11325404148 0.788779
121.100803786304 19.9192
123.117386918765 2.13558
125.095904346534 5.61907
135.117641494238 3.53283
137.13326891674 0.899559
139.110907103968 2.3318
139.144796493767 0.5723
163.147405953623 9.98911
181.161451776119 1.07397
217.100323332015 1.76758

>collision 40.0
29.0392527891157 2.1755
39.0237340651527 3.32909
41.039710179947 34.0502
43.0190505872266 3.06028
43.0549263083666 12.7365
45.0340506935336 1.38266
53.0400485094656 2.50689
55.0187859192952 3.73059
55.0551125198234 100.0
55.1231457609009 0.655615
57.0340251912868 0.705887
57.0701781522457 6.74562
59.0506915451914 1.9961
65.0398682261705 1.08481
67.0548336906201 8.72655
69.0708746101874 18.5797
73.0645110525968 1.40254
77.0388628681385 4.84351
79.0550564468387 11.4537
81.0704457069433 7.6074
83.0493367681576 1.22009
83.0860707156182 2.03749
91.0550572527058 4.5894
93.0708706994219 4.08432
95.0861020177337 2.91007
97.0647484031978 1.81433
103.051491717223 0.522119
105.069093696679 1.33174

