>compound L-Cystine
>formula C6H12N2O4S2
>parentmass 241.032733777517
>charge 1

>ms1peaks
74.027352024416 0.82531
120.01341777293 1.44155
122.028327927066 1.48144
151.983821906343 5.24993
154.003348995384 1.05398
163.047918380309 1.74063
195.028217790308 2.12014
240.920863585135 0.693903
241.033305751002 100.0
241.217449964397 0.995756
241.272937835991 0.982402
241.352738860143 0.591086
241.399610893012 0.645461
241.499519637567 0.599507
241.701623255458 0.549479
241.830063295163 0.506372

>collision 10.0
30.0359248682574 0.553699
46.032384527051 0.827491
46.9930101775441 0.612944
55.0185105926843 1.26616
62.0177158868194 0.807763
73.0297212124721 1.98492
74.0251816010924 16.696
76.0238758671316 1.09042
79.0215942173539 0.682344
82.9425801169438 0.523666
85.0300525947662 5.22697
87.7185978732064 0.549051
88.0409789710978 3.48917
92.0142809172033 1.04691
105.006855260676 0.829683
105.975176537286 0.60025
117.956061938575 0.653447
120.013759179178 47.4246
120.075707702801 2.17934
120.11359125995 1.00155
120.22941742779 0.53639
122.028394165448 31.0369
122.10462589045 0.670549
122.13434683067 0.549821
122.213301323629 0.524281
122.306105459493 0.741153
137.039395651138 1.59022
151.985257930964 97.3208
152.095324958135 1.58794
152.129407112002 0.836343
152.163896686172 0.591512
152.419032472727 0.73473
152.522887414976 0.577801
154.001312479461 10.7649
154.067728451118 0.715614
158.952607762671 1.11868
163.045178556929 1.63722
163.138755234468 0.584657
178.001979810973 7.81021
195.027650964385 11.9316
206.000105939887 1.43565
224.003686968006 3.07644
241.032733777517 100.0
241.171797147362 2.22394
241.243175548763 1.1246
241.336558041255 0.50708
241.387027351616 1.48077
241.46711597468 0.816169
241.586835540763 0.836317
241.765577950593 0.805494
241.973523374704 0.858016

>collision 20.0
30.0357306127479 2.665
43.0453715503423 1.43712
46.0301064712387 2.09728
55.0196494767647 0.700459
58.9972557098568 1.23323
73.0268883694523 2.31611
74.023934729791 87.4937
74.1023908406302 2.38609
74.1229880944306 1.1193
74.1467138489892 0.644407
74.1812122013169 0.586524
74.2116264686962 0.725503
74.3023216430302 0.600761
76.0286446775523 0.937025
76.928916144244 1.10287
80.9520718170174 1.44947
85.0306911500423 5.78952
86.984986060273 0.648985
88.0437354446656 2.31022
92.0199261515707 4.74373
105.000812995059 3.14949
105.979077462778 0.619584
107.997394025677 0.687363
120.012979252099 100.0
120.105092104139 1.59714
120.142840784485 0.726426
120.171876820417 0.657487
120.206421044294 0.613887
120.304658511831 1.29425
120.358118569819 0.664114
120.585915963787 0.666705
120.647637389387 0.608867
120.99809383681 0.627839
122.029975989347 34.3925
122.13195571362 0.703368
122.187214986823 0.573775
136.972940373264 4.95415
145.766920352411 0.608867
151.984833447313 37.7534
152.900510444102 0.820089
153.999433040094 3.54439
158.977168709088 0.577728
178.003815706693 0.713861
195.023214213287 1.00463
205.998290691877 0.569241
223.993440811733 0.702482
241.029223736402 1.68842

>collision 40.0
28.018306573372 2.19833
30.0365753428045 1.15178
43.043565368515 1.54422
46.0313773353568 8.80843
46.9970419723831 4.02583
47.9914700634408 7.46261
51.9402699209837 1.42591
55.0199594453916 10.7366
58.9971048382416 11.3838
70.0305906321777 2.4443
73.0317243952392 7.53133
74.0155322028766 100.0
74.0857764437366 3.53624
74.105081181899 3.05424
74.2199081831309 1.13774
74.4153396806754 1.3323
74.4954368362169 1.20592
76.0242767208502 10.1151
76.9412307123424 1.24465
77.0083148073584 1.49713
78.9707718916483 2.82677
85.0308661808009 1.68014
86.9920402268626 4.5825
88.9504840507661 0.924347
92.0187373553994 2.76262
97.0679226048869 1.27496
104.519556960774 1.06139
105.003206986452 2.68561
120.014932528816 20.1695
122.029996640526 2.86737

