>compound 1,8-ANS
>formula C16H13NO3S
>parentmass 300.069783267862
>charge 1

>ms1peaks
35.7044415233958 1.43732
44.0776312657598 1.30964
47.7087076535499 1.32658
98.3322449974081 1.35239
183.983767338191 1.21457
214.144577184656 1.27898
216.075244771283 1.68505
217.089010530875 4.80702
218.089512103331 4.28495
220.939301091143 2.26879
228.164619598832 1.20266
228.322296592262 1.3887
265.351320215218 1.1787
282.059585245147 1.54212
299.067335021043 2.65186
299.154974604545 1.30746
299.966569267385 1.66516
300.06802823298 100.0
300.225490588181 2.23469
300.294546161784 2.29503
300.341771081557 1.38815
300.705246685184 1.60087

>collision 10.0
103.675872043588 2.45294
110.394507608325 1.90039
180.938528978277 1.86039
216.0728802835 1.99974
217.088102898214 28.1406
217.375053077832 2.02393
218.095750970509 23.9701
218.342613066591 2.48917
282.056844299885 27.6109
283.17095059653 1.80155
299.202411561455 3.17382
300.069783267862 100.0
300.196742567113 3.44647
300.698850422808 2.13457
300.807119702473 1.76135

>collision 20.0
43.2048787001441 1.88982
45.0360642400865 2.07429
75.0931965494335 1.95365
177.053416406737 4.28595
217.088295521343 57.2886
218.095843399155 100.0
218.184210085226 3.06185
218.22445242486 3.53473
220.113462687148 2.08803
282.05149860456 2.3513
282.290718703256 2.54724
300.065120394925 3.16344

>collision 40.0
130.945222296221 2.66849
211.336208187563 1.61841
216.076553920693 12.6763
217.088844016329 100.0
217.225529768912 2.11212
218.090677656312 5.47454
267.80941140459 1.61785
287.323664619807 1.97399

