>compound (&#38;plusmn;)-Enterolactone
>formula C18H18O4
>parentmass 299.127107976229
>charge 1

>ms1peaks
107.049845133251 4.13422
133.065915016497 4.98553
149.059701805281 0.881373
159.080513921625 0.5996
235.05597859526 0.612435
245.093891824465 0.63472
263.103165419311 4.14678
281.11586997804 17.9208
298.342739562794 0.744491
298.949211254782 0.75073
299.128699298422 100.0
299.309648660651 1.83512
299.433579362593 0.848367
299.46974500775 0.607332
299.568377825086 0.860449
299.642672375169 0.678601
299.750179327123 0.687138
299.924041678355 0.582629

>collision 10.0
52.9996406617962 1.66892
77.0416142823175 0.95131
79.0565955387663 0.754655
91.0532619956551 1.20227
105.069571268923 2.28795
107.049429694963 50.4421
107.141915024868 0.95015
107.215482058275 0.592963
107.254819309019 0.575614
107.31729779218 0.610462
107.371159339651 0.834064
107.445132056936 0.547084
119.047429248906 1.62423
121.061104381871 1.61216
127.049983786272 0.967543
133.064830311034 89.5655
133.171899207718 2.25733
133.226691800529 0.821563
133.326406235758 0.558989
133.452978607588 0.687286
133.548841437814 0.576508
133.970887408852 0.592921
145.064096161584 11.3878
145.104254780337 0.949037
149.060533506133 14.1834
159.082892084249 2.87625
161.0604345923 2.44569
169.063547867047 0.547709
173.05929689041 0.811048
187.073727084468 1.17147
215.086705514288 0.565669
217.099940983191 0.759159
220.927268798822 0.911899
233.094909009233 1.97631
235.107717557727 8.44162
245.097366169297 5.91472
248.087209072455 0.869107
251.111570510471 0.790298
253.123701345229 4.44858
263.105218132585 43.194
263.209784957388 1.04384
263.245790512337 0.688725
263.279627361406 0.61202
263.772701921688 0.556087
263.856807518403 0.741892
281.115795976278 100.0
281.336851138348 1.10696
281.598275071588 0.613343
281.757302012347 0.545556
281.837626690223 0.524639
281.930917745254 0.623461
281.997057636351 0.605248
282.173325377345 1.15941
299.127107976229 53.9596
299.294002414066 1.0183
299.592741258529 0.623564
299.705044317152 0.538593

>collision 20.0
51.0253387109257 1.3102
55.0163708761351 0.852427
57.0718514873443 0.656222
77.0388315305861 2.70641
79.0556238506922 0.848066
91.0557545110264 0.658772
103.057268890159 0.529678
105.071279605992 5.25696
107.049116846623 96.84
107.141396561133 1.56682
107.18290485792 0.922702
107.244627389854 0.599402
107.324923383404 0.576015
107.39660501573 0.660154
121.064188875059 3.37678
127.052020554055 0.871393
131.050710506744 0.61609
133.064491009163 100.0
133.171380017631 1.63374
133.214278469157 0.730346
133.317227403199 0.679519
133.385353919395 0.678393
133.454220022969 0.577103
133.528779182015 0.624466
134.953162277195 1.2019
135.042789214075 2.11842
144.051998667575 1.05068
145.064396184143 16.9601
146.066377254711 0.611826
147.080482332305 1.09258
149.058392632512 5.96886
159.079236357933 7.16246
161.059143860761 1.78692
169.062138253191 1.43657
174.067940518361 1.471
187.072496967401 0.996705
202.07642825931 0.838756
217.102197212054 1.84573
220.087567129642 2.0325
227.082401383554 0.806159
233.092160565449 0.926466
235.114271741296 5.40581
244.094066910476 0.67607
245.095836249594 8.59064
247.080631162021 0.648729
248.079947658786 2.65482
261.084446948279 0.560629
263.105779498317 12.9854
281.119956178643 2.3787
299.179312066659 0.777861

>collision 40.0
51.0258525622368 1.17147
53.0390175537286 1.09
55.0196380427601 2.47379
77.0388407856811 25.4148
77.1218520450775 0.603983
79.0546016990311 14.4338
91.055870674578 3.12966
93.0682727069972 0.534674
103.054302446892 2.9367
105.070505920573 22.652
105.142600702993 0.680634
105.165089506093 0.786426
107.048995821942 100.0
107.143735312888 1.86756
107.169919305958 0.844453
107.246145366229 0.671353
107.270768641541 0.694755
107.358203184 0.787649
115.052749595991 4.73774
117.070837955649 2.36963
119.047592033896 0.684287
121.062593474256 2.84881
127.053188430821 5.11437
128.063506241235 0.537942
131.051302492537 3.76754
133.064642165911 25.0543
133.140187207967 0.921632
133.755792215746 0.556253
141.071950933953 1.8918
144.056189562025 1.61222
145.064778222614 12.639
149.054514233689 0.503931
157.061898810619 0.575581
159.078253649655 0.612386
190.077343403258 0.656725
202.075912641367 0.661174
214.078247012665 0.740408
215.083427225529 1.42967
217.097548367965 0.582757
218.069949855094 0.64172
220.086449454139 1.10675
226.070818344069 1.26545
227.082122113334 0.722501
231.080292807786 0.511577
245.088635434082 1.49383
247.075985205352 1.08993
248.083995622339 0.882332

