>compound Lumichrome
>formula C12H10N4O2
>parentmass 243.086358964109
>charge 1

>ms1peaks
36.1625470337069 0.621794
85.0304627976892 1.2637
160.952604638077 0.724944
163.044757315307 0.747776
164.915540100425 0.673485
165.034898364863 1.32997
172.086644061593 0.968083
193.082447541903 0.57942
198.066188963907 1.64008
200.980946593266 0.60462
203.437481205888 0.666792
224.63857148246 0.577603
242.059304393809 0.982493
242.213508204053 1.84553
242.841542031183 0.93461
242.910045003429 0.928934
243.086549760858 100.0
243.283707889223 0.866802
243.357482592988 0.855249
243.470266163296 1.10737
243.762036519406 1.30423
243.91905146058 0.803527
243.971743700311 0.700832
244.064204994891 0.638218

>collision 10.0
60.9820222706371 0.708921
85.0274737772981 1.22306
117.952563639599 0.619844
153.976951508699 0.692927
172.091081636377 4.77198
198.065195309033 4.40067
200.080371782604 4.17259
201.898221111463 0.570933
211.09413854899 0.526593
242.130058333728 0.917499
243.086358964109 100.0
243.227208668452 2.10368
243.272444492952 1.29171
243.318524095702 0.930499
243.362781143114 0.520679
243.572481414834 1.24385
243.731395484721 0.68207
243.926452572544 0.769264
244.003120027064 0.827409

>collision 20.0
27.8334970436846 1.24558
43.0520179753987 1.21265
55.0545760693525 1.19694
86.0325309549284 1.34232
91.051889710232 3.41536
95.0906145628598 1.46274
103.051795889294 3.99129
128.047400035546 1.43822
130.060811454336 2.07302
143.056253778883 2.07908
143.940409691216 1.46135
145.074362763496 2.19439
153.889803154024 2.6277
157.063779477492 2.3738
170.072000711035 3.14954
172.086141784335 67.0663
172.151189697508 4.03301
172.181456978598 1.86277
172.273963110053 1.26029
172.6832837096 2.1154
172.807555580458 1.67018
197.079920593631 2.51006
198.065358696695 61.3253
198.157491495315 2.16474
200.080658046012 12.6623
200.655610409129 1.27671
226.059902839008 2.61078
243.087150871671 100.0
243.23314548293 1.78788
243.513099754353 1.34987
243.683916365196 1.58134
243.801615177378 1.51606

>collision 40.0
42.0344185925127 9.62035
43.0624930582492 5.02965
46.9961405311362 8.732
53.0373840200105 8.98299
67.0532045343468 5.95999
77.0394273036881 28.43
80.94661910768 13.6996
88.9805369010067 6.2834
89.037466597627 9.07741
91.0547736234647 55.2207
94.0641612416872 6.14722
101.036355335137 8.9818
102.039123210362 11.6523
103.054186203962 96.2605
103.10219301882 7.14174
104.045466583487 24.7947
106.069933301943 7.33908
116.047728801268 50.4794
118.065357718534 68.8572
118.117727815875 6.72565
128.044864034491 14.0486
130.064604214081 68.7068
143.059947608086 35.6042
145.075508878496 69.7123
147.102337550901 7.82336
157.065862326269 22.3023
169.577068770057 5.52479
170.070914959248 100.0
170.153949762181 6.1819
172.08779727363 64.636
172.147770983757 6.48972
198.06312027784 82.9899
200.085072810665 7.72829
234.386391957833 5.15568

