>compound 1,4-Dihydroxy-2-naphthoic acid
>formula C11H8O4
>parentmass 205.049744695199
>charge 1

>ms1peaks
98.5331391075608 0.611509
103.057312747784 2.28839
105.028007826456 0.559416
120.518196075955 1.1943
122.004964852314 0.946789
131.046859804641 3.22277
133.073750590464 0.789439
142.52500813292 0.748224
159.04446538854 11.0615
161.0607030174 9.37954
161.12166323877 0.514517
161.998953272691 0.508993
162.974641675067 7.76878
163.123477965748 0.519952
183.537864887385 0.858289
184.059222356103 0.91544
186.030393703046 2.37071
186.998003880255 0.945288
187.039483334016 24.9818
187.135672616238 0.512026
187.85063469674 0.667106
188.033712863855 0.749295
199.002394979857 0.52048
204.039445815131 4.26227
204.161443819267 2.27066
205.049547804813 100.0
205.141742739761 3.03818
205.216451546923 1.16216
205.337535747163 1.00354
205.472997319763 1.08572
205.644172957693 0.757044
205.706915693637 1.11684
205.778155358115 0.572566
205.881541522436 0.676889
206.046142452248 0.685041

>collision 10.0
47.7693952197738 0.927014
51.8757964803341 0.698603
77.0397202139667 3.89534
77.062490298285 0.824595
84.9590587560219 7.24276
91.0549416909795 0.932022
97.9933327025592 1.52026
103.055511721804 8.43045
105.03418643515 4.92786
105.104840021263 0.819026
115.054294142547 2.54487
120.515218744287 0.727482
120.956181291773 1.04563
127.07170122502 0.77963
130.041309286219 5.22245
131.050061671827 26.3492
131.282289944977 0.889185
133.0648043601 4.05419
142.52486914079 0.749814
143.047129061193 3.16496
146.063648863955 0.998396
157.027401812735 1.29428
158.03828657887 2.00246
159.044054434821 71.6278
159.144666038134 1.4128
159.18708624497 0.679238
159.229059084935 0.733491
159.28667765347 0.681506
159.44763652278 0.679206
159.563912122781 0.850873
159.840741685338 0.687967
159.883786849727 0.736796
159.92079307229 0.670614
161.059283633818 36.8061
161.159443321392 0.791427
162.97382595065 7.43876
186.030365223999 9.58777
187.038806507046 100.0
187.159333131022 1.51112
187.198514890929 1.57155
187.254304275994 0.719663
187.490231650744 0.663817
187.614281659433 1.0611
187.829549742269 0.733915
188.045816619208 0.795189
204.038905627505 1.89869
204.153436354609 1.96406
205.049744695199 42.4285
205.120975742408 3.80169
205.1833292022 0.909071
205.251104082851 0.729523
205.398580061693 0.849194

>collision 20.0
36.0300967829275 0.937031
55.0206455772752 1.16329
56.9641162766178 1.44104
59.0477125313239 1.0617
68.9945847167658 2.06546
77.0383693791128 18.1483
77.50819217059 0.953804
79.0502172966036 1.31237
84.9616741776814 5.92562
89.0383605166658 1.5632
91.0539187201362 7.24551
101.043303077555 0.880228
102.044397806227 4.33877
103.054777204019 57.7432
103.63127176744 0.856307
105.033755122916 8.97911
105.064328791949 4.51448
113.037624139692 3.17231
115.053915600316 8.66798
128.056894241023 1.20039
129.030309097463 1.65066
130.040161195347 10.6511
131.049514252562 100.0
131.138917505258 1.80416
131.191581586358 1.23676
131.239470085945 0.882904
131.562177124112 0.859589
133.02615636498 0.85623
133.065866946427 2.01227
141.036333966997 0.942079
143.05058446819 4.94971
145.031883239658 1.73671
158.036092226403 3.27882
159.043967622262 93.1843
159.42709766414 0.930803
159.515529366754 1.28422
159.708786122967 0.941764
159.839094002454 0.964427
161.060726751223 15.6298
165.262372699841 0.921787
169.024134751375 1.11491
183.094748729552 1.01168
186.032463678703 10.4776
187.038140909903 61.5053
187.157229123572 1.39132
187.348804305452 0.992441
187.389799337319 1.30754
187.777072937503 0.951376

>collision 40.0
41.0015546639943 1.00493
51.0237665055764 4.76913
55.0194124822568 1.60259
56.9650082816396 4.16881
62.0152726891597 1.29625
63.0244068566367 1.5433
68.996631102397 2.07642
75.0223791372958 1.50666
76.0315677157733 8.9646
77.038639642437 100.0
77.1187229291002 1.87593
77.1863011361736 0.82743
77.4418317965274 0.949947
79.0529482852658 2.04741
79.071906545917 0.890987
84.9584814845243 1.96779
85.00591565085 1.30073
89.0393750177752 4.83094
91.0546864924648 6.32896
101.039469296375 4.11311
102.046989606569 37.1358
102.140601303159 1.32523
103.054661717408 86.2953
103.142452896518 1.44479
103.205588431658 0.947439
103.78693625853 0.840378
104.519041740504 1.1614
105.03314094571 31.8404
105.127170616618 1.02885
105.531412050784 1.24313
113.03916498908 10.3693
115.054683941701 17.3428
115.129937249367 0.795849
116.970076268974 0.796007
117.059244565482 1.48437
121.076919987767 0.855853
129.028879991194 2.11231
130.043449051782 1.1843
131.049340808513 20.1197
131.119613168905 1.03167
132.055282826425 1.92256
141.036529599101 1.4023
143.04911272413 1.86129
157.093068403574 0.784637
159.054870983223 0.874351

