>compound Capecitabine
>formula C15H22FN3O6
>parentmass 360.156141927567
>charge 1

>ms1peaks
71.086281700699 1.16712
130.039872928874 4.8693
174.030880915906 11.8865
244.108994518353 100.0
244.285729161637 1.00557
244.348813885079 0.568022
244.398040709264 0.609349
244.599972144767 0.698961
244.889337091037 0.528798
360.156141927567 72.8237
360.327835389489 1.47469
360.474187982086 0.774646
360.646855063533 0.789399
360.990130889684 0.556548

>collision 10.0
43.0554885172406 1.35654
71.0870871523477 1.81902
130.041282612036 9.68385
174.03054767521 35.0259
174.146170693125 0.636376
244.108975891998 100.0
244.250833178756 1.57256
244.296309829501 0.857594
244.378059709145 0.61668
244.526271823592 0.58964
244.731420765466 0.584209
360.158671256897 2.02781

>collision 20.0
43.0554050926274 10.6627
71.0861203980857 7.01749
73.0282047320996 0.603255
112.030614258183 0.744276
113.013991983645 0.919936
130.040847539484 49.2551
130.143239477475 0.989192
156.020169292652 0.562381
174.030284630375 100.0
174.14700631531 1.75449
174.184502759508 0.780639
174.223797485456 0.583831
174.323394659559 0.618893
174.359740349304 0.500232
200.116968557832 0.850183
244.109043494002 38.9433

>collision 40.0
41.0392771427141 1.5097
43.0553486987253 28.7436
43.1159640104223 0.534028
45.034166842443 1.30962
55.055853290238 0.591459
71.0866744622112 2.21114
73.0290011222387 1.30737
85.020287988516 1.04748
87.0361881524443 4.68789
112.030367451347 6.73132
113.014204527321 7.45057
130.040726327873 100.0
130.141599393179 1.79545
130.173687571122 0.893526
156.020888434297 3.78542
174.029975358333 13.2198

