>compound HC Toxin
>formula C21H32N4O6
>parentmass 437.239527968453
>charge 1

>ms1peaks
70.0654895343528 1.2497
141.101298012639 0.759831
169.096418099542 2.39288
170.117172378091 0.643027
240.133879752472 4.38768
269.148219703982 0.647626
349.186249341609 0.502154
366.202016105649 0.692547
409.24325505474 5.31609
419.230938704234 2.23819
437.239835362962 100.0
437.425121340007 1.82906
437.484581036115 0.948282
437.623998942741 0.601673
437.688576601814 0.590617
437.79118331794 0.563346
437.901655331241 0.507182

>collision 10.0
44.0506109661172 0.771948
70.0654358633303 10.4652
141.101697495245 6.64553
152.104950161594 1.48721
169.096324415642 22.2877
170.116696813101 9.14979
212.140318277441 1.63601
239.148038690157 0.82614
240.133387119851 53.1376
240.269965043193 0.913917
240.325398600302 0.501409
241.152280797384 3.95777
267.169163513155 2.05785
269.148544386615 5.79672
293.185904754012 1.05321
295.164892862631 2.45624
297.143921154896 0.508113
312.187071282582 0.789709
321.183108048918 0.573288
340.187236206532 1.86664
348.191748365876 1.83173
349.18781657475 0.822173
366.202203709144 4.24286
391.234002953619 1.15403
392.220244193297 0.617919
409.244188985217 36.1709
410.250253416642 0.60333
419.229672749424 3.14718
437.239527968453 100.0
437.427143432474 1.58266
437.494520176009 0.817352
437.635938089939 0.635121
437.739401022298 0.629601
437.85669360508 0.6682
438.049949420952 0.675368

>collision 20.0
44.050137400112 1.82321
60.044494254017 1.94674
70.0288480067844 0.605733
70.0657564287126 41.6821
70.1402511278548 0.674891
79.0541540059063 0.76323
81.0673823136909 0.579457
98.05902215366 0.625852
106.065479858375 0.870505
107.084301757217 1.39015
115.085609225712 1.67141
122.095358825526 1.1026
123.0853706112 0.762347
134.09647568173 0.704303
135.081468970991 0.630409
141.101559133662 37.1704
141.186365366041 0.83111
141.211014650947 0.557609
152.106496219408 5.11761
153.088893204333 0.584123
169.096411711165 100.0
169.213980419185 1.80993
169.255220387931 0.930638
169.406614036913 0.528755
169.474652270787 0.539394
170.117011099457 25.1956
170.241027070801 0.554078
195.11057053974 1.07308
196.131484385397 1.43539
212.138449957461 3.60457
222.148718127665 0.989235
239.149136697707 1.28339
240.133247799615 88.1064
240.275051652972 1.67611
240.326185368054 0.741333
240.428388680112 0.545637
241.151863954504 6.77829
249.15669960998 0.543317
259.138740551258 0.672231
267.16910693243 6.86818
269.149651661342 5.06665
277.155337742626 1.7284
293.184951068657 3.4047
295.163850094672 2.5832
312.197484145027 0.725856
321.181000182466 0.867417
322.177278764568 0.688384
340.184577030903 0.708674
348.190085109356 2.70844
364.217011705552 0.550832
366.200137121453 3.11508
392.211344429283 1.38416
409.242671708393 22.5831
419.225943719521 0.8239
437.239140818559 14.1197

>collision 40.0
44.0505021724333 2.2973
56.0495919663472 1.05902
60.045230175122 3.54806
67.0537948074633 0.86789
70.0654772932324 100.0
70.1419039655451 1.99617
70.1636581329594 0.857162
72.0444237541055 0.67374
79.0547436590945 1.56173
81.0689609229046 2.16199
82.0658280764397 0.521391
93.0727689074703 0.950689
96.0807174970186 0.528868
100.039063503607 0.972309
106.064045962197 0.651808
107.084859750698 1.36471
109.065143781968 1.42773
115.084586715815 0.575917
117.068157598933 0.55528
122.095582818837 1.56057
123.082895825482 0.617233
124.108847617483 1.0557
134.095770730755 1.66989
135.082122833631 0.798227
141.101854745891 52.9824
141.206005581507 1.04109
141.243059136792 0.502593
152.107834959876 4.76029
169.096004545174 25.8835
170.117378220031 8.42461
196.130610465763 1.55858
222.147856850104 1.01618
240.132417710759 0.6486
241.151628455411 0.696818
267.172589487465 0.6175

