>compound Abacavir
>formula C14H18N6O
>parentmass 287.161326667524
>charge 1

>ms1peaks
191.103428170278 3.87479
287.161416856608 100.0
287.314069656463 2.67623
287.365321225618 1.21682
287.44413814415 0.553193

>collision 10.0
79.0542229046603 0.910584
150.064544485713 0.721998
191.103407308333 41.0981
191.227427559542 0.929633
287.161326667524 100.0
287.313848987243 2.64831
287.365706822645 1.18042
287.475867907785 0.514516

>collision 20.0
58.0662640093365 0.602092
77.0388108475562 0.500677
79.0546609683805 5.76425
109.050529279274 0.621317
134.046011966189 0.774158
150.064862313962 3.51511
164.092906355594 0.592152
174.076728809607 1.89908
191.103625759342 100.0
191.22809167395 2.7401
191.266841329046 1.15678
191.310742085697 0.631987
287.160943110814 11.9574

>collision 40.0
30.0338031651724 0.521567
41.0393177178678 7.92274
42.0354609114178 0.548842
43.0250675496071 1.2682
51.0245823591808 2.5219
55.0251954471676 1.8951
56.0498170507437 2.79981
58.0660933087853 32.011
65.0389005310013 0.725674
67.0546089115685 13.9571
68.0507838698563 0.633262
69.0700971728705 1.40092
77.0390437472916 33.0242
77.1184704416602 0.505364
79.0547818849011 79.847
79.1356199851136 1.62839
79.160006840597 0.781023
80.0261924140923 1.7149
81.043973071967 0.503745
82.0403550815455 2.17674
83.060884954194 1.39583
84.0565720259309 0.520167
92.0248124059297 1.23676
93.043645106725 1.16516
94.0401517369994 1.11787
95.059709873591 2.12296
97.066212462668 1.13213
105.043185928953 1.62351
106.040238010655 0.810938
107.035799034829 8.35064
108.046509227991 6.70595
109.051036119564 29.3047
119.034297427763 5.93426
120.056080626604 3.50135
122.071035962075 5.72338
123.05695817245 1.31481
130.039916231453 0.56331
132.054820334416 3.60139
133.046779381818 3.14809
134.045898083558 64.3086
134.148888590448 1.07852
134.181116195294 0.584898
135.054304037595 1.33935
136.06087059773 5.06463
147.065877491852 5.80749
148.062292516493 1.6972
149.081671890923 14.9045
150.064573131765 100.0
150.174867486304 1.94624
150.206866579255 0.858847
150.248071861724 0.540571
150.301652917169 0.517542
151.072765891245 2.50173
157.050157239689 1.45448
159.053772116362 0.700999
162.074554804889 0.792894
163.072303879547 6.89535
164.092956563911 8.19378
173.07065253566 0.936567
174.076668721768 55.1218
174.19355366458 0.888841
175.071950200694 4.4282
176.080348162074 1.73049
191.102906781347 72.7926
191.225047886837 1.29579
191.265260741933 0.633863

