>compound SC-58125
>formula C17H12F4N2O2S
>parentmass 385.061813007971
>charge 1

>ms1peaks
385.062434567368 100.0
385.209373769707 2.46251
385.293774424735 1.26042
385.431999207601 0.704708
385.532577854623 0.639537
385.592684357936 0.60874
385.736193249679 0.719604
386.059182415329 0.585274

>collision 10.0
306.081275171097 0.689711
365.054793232362 1.83342
385.061813007971 100.0
385.235540922814 1.9657
385.290637306906 1.00396
385.360942064259 0.722694
385.424089992804 0.624125
385.470379797623 0.601656
385.576977776366 0.643031
385.642955376445 0.511659
385.755860489568 0.549073
385.835699014786 0.61448

>collision 20.0
285.061117512996 0.552241
286.070506458225 1.93538
287.076787433511 0.815275
305.068546226378 1.95085
306.075930734912 6.1104
307.083048770041 4.31138
365.054750872126 13.8332
385.061929538522 100.0
385.289578720835 0.94258
385.349391725275 0.753558
385.493523963446 0.610289
385.5899442981 0.551838
385.692656900358 0.531988
385.834695617816 0.56577
386.024199679892 0.514505

>collision 40.0
65.0386750885377 0.998065
74.0985827175974 0.537013
78.9845417270054 6.32222
95.0281369751296 0.539454
97.0090153950281 1.08948
101.040084757299 0.694624
107.02834798238 0.597957
110.021429743762 1.18513
116.046437861273 0.726707
120.036385230668 0.658065
121.043640753876 3.30414
122.040334400706 1.62659
130.064468381591 0.750466
133.038710241903 0.51916
134.04122139725 0.616707
135.04441877869 1.23129
149.055898250318 0.658247
155.017295437671 2.73544
157.026135493036 1.04812
164.031603653827 0.628845
165.039953538817 6.33363
166.04193082596 1.02923
168.013894843661 0.562137
169.010431718834 0.553566
183.058738581617 1.53722
184.036185204854 2.97651
185.038661798241 1.81453
185.074796643597 0.883862
186.039302904266 2.68238
187.04655157182 1.73629
196.048793000439 1.50108
198.077002389091 0.890601
202.051338222562 0.593072
209.065251071644 1.21613
210.066010499973 4.12363
211.076729333779 9.43685
212.080408401619 1.44691
216.934349584397 0.59389
220.02542481111 1.47977
223.063799337686 0.93043
225.090178471041 0.702889
230.046082464572 0.893871
234.063567405017 0.641389
235.062395192517 1.02113
236.073092442786 5.31664
237.081275318395 14.5164
239.051506381213 2.03567
240.061103724282 3.48336
246.05733233616 1.29849
247.070940987556 0.548844
255.074907701039 1.31707
258.06202764819 0.614218
259.05781110243 2.09746
260.057120002707 1.98884
265.055603099204 4.77301
266.062609474781 7.71426
267.071397974458 9.0354
273.063019169603 2.19429
274.06405721177 0.577634
282.060627792533 0.753941
283.065031730917 0.695981
285.062990934994 60.4497
285.289399309394 0.591446
285.563805330677 0.661959
286.069880394925 100.0
286.223717995784 1.62208
286.322004331051 1.18002
286.437050755086 0.709349
286.546062776211 0.519971
286.609629620839 0.694085
286.881606962035 0.854458
287.077976307168 14.4436
287.234496521266 0.520133
287.514218684586 0.744055
290.063836753949 1.25033
291.053752700487 3.11294
301.054210906806 0.658088
304.054286755075 2.19347
305.069328235247 55.4878
305.229106635704 0.869569
305.358710965859 0.57928
305.516134831258 0.567993
305.772332706712 0.512157
306.076685053382 67.9156
306.18357753566 2.09906
306.230192285156 1.66965
306.28629508142 0.777404
306.359033828586 0.782649
307.083748875918 8.64439
345.049710584565 2.04672
365.054972637238 58.3494
365.285003335463 0.865253
365.618480990334 0.732706
365.706749803667 0.603226
365.837721709288 0.590513
385.062267728366 6.65306

