>compound L-NAME 
>formula C7H15N5O4
>parentmass 234.119358414579
>charge 1

>ms1peaks
87.0795918185304 1.6443
188.126307199824 2.48844
234.120096876435 100.0
234.257544706952 1.58723
234.303275655736 0.5448

>collision 10.0
44.0502822074563 5.16891
59.0484747924642 4.57564
60.0564839949391 0.752691
70.0658314975243 8.44398
73.0641081839497 1.71708
86.0716420998483 4.3167
87.0796517906595 100.0
87.1654141236862 0.885089
100.087022972621 1.60811
101.094773366875 5.15697
112.08669686362 19.1036
113.07002928361 0.60902
128.070011129028 0.80839
129.112960568685 10.1957
130.085893284332 5.75935
144.076338525627 0.632233
145.083397763966 0.808279
154.072544246973 1.38702
155.084947792944 0.53704
156.098547721733 0.884222
157.071109048187 2.9074
172.107463675282 9.56858
173.091542200555 4.20284
188.126382210178 67.7685
204.120658032601 1.36629
234.119358414579 51.0609

>collision 20.0
43.0304638910604 0.78285
44.0505532721991 31.9383
58.0654375358661 1.03032
59.0485001333751 34.313
60.0565505858541 0.893283
70.0657625021567 50.5291
71.0502093722265 1.02241
72.0561294486298 2.50164
73.0640898455043 9.17568
86.071501833373 15.1612
87.0794943018385 100.0
87.1651219904097 0.751864
100.086762288046 3.78826
101.047696516246 1.11693
101.094736043661 4.22932
111.078955323018 0.669094
112.086827933134 28.2729
113.069106150646 1.02461
128.070251703309 1.10963
129.112794970945 1.40798
130.086331053989 2.83215
144.077007675641 0.612601
153.064388624036 0.582968
154.07339152419 0.70824
157.072148239811 0.894174
172.107221373178 2.02391
188.126056120091 2.01244

>collision 40.0
41.0397190249243 2.43235
43.0302252335587 14.8712
44.0503832942409 43.6618
56.0412568280988 1.11323
58.0660491850314 1.95739
59.0486248071341 71.2433
59.1184151246911 0.513049
60.0567930840866 1.0656
68.0501947917585 2.88575
69.055222442446 1.16425
70.0657697047745 100.0
70.1427510365688 0.842708
72.0564691610216 1.59054
73.0641549952714 10.3725
83.0600213447903 0.985524
85.0699926963635 0.5874
86.0715797973456 6.6665
87.0791992732129 2.3902
100.086547782176 2.26139
112.086585867996 0.970916

