>compound N,N-Dimethylaniline
>formula C8H11N
>parentmass 122.096214689525
>charge 1

>ms1peaks
107.073090953579 4.4283
122.096377332065 100.0
122.196463081744 5.53367
122.230122536915 2.21708
122.258952832881 1.0456
122.30497760037 0.629932
122.331009686877 0.828413

>collision 10.0
106.06525079779 7.53229
107.072850647078 81.7577
107.167332897767 3.55162
107.197911139431 1.35235
122.096214689525 100.0
122.196815882063 4.86416
122.22952606626 1.78476
122.258825941093 0.714137
122.331105972893 0.557571

>collision 20.0
77.0389631913365 2.02436
79.0544322972135 1.07747
106.064987207521 63.4712
106.159366834863 2.91741
106.188426683859 0.941504
107.07289903613 100.0
107.167008822094 5.02735
107.198185051487 2.08537
107.246278262152 0.57468
107.292740019855 0.672473
122.096386113778 8.56329

>collision 40.0
39.0236067268436 0.891551
51.0238533192986 17.6167
65.0392070602091 6.213
77.0388969820046 100.0
77.1201305454754 4.24375
77.1442643694801 1.55693
78.046706984477 6.26433
79.0548627619836 20.6112
92.0496676273457 1.05861
104.049336444729 0.546657
106.064945423282 89.0353
106.159521142965 3.86909
106.188271843682 1.19889
107.072815019065 3.36384

