>compound Perphenazine
>formula C21H26ClN3OS
>parentmass 404.156815768683
>charge 1

>ms1peaks
171.149137118484 0.686282
403.187571491563 0.778805
404.156895212409 100.0
404.224408907289 2.41569
404.296433843658 1.08198
404.342168797541 1.79605
404.401110604567 0.589241

>collision 10.0
143.117538141115 1.78139
171.148825994677 6.66112
403.18802626461 0.807286
404.156815768683 100.0
404.223685505377 2.43571
404.295432735829 1.05763
404.3417093871 1.86582
404.400407988065 0.594126

>collision 20.0
70.0658896873928 2.93455
84.0816078565996 0.547601
86.0971069935464 0.694441
98.0855552369244 2.05421
100.075851781005 3.29206
113.106582699357 0.697311
128.094951587132 0.526566
143.117702386617 26.7358
171.149097937386 64.7251
171.186221658795 2.01352
171.271467995658 0.658288
239.076568777301 1.54741
246.014402448727 2.92846
274.045845852595 1.21504
403.187164750939 1.05411
404.156496339692 100.0
404.215761356532 3.37602
404.29330784057 0.87805
404.342077540813 1.11304

>collision 40.0
42.0338713007476 2.76531
44.0497279259815 1.08177
45.0338959205881 2.17764
56.0500121180477 4.43267
57.0582116698871 0.59332
58.0656835816898 4.11254
70.0656753713512 64.0496
70.0873027887105 1.91206
70.1075929712765 0.582737
72.0447267570748 0.916918
72.0810507647097 1.43594
74.0603857403323 1.38858
82.0657699580919 1.28228
83.0604639695047 0.51032
84.0812478918299 4.99911
86.0607633118386 0.79064
86.0962853479417 2.82974
88.0756289736412 1.18174
97.0760898614013 4.3673
98.084266222154 37.5393
99.0913392413214 1.08762
100.075836595391 60.0838
100.105323302845 2.35529
112.09890991224 1.47822
113.106725754577 6.5914
125.106559519164 0.754822
126.114861648562 1.15702
128.094378207011 6.27899
141.102200583933 0.979455
141.138064874141 3.05508
143.117549896694 100.0
143.148061598058 3.36019
143.229553201158 0.737693
171.148914686678 36.2778
206.095656606514 0.801554
210.036363265371 0.687249
211.044178434499 3.49766
213.033030077907 0.92933
214.040934558257 12.2127
233.007050534438 1.68922
238.068891163977 0.973569
239.075947156627 7.71717
240.056274683907 0.606721
241.063911938123 0.597436
246.013459501876 16.3678
246.058594752186 0.681479
274.04475177814 0.996166

