>compound 3-Hydroxypicolinic acid
>formula C6H5NO3
>parentmass 140.034331065612
>charge 1

>ms1peaks
94.0284954185758 3.00294
97.9961507441827 0.572396
118.507587573738 0.845719
122.023727692404 22.9129
139.055935998201 0.69017
140.034208338601 100.0

>collision 10.0
51.4785104137916 0.761015
58.9889822938825 2.43081
66.034771839195 1.77368
67.019968954214 1.02405
90.4840365922451 2.34641
94.0292458961592 70.8273
97.9944763057728 3.74683
98.9944973228105 0.842058
112.038704898414 0.691248
122.023487350607 100.0
122.125259300188 0.614555
140.034331065612 22.8988

>collision 20.0
39.0241963430908 3.95094
51.4773285243095 1.45709
53.999060843652 0.828148
58.9885560599712 5.45667
66.0345509393313 15.2712
67.0187487533777 3.75103
78.0348952780772 0.770717
90.484732441508 0.954561
94.0291946384406 100.0
94.0947286089892 0.640879
94.1198057288031 0.565907
112.040004548289 0.58871
122.02381148552 8.64717

>collision 40.0
39.0237682722302 100.0
40.0193645474657 5.19021
43.018745732744 1.89849
50.9727563092191 4.1773
51.0236008190503 2.17514
51.4774811379606 8.99242
51.9701517907695 0.678706
52.0199266335287 6.02538
53.4748403896329 0.690363
53.9983695257213 87.5404
54.0668318349447 0.729057
56.0514712173937 0.611032
56.9641450423412 0.536909
58.9901597201489 1.56603
62.9897917106186 2.30893
64.0196488700114 1.6146
66.0347455793104 78.3349
67.0188371637495 32.8667
75.0092058868112 1.11582
76.01830150309 1.78542
78.0347677160132 9.79893
94.0288251317169 29.8957

