>compound Dopamine
>formula C8H11NO2
>parentmass 154.085976943907
>charge 1

>ms1peaks
91.054070270038 1.4453
119.048523883588 0.9284
137.059407097045 50.4107
154.085976943907 100.0
154.200714662685 0.722237

>collision 10.0
65.0394229333222 0.504078
91.054357892488 9.25574
109.0646250748 0.555663
119.048826038913 6.84289
137.059542984685 100.0
137.168647562387 0.851013
154.085618499485 1.93213

>collision 20.0
65.0392290518404 5.03531
79.0553647031276 1.18
81.0698888803167 1.81431
91.0545312538656 100.0
91.1432614295445 0.538139
109.064819741405 2.72317
119.048951582833 38.5616
137.05925531207 44.0748

>collision 40.0
39.0233235465962 8.83615
41.0389172840039 6.11617
51.0227608392771 2.08177
53.0396543628441 1.14225
55.0181658063267 0.539731
63.023747235676 4.80418
65.0394411856563 100.0
66.0464959312128 0.767124
77.0382126254667 1.52151
79.055234212093 1.24419
89.0394183315335 0.865173
91.0545996647484 67.9776
94.0416981148945 0.901556
119.048479300607 0.834188

