>compound 2-Naphthol
>formula C10H8O
>parentmass 145.064476096638
>charge 1

>ms1peaks
103.000309818044 0.613218
117.069784004672 0.97311
125.985643868578 0.663295
127.054352832214 1.4707
144.058890467281 1.72384
145.064401319904 100.0

>collision 10.0
78.0218617622019 0.520384
84.9590282461018 2.44045
91.0546345074467 2.54092
98.9617835383592 0.545799
103.502294057747 0.977162
103.954073715956 1.56887
104.008001272035 0.912856
115.052648695192 1.88214
117.069066990771 27.4814
127.053750204383 36.9033
144.055073928981 2.05057
145.064476096638 100.0
145.505373193435 0.553162
145.690209804798 0.671388

>collision 20.0
39.0216421908125 0.551539
43.0559095701816 0.550079
77.0398239037638 2.56547
84.9582977411475 2.00325
91.054835119089 13.0979
98.9592916678455 0.502072
115.054165247558 26.5865
116.060846286805 4.40709
117.07018497623 48.1236
117.131484725549 0.669697
127.054131370546 100.0
127.154918843175 0.570455
128.056739264546 0.553916
144.055904282587 1.83439
145.063287330031 17.4901

>collision 40.0
39.0241776593582 4.28111
40.9706357860195 2.54363
41.0368576492903 1.26836
42.9766247247073 1.34851
43.0213404454426 1.05461
44.0501544653487 0.930515
44.9904529665706 1.10633
50.015622578091 2.24849
51.0240227335187 16.7389
56.9438812951991 0.871682
56.9659235763848 1.28859
62.983584574969 5.99671
63.0229077813394 4.99577
65.0391738242989 33.575
74.0153566004566 1.10823
75.0233351532981 13.6382
76.0312810940934 1.07598
77.0391289459226 83.3808
84.9579837640232 1.44652
87.0251409807318 1.47865
89.040079237461 10.5573
91.0544642794294 88.9137
92.1120641399413 0.669946
99.0236501469376 2.88203
99.9323722445904 0.891385
101.039282259035 17.2776
102.046182150495 1.30871
103.924549384039 0.774563
113.03523827823 0.993121
115.054398413277 100.0
115.133800800153 0.870885
115.617307316259 0.77013
116.060918724324 8.44642
117.066693155276 1.83622
125.037556818478 1.20491
126.046481270484 20.8242
127.053997833677 37.9074
128.063684984285 2.40986
144.056910613617 3.2368

