>compound Barbamide
>formula C20H23Cl3N2O2S
>parentmass 461.060725577261
>charge 1

>ms1peaks
134.096175025071 1.62588
219.094241437586 10.9193
242.97351676769 2.46767
461.061321267475 100.0
461.250728572333 2.42332
461.322329223186 1.25106
461.551258719134 0.735906
461.678733246619 0.648306
461.760403346165 0.578397
461.872128964836 0.540682
461.96997407156 0.540552

>collision 10.0
86.0063965301238 1.31376
134.09640240844 16.2755
143.025182602348 0.878797
179.001997464736 2.69215
188.05248541227 3.80891
206.9962818166 4.09067
219.094641385474 100.0
219.225414079866 2.08774
219.269983485349 1.08311
219.314498012778 0.720498
219.434041756536 0.536544
219.52989167099 0.54488
219.571988250493 0.510025
242.973633738867 34.0659
243.112337677434 0.581072
274.016555819538 0.666928
461.060725577261 80.3887
461.249853239531 1.65479
461.317972025606 0.954834
461.379117283514 0.693411
461.503257890294 0.560953
461.719860959605 0.576911

>collision 20.0
86.00639111309 7.76734
91.0550751127566 0.872531
113.015668092332 0.666441
134.096258571271 89.4743
134.201338726588 1.77096
134.232910750937 0.92907
134.300018338214 0.509516
143.025618363269 6.06151
144.033462838051 1.19184
146.975972090486 1.56806
148.991887609786 0.781918
171.020492958696 2.81783
179.00181802806 21.5329
182.951612530731 0.583338
188.05233052906 10.122
206.996821702884 31.7775
219.094414851822 100.0
219.228585579884 1.89856
219.272744874525 0.961612
219.338623463648 0.61252
219.40619004549 0.522256
219.466880955341 0.559161
219.518551282785 0.51782
242.973389139056 98.1503
243.110962055015 1.87274
243.159909612169 0.955389
243.233953924512 0.597335
243.314195350786 0.571401
243.507120212747 0.516486
274.014447803432 0.766329
461.059057817643 2.17098

>collision 40.0
59.0138043294652 3.51996
65.040045757509 1.48113
77.0393580501698 3.0605
79.0549775373065 1.6217
86.0065670436869 17.9706
91.0549735058078 2.52235
101.016087459834 2.03607
105.070160191682 0.675188
108.057142125068 2.94982
109.064552747309 2.38323
110.999580380947 2.82227
112.007215030795 0.673753
113.015512923278 3.7243
118.065085273738 0.53665
119.073125234092 2.71979
128.002587452214 0.515875
129.01040640782 1.70877
134.096365701296 100.0
134.200825051951 1.97453
134.233930062804 1.05055
134.26920074883 0.641468
135.043211925345 0.821802
136.05058625834 1.28981
138.993446037925 1.46273
143.025607556976 45.6118
143.133917446301 0.757598
144.033224640331 11.5575
146.976251390595 5.02206
147.985284968338 1.20462
148.991689954403 3.54786
171.020396659975 9.11964
172.027321960399 0.943431
173.028929146614 0.678291
179.002186738794 68.2816
179.121889129092 1.31174
179.161348456717 0.652741
182.951074694084 1.03869
188.052107374282 12.6189
206.996505891823 22.7693
219.093948805359 0.756761
242.973062865099 5.83773

