>compound Jamaicamide B
>formula C27H37ClN2O4
>parentmass 489.248890546827
>charge 1

>ms1peaks
29.8294357664943 0.586608
48.9541416873359 0.531869
73.3225390151651 0.532639
96.0451988945875 0.55201
98.063158371484 0.794011
111.042202107816 3.36484
111.080715650904 0.634383
117.981455820638 0.534462
120.317809894551 0.500721
126.949042097082 0.502201
128.001982475385 0.534061
128.071167252794 7.84324
128.140480280488 0.532165
194.071337378095 0.56971
202.604796387217 0.50642
208.097287891853 10.179
209.112517687248 0.580824
392.192810518569 7.63092
392.321644912625 0.553117
393.186411808839 0.568555
393.370449919306 0.550715
411.145491232085 1.03689
447.105978982407 0.850288
449.17455481339 0.740299
449.752078723202 0.523195
450.259415814015 0.526151
457.235398156347 0.751027
474.341168531584 0.501151
488.240072423903 6.50432
488.690892410032 1.35257
488.843511275758 0.560943
489.248890546827 100.0
489.497049972856 2.094
489.570148571358 1.30711
489.684655689369 1.90399
489.852129621376 1.35385
490.049466800351 1.38593
490.231394637198 1.26009

>collision 10.0
53.0404516710829 0.808998
79.0225546725164 0.967261
81.0371780673096 1.36532
98.059567266126 3.36272
99.047075539827 1.94805
105.067863413016 3.60747
111.043432017929 47.3921
111.094884955879 1.58218
111.1180492874 0.977586
111.354697069119 0.919077
114.057445190557 1.62815
126.049490689615 0.984515
128.070500200374 84.5916
128.206629357887 1.19437
128.272650001027 0.999152
128.820315994557 0.941018
129.074752230648 3.22171
130.419565034893 0.781619
176.065934607331 0.958896
193.09844052103 1.22917
193.144866019825 0.799622
194.079967516262 1.09655
196.093009231351 2.1704
207.083449592665 0.915897
208.095858112287 100.0
208.200301113961 2.19165
208.265259603778 1.3978
208.435698485969 0.936258
208.549411901082 0.782286
208.600985800552 0.800163
209.011519390444 1.10544
209.08589378534 0.884134
211.102495177667 2.12875
214.980944222661 0.799622
226.128887777026 0.786387
229.0869093652 0.784108
229.149857928685 1.54428
232.058906607156 0.880283
236.122263272647 2.23173
261.160265931093 1.04341
279.071273641372 0.927032
294.15148684407 1.38666
298.057318545528 0.900271
308.117952192185 1.3457
316.181967481991 0.910545
321.070772039066 0.858318
327.07965540677 1.18438
329.719338836955 0.900062
338.222731025213 0.86899
355.190915406823 0.787284
356.202063940577 1.5487
359.137893596547 0.952566
360.175936983531 1.61079
360.230232258596 1.03644
387.144291572399 1.03805
391.182158738631 1.62599
392.197075125097 46.447
392.665712646653 0.859008
393.277354580816 0.917336
393.903343245218 0.858228
401.636447754144 0.981524
408.267324184633 0.984515
449.284680518991 1.97208
457.21629415079 1.24575
470.213640525662 0.931642
470.77270940406 1.08485
471.229201798987 0.923953
488.237933700907 15.8348
488.409494062191 1.04156
488.677016459089 1.70544
488.783324228975 0.864399
488.933062907406 0.799843
489.24915688305 97.5258
489.431236861763 2.10754
489.515024661454 1.96144
489.71182300021 1.46741
489.854865822547 1.67104
489.941826656573 1.2094
490.167817274329 0.977143

>collision 20.0
48.1160144778667 0.624686
85.0632969997884 0.519712
95.0843759871513 0.646415
96.045513172021 2.03151
98.0593196050619 5.64482
98.1092831461587 0.532366
99.0442283562703 6.92698
100.628728691701 0.533502
105.069432087775 3.75717
107.087756169911 0.609613
111.043751416694 100.0
111.139654735929 2.39588
111.170437258325 1.73991
111.205831726267 0.739367
111.236233726104 0.884699
111.280671128673 0.544976
111.378668662664 0.697238
111.454205205776 0.915818
111.558189053466 0.573945
111.646349771371 0.55765
111.901781178273 0.634825
112.040261085938 1.27361
112.069999917347 0.623091
114.055679953528 3.27569
119.061594158485 0.768353
126.054302180014 1.32093
127.052931290291 0.945628
128.070499112479 81.014
128.17758540359 1.45753
128.203644245156 0.571274
128.244752735878 0.925509
128.285400886821 0.678783
128.391396715592 0.699566
128.425033189686 0.684586
128.68498271354 0.697289
128.814900822953 0.595726
137.917181926707 0.613002
144.095653657218 0.678325
145.101625756268 0.57337
159.116564781213 0.786096
166.08942495297 0.557168
181.066083931009 0.526757
183.113299935162 1.02848
187.131426012171 0.659041
196.09819216876 2.2795
207.093743210494 0.850733
208.095363833955 37.8728
208.176365783893 1.40687
208.353153003061 0.839094
208.992697413152 0.588067
211.122074039073 1.14871
216.068352048839 0.729539
219.100065673209 0.522269
227.14194624984 0.523528
228.135597747858 0.508421
229.155170575577 1.25475
237.131547174735 0.850566
237.559545020241 0.543618
268.720076167084 0.939141
277.118592596685 0.937866
286.083842424105 0.758941
296.061894931486 0.507793
358.207314448685 0.809636
360.163881594464 1.47059
360.224378115905 0.522005
367.095592754868 0.985803
374.20400674747 0.519628
376.162332524724 0.853549
392.195198723589 5.95823
393.369009108945 0.570731
453.235770358499 1.10474
488.229247169695 1.06492
489.231604705369 2.12962
489.346670968228 2.43099

>collision 40.0
27.0244208158308 0.835163
39.0263466802647 0.572239
41.0381777733116 2.28873
42.0100165879819 0.992708
53.0451123515473 0.688732
55.0194313898098 1.05213
55.0574982831755 1.01551
65.0398070049918 1.91093
68.027708833143 0.827535
76.0196602687263 0.703766
83.050752635781 10.2809
91.0610803461802 0.631735
96.0444121163166 3.00072
98.0592065834584 4.18641
99.0448577906812 17.1413
105.069344072825 4.52269
111.043959740358 100.0
111.139699385137 2.34697
111.163122410048 0.873561
111.189015476191 0.664506
111.246292714419 0.533598
111.279963007009 0.77261
111.378731409959 0.923617
111.463775621944 1.04002
111.538805634803 0.666236
111.617613612761 0.566733
111.822479699152 0.695105
112.04997971195 1.8432
112.080254069188 0.584134
114.054577280224 3.04155
115.054066457494 1.43655
117.066075439687 0.745081
126.047818905847 1.47921
126.081873637908 0.695979
128.070852634501 76.825
128.166253370841 1.37367
128.208173837142 0.663237
128.266832177063 0.768589
128.291186080431 0.759511
128.343340170427 1.3911
128.408446908262 0.66483
128.764406051093 0.550871
129.072274408027 0.729706
144.084051214491 0.667519
145.097354246499 1.35004
147.11904707907 0.631626
161.093963193929 0.623026
183.109075925895 0.747102
231.073942320846 0.806761
302.697932327898 0.792139
365.751539661798 0.607171
480.034300483228 0.53953

