>compound Jamaicamide A
>formula C27H36BrClN2O4
>parentmass 567.160890527169
>charge 1

>ms1peaks
41.1728989799984 0.560755
47.1603681017829 0.591217
111.043536382649 1.20934
128.071802659603 3.03435
208.098527635664 4.66415
470.103874957532 3.39274
566.174084237624 2.96954
566.26965638067 1.09557
566.329337091725 1.0943
566.69392859522 0.86927
567.161007924741 100.0
567.456188383544 1.90263
567.516001657586 1.77214
567.646815635766 1.03249
567.702275553507 1.12944
567.811586808804 1.10469
567.963324679867 1.18871
568.038012941303 0.897922

>collision 10.0
83.0491953085468 0.682101
98.0622922142088 0.746973
99.0433106010944 0.810436
111.044928680069 24.1235
111.124250511026 0.543391
128.071126502981 51.4002
128.174794143232 0.841496
128.319891365456 0.601463
193.09605566769 0.648344
196.092513573759 0.643128
208.097748958207 80.8069
208.235397610509 1.07637
208.278769812271 1.00549
208.312413484706 0.924423
208.430017807604 1.239
208.614213476573 0.767884
208.807083313789 0.517116
209.101391593908 0.924893
236.1249260118 0.50891
246.120135504563 0.572678
434.128809946041 1.28294
438.080318599907 1.19528
469.08644160683 0.572757
470.108880363773 43.9681
470.301043471901 1.47768
470.354850415157 0.934219
470.410355367055 0.630352
470.592591049522 0.592327
470.837747897719 0.840653
471.032228600794 0.516412
535.136834148807 2.05807
566.165453561412 2.58843
566.34724753955 1.10008
566.710095521773 1.09261
567.160890527169 100.0
567.502678440602 1.44462
567.595598503082 1.14619
567.673398422167 0.747811
567.812388119741 1.01685
567.964427784393 0.882804
568.152929040636 1.03093

>collision 20.0
53.0408916673908 0.502758
59.0145722239728 0.656257
96.0467694969554 0.547672
98.0609742247381 2.03161
99.0460544261066 5.03947
111.044746863725 90.0382
111.140797451985 1.64614
111.169388202385 0.862866
111.227199485778 0.555028
112.049042678104 0.656849
126.056117345665 1.34788
128.071237210936 100.0
128.172432690141 1.59917
128.246521478075 0.729191
128.2972397692 0.519358
128.420862507057 0.625532
128.555513608533 0.514504
182.084047370168 0.685435
193.096043700525 1.39081
196.09472662899 1.14233
208.097369690446 64.2535
208.226430100904 1.24964
208.29540780046 0.561263
208.333944267423 0.625143
208.424638060581 0.513105
208.711119291007 0.522495
209.10171688198 0.872603
434.127333873239 0.759276
438.081007032417 2.18693
470.109294485742 12.9267
567.170373071487 2.23185

>collision 40.0
59.0136450429414 1.0317
68.0272972648317 1.52179
83.0501411309014 4.62013
96.0446105236647 3.00663
98.060887280708 4.08513
99.045213420081 14.3451
111.044985645488 100.0
111.138275287216 1.77831
111.168554479403 0.982165
111.192212361102 0.72112
111.299300367554 0.609642
126.055414530458 0.92982
128.071149299137 79.1683
128.173481762937 1.25756
128.203169365395 0.679131
128.244177765444 0.585375
208.097089210368 0.548549

