>compound L-Homocysteic acid
>formula C4H9NO5S
>parentmass 184.025887972197
>charge 1

>ms1peaks
56.0500529417344 1.90271
138.020948500479 4.86386
183.042609951319 1.44129
184.026400049874 100.0
184.149753430807 0.656239

>collision 10.0
56.0498785277386 76.4536
89.028455161767 0.585177
120.010346565911 2.12133
138.020897831993 100.0
138.127546945888 0.620321
166.015535308182 0.704765
183.041672323774 0.514477
184.025887972197 61.3139

>collision 20.0
56.049847292246 100.0
56.1185053681362 0.581967
120.010494873642 1.98687
138.021246248334 5.40087

>collision 40.0
28.0174698767315 1.37103
56.0498782786979 100.0
56.1180089545016 0.511067
74.0255876708181 0.598569

