>compound trans,trans-Farnesol
>formula C15H26O
>parentmass 223.206882718784
>charge 1

>ms1peaks
55.0573512652907 0.61882
67.0550123036985 0.597207
69.0697998953248 1.28812
71.0518394722978 0.562278
81.0720325458588 6.35264
82.0768064707854 0.521341
83.0855669068052 0.655082
93.0699137808153 0.530899
95.0874280736335 9.43321
99.0829177025186 4.69718
107.087897361916 1.30972
109.102745835176 12.1626
110.103243711919 0.564219
111.116429840121 1.26387
119.082690302968 0.529996
121.103438404237 3.40192
123.119090712318 3.55666
125.132725005446 0.884935
127.112160205872 0.536406
135.118433828751 5.48648
137.133202675608 1.26171
139.112122277458 0.712168
149.134858451297 15.1378
163.150207646968 2.07375
205.19715849389 54.3468
222.198895548359 0.534742
223.133102459469 18.6422
223.206882718784 100.0
223.337540055791 1.68773
223.547412875998 0.572206
223.71318958509 0.588469
223.75261172822 0.649361
223.836375015331 0.557672
224.123522468472 0.517118

>collision 10.0
41.0402684732235 1.35531
43.0181324814029 1.82969
43.0555914174834 4.55024
44.0610860497769 0.646577
53.0357645446675 0.998002
55.0550975459586 4.73765
56.0592905034407 0.572806
57.0704456729173 7.85071
59.050353948422 0.73056
67.0534622097948 7.63415
69.0701373021622 26.0876
69.1479666796427 0.547721
71.0500595908436 1.41197
71.083465233542 1.92725
72.0520393665008 0.780191
73.063739818691 2.69096
77.0426533707229 1.96381
79.0547929590021 8.27419
80.0542464280163 0.500982
81.0704168291852 46.5757
81.1497988493517 1.04286
82.0738415693588 1.66628
83.0868851321532 7.67274
85.0648497320554 0.625551
85.1052617924479 0.612169
91.0563606891187 1.10143
93.0695449989085 17.4422
94.071827006496 1.29734
95.0857164853663 58.8492
95.2081487560379 0.524726
96.0889082564886 1.62496
97.0637924208574 0.787408
97.1008449128956 8.33981
98.0684992589459 0.601364
98.1035288172646 0.939483
99.0813764679554 8.38535
103.931174404233 0.522708
105.070190922567 2.17949
106.074575343985 2.07636
107.085578314238 29.1836
108.088223102636 1.15097
109.101017765707 66.8862
109.193945806453 0.850295
109.237557199753 0.638884
109.287823490762 0.527616
109.492935637643 0.521663
109.923948786407 0.79237
109.954229976705 0.65438
110.104827228419 2.47097
111.116647444892 18.1626
113.096900362723 3.89795
119.085495605497 1.92019
120.090920731264 1.92072
121.100149189366 41.4637
121.198169371625 0.646676
121.523367148109 0.524351
122.105210559165 1.87388
123.116499649336 39.2618
123.215399329787 0.644564
124.117882548585 0.968594
125.114854753663 4.46169
127.111764461329 1.19842
129.122100417982 1.22699
129.152884016122 0.562646
133.103912355621 0.979291
134.101219824583 0.77298
135.117176029165 41.4054
135.350242407588 0.565053
136.117192924857 0.870328
137.128218951567 8.65289
139.112128186026 7.00093
140.108673213381 0.704875
141.123306475147 1.05312
147.115419534892 3.37428
148.119043164246 1.77089
149.022446608332 3.36474
149.132265298495 83.4484
149.244208038039 1.19667
149.27259855924 0.818498
150.135611229017 1.40113
150.214280060798 0.623704
151.142776248373 2.34094
153.128361828743 3.01751
154.127448459131 0.633109
163.148104759542 9.60297
164.149891116676 0.604501
165.157513886067 2.9344
165.356321266814 0.52569
167.145893672434 0.694407
177.053862614981 0.674006
177.161487166475 1.62956
179.171753604874 0.666089
187.142059679364 0.929617
193.114733911838 0.511267
203.177149428869 1.01743
204.18338185855 1.71086
205.193486516502 100.0
205.318609374043 1.64514
205.360080792083 1.00531
205.392132588578 0.608672
205.461850081111 0.514756
205.553184181115 0.654429
205.596989894767 0.705836
205.657325390975 0.793009
205.950804354187 0.637613
223.130600599499 20.9483
223.202521399976 50.421
223.33743848107 0.953399
223.40949172403 0.790807
223.593333417071 0.574851
223.838740259881 0.593929
223.947331308711 0.6569
224.128476247147 0.600667

>collision 20.0
39.0212406957056 0.705213
41.0396367512894 12.5097
42.0408137493708 0.542944
43.0185700557168 2.32593
43.0548976214546 22.8988
44.0179952251101 0.548549
44.0569644239904 2.37807
53.0366134504877 0.899698
55.0177287997736 0.654072
55.0551140777184 36.6375
55.1109963356183 0.835567
56.0587354575747 1.87716
57.0323487795963 1.25218
57.0710956671791 16.1227
59.0482863806372 1.51697
65.0390217865092 2.1262
66.0497235897506 0.770677
67.055237076396 37.7593
67.1295550934055 0.791671
68.0602586336514 1.7354
69.036400397354 1.68861
69.0705954497286 82.7943
69.1445491910436 0.979765
69.171348265064 0.536074
69.664620908187 0.547194
70.0699051252609 1.20154
71.0508993464528 3.29012
71.0836560174943 3.08956
73.0646334787357 1.83173
77.0407257296036 4.44121
79.0544221969746 19.2548
80.0576081306168 0.993838
81.070261787036 100.0
81.1505328223954 1.92663
81.177352910888 0.682752
81.2322082619597 0.749644
82.0754366407239 3.95859
83.014457453565 0.533546
83.0454101249523 1.72463
83.0849842913415 14.7953
84.0864276015167 1.09442
85.0645721340506 1.77209
85.0939835555666 0.672029
91.0542771879395 12.1577
92.0596384683653 1.46557
93.0704698246812 64.212
93.1570046765528 1.34103
94.0744897619397 2.65753
95.0860928299395 79.6496
95.1741147072438 1.24676
95.2172270134678 0.759513
95.245220967251 0.588279
96.08899678664 3.02995
97.0654382451775 3.67811
97.1004328473527 10.6713
98.1020699096445 1.48846
99.0789683496456 8.17743
105.071097322502 5.50315
106.078370189562 3.37229
107.085531836555 60.7678
107.178204083513 1.08454
108.091113532319 2.81592
108.856723076806 0.573658
109.100226995953 53.3987
109.193528643272 0.726948
109.943186324128 0.542494
110.103899834785 2.39264
111.081344069864 0.866978
111.116186971209 4.77597
113.102332064331 1.44126
119.083612821532 4.8869
120.092894366791 2.15121
121.10103067235 43.7833
121.197142061806 0.953944
122.104586028479 1.66875
123.117133581963 23.22
124.122873499511 0.636269
125.096334863351 1.92536
125.123985543885 1.83631
127.108902755474 1.36207
133.102525450624 0.774248
134.101503002183 1.29686
135.117302185532 27.3707
135.217092887107 0.720563
136.12004900171 1.52375
137.12854172613 3.98113
139.110335421401 1.71845
141.116800242587 0.612433
145.1015170354 0.587828
147.118220657122 3.65615
148.121217200023 1.13123
149.022139943525 3.25099
149.132259080101 49.354
149.242528262513 0.854653
149.41548942274 0.54781
150.136938023611 0.739105
153.123458112194 1.72285
162.139037659002 1.17185
163.148607262773 6.4439
164.154821133608 0.667523
179.168831490197 1.0609
205.195075244457 6.40688
207.035443800526 0.521189
223.205544020969 10.1208

>collision 40.0
29.0386219462477 1.999
39.0240496529518 4.52275
40.0317817035702 1.40113
41.0403393707062 86.9626
41.098683743179 1.4602
41.1172185785395 0.910175
42.0442874852211 3.48417
43.0195315903737 6.95168
43.0562112257529 22.7961
44.0571761075831 1.05151
45.0332002893215 2.14121
51.022787183717 2.50587
53.0398897588932 15.2251
54.0453521929964 0.733632
55.0190313333004 3.45317
55.0558529505896 100.0
55.1224455097506 1.99113
55.2299125327122 0.638387
56.0586911985024 4.65315
57.0314156037593 0.894576
57.0721585088523 8.23875
59.051205042162 1.71997
62.9855521463773 1.39742
65.0394492397633 10.6267
66.048512723274 3.25539
67.0553489626381 70.147
67.1307753188158 2.06494
67.1500428228882 1.33407
68.0590457559492 1.89947
69.0368517793967 0.628361
69.0716993940812 51.0183
69.1447140395858 1.26749
69.3165942178091 0.740765
70.0725467701352 1.63782
73.0661026790968 1.55776
77.0398478786726 69.8464
77.1193273795824 1.01195
78.0442898339091 6.08474
79.0552065047344 90.7611
79.1312830685802 1.69962
79.1677411515912 1.72639
80.059787790913 8.8771
81.0710736489009 89.3051
81.1530901433441 1.68477
81.425232878753 0.639138
81.4760060601057 0.957253
82.0722136390686 7.31289
83.0848370756482 3.29609
91.0556917630526 73.175
91.1483320295558 1.46165
91.4364952727437 0.758292
92.059698588268 3.91041
93.0702567839545 50.5313
93.1327614621536 0.831842
93.1596470535063 0.660299
94.0756984067677 1.95524
95.0871226168444 21.5078
96.0561190181308 0.723468
96.084788690978 0.831712
97.0574501760242 0.754287
103.056212576643 3.07929
104.062549325356 0.974551
105.070763830046 26.4969
105.167665654593 0.6704
106.076983414599 4.80327
107.08747148854 22.0625
108.087433944431 2.06213
109.101214168451 6.47692
117.068680440747 1.8274
118.073887062322 1.13099
119.086710491696 4.66324
120.10162445898 1.01252
121.100581613659 3.34801
123.11649519757 3.06903
124.08899565766 0.627838
124.119085529145 0.760642
131.087068490665 0.659933
135.113547774491 2.55151
149.136541003348 1.47786
175.1327214704 0.659746

