>compound N-Methyl-D-aspartic acid
>formula C5H9NO4
>parentmass 148.059428639153
>charge 1

>ms1peaks
88.0385871463287 7.2013
102.053887089543 3.3798
130.048013664058 0.634504
148.058519905492 100.0
148.169663124179 3.54795
148.20497684445 1.30477
148.344784358789 0.508808

>collision 10.0
42.0346872411825 8.36965
60.0451553581506 0.892814
84.0444325698648 8.51943
88.0395061630709 100.0
88.1256093485176 2.52125
88.1516866830803 1.18148
102.054760418907 36.373
102.146813324289 0.735702
130.048717904311 1.25597
148.059428639153 23.1496

>collision 20.0
42.0347991490629 83.8584
42.0945350605572 1.92674
42.1121109578181 0.876305
58.0657295820545 1.83715
60.0449680361246 9.65244
70.0290867470576 2.65443
84.0446569323974 19.4538
88.0396921607803 100.0
88.1258567827924 2.18325
88.1511120440513 1.03135
88.1796673571248 0.51757
102.054897253757 15.2957

>collision 40.0
32.049570078813 0.608261
42.0342932021725 100.0
42.0938642704313 2.26044
42.1115239501468 0.992786
43.0184482130604 1.07149
43.0418651299134 1.81558
44.0498003579763 2.32068
44.9974496150542 0.621934
56.0497016086327 2.04183
57.057311490022 1.85351
58.0650427781018 1.97072
60.0443652162747 9.07498
70.0280885778346 0.893104
84.0434913391056 1.22237

