>compound Neolinustatin
>formula C17H29NO11
>parentmass 446.165029669635
>charge 1

>ms1peaks
419.16055711916 0.517074
446.172854942941 100.0
475.17285494294 1.0e-13

>collision 10.0
419.153019612721 2.1672
446.165029669635 100.0
475.16502966963 1.0e-13

>collision 20.0
347.098651331316 3.22317
374.109210722045 2.11827
419.156925647866 19.4501
446.169334627557 100.0
475.16933462756 1.0e-13

>collision 40.0
61.0290273747923 0.509577
69.0347006950075 0.777639
81.0352110468043 0.548023
85.0285652715519 3.00632
95.0109722133637 0.715612
95.0457532907094 0.938542
97.0273870920774 1.11941
112.014367276651 0.643173
113.022465041496 0.552321
127.04052331445 0.794833
169.045928659919 0.805995
185.044566759726 1.72813
201.034807374667 0.949264
203.054283223828 4.88099
245.067441939868 0.717651
257.099346797857 1.97206
259.081665661934 4.33784
284.114237857371 0.537774
287.078847833056 0.529159
329.090877193803 0.724521
331.100656066864 0.914382
347.096952284124 42.8637
347.257805203153 0.652435
349.112528396248 0.83738
374.109694675447 3.89602
419.155325060191 100.0
420.158044917958 0.610657
446.166315857487 10.0257
475.16631585749 1.0e-13

