>compound Normetanephrine
>formula C9H13NO3
>charge 1
>parentmass 166.084452760787
>ionization [M+H-H2O]+

>ms1peaks
106.060051359208 0.542965
121.06218733288 0.514935
134.0599546546 1.12471
144.488022365116 1.96671
144.986738080851 5.20592
145.487534942272 0.586893
149.058467419265 0.857973
166.084452760787 100.0
183.495534147816 1.4652
183.992398241634 1.38779
184.095035842892 6.22948

>collision 10.0
79.053829893777 0.64456
97.9689970798247 0.623554
105.480682821171 2.39051
105.979657621199 4.80823
106.063571800023 7.40051
106.480186267893 0.531515
107.048479944518 0.710758
121.06323414741 7.81336
123.043201018932 0.748637
134.057977588023 14.9096
135.065192270449 0.532618
137.05899212863 0.790239
137.474334882102 0.870422
144.488477902879 1.86062
144.986859232899 2.70424
148.073505913238 0.83693
149.057863219767 17.8035
151.060378369608 0.759812
166.084508268622 100.0

>collision 20.0
46.9936843631339 0.557975
60.0440575827019 1.10946
62.017885094384 4.56166
62.988433590495 0.510752
65.0373027409211 0.726595
70.0289301427466 0.838156
70.9569868823288 0.684742
77.0375358144987 9.64496
78.0451976018479 1.66895
79.0532816897811 26.1138
80.0483288809889 0.951783
89.0381370561528 0.764836
90.9511675431808 0.538513
91.0530092201106 11.4135
93.0688300138036 1.23219
94.062412918217 0.684595
95.0484816828312 4.17428
97.466317445542 1.03395
97.9693565613377 6.78963
98.469074575597 2.87667
105.056983676965 0.551814
105.481066267435 4.78082
105.980026546653 5.84852
106.063666298225 69.6028
107.047473714645 7.34573
116.047953345528 7.01739
116.909217783096 1.28306
117.055019164149 1.54224
119.046422216818 1.26385
121.063297619439 79.0326
122.059606774125 1.19224
123.046794433224 4.26412
124.048665658824 2.63512
132.949680217431 0.504693
133.049878721645 2.7925
134.05843280112 100.0
134.917695354973 2.4614
135.066235559753 7.40156
137.057480286026 5.21958
139.076049059729 0.732694
148.073877146917 1.93519
149.057918716344 30.2284
149.942186064738 1.7048
151.061332597685 9.73006
166.084474922589 20.8582

>collision 40.0
39.022293258168 2.42177
42.0336666847948 0.922203
43.017682210292 0.570091
43.0403840636206 1.56187
45.9861538517991 0.662696
46.9944196811395 3.02615
51.022418934952 7.35438
51.4755583257992 0.627388
52.0300043165319 1.47902
53.0376326098818 2.56413
54.9369103172131 2.89501
55.017538252977 1.20737
56.9426990081885 0.896855
61.0115076241794 0.540988
62.0172961211012 4.23724
62.9889743570582 3.38813
63.022334635385 1.21363
65.0381597091302 19.8946
66.0468896789446 3.17996
67.0422911055614 8.06683
68.0482149776842 0.917023
69.0566665390807 0.576263
70.9573976573007 3.85802
71.9402474345756 1.30917
72.9375619463377 3.50838
77.037682689492 100.0
78.0448946840571 23.7211
79.0157219740234 0.528042
79.0534715983276 90.3578
80.0487285571754 9.54195
81.0329759062001 3.81984
89.0379173523638 7.0245
89.9527436711808 0.731175
90.045362304198 1.04035
91.0530770626905 21.9713
92.0488718132813 1.61188
94.0574139304318 8.60025
95.048851813754 3.57039
96.0479700408741 0.757316
97.4655366266878 0.735962
102.926710455875 0.640559
104.046983116377 4.03018
105.04404341978 2.00639
106.063564408642 23.3917
107.047149511226 11.8883
108.052917183546 1.05882
109.02794140781 2.94085
115.911373675427 0.695805
116.047909686376 6.00129
116.906966722018 1.90519
117.055715057494 3.07561
117.921023976923 0.786107
118.064994045115 2.33208
120.044089728706 2.66273
121.061951066719 6.15358
122.041414422494 3.08611
123.042337338708 1.30248
124.050117450789 1.16115
132.950370900134 0.717518
133.05141836674 1.0372
134.057504398825 15.7907
135.066916573761 1.88151
136.033510939784 0.568126
137.057951502217 2.87065
139.337567903199 1.09971
150.056409898185 0.52296
151.057657636702 1.23997

