>compound Melamine
>formula C3H6N6
>parentmass 127.071727298249
>charge 1

>ms1peaks
85.0521985273492 1.28629
127.073799195936 100.0

>collision 10.0
43.0297375706415 1.17157
60.0558298708723 1.11738
68.024497180952 1.80728
85.0508489187422 17.577
110.0450338374 0.63882
127.071727298249 100.0

>collision 20.0
43.0303971558022 24.812
60.0564216430124 6.71681
68.0254403061333 27.4392
68.0991092793218 0.53296
85.0516415982467 100.0
110.046611167384 3.29414
127.072707165685 44.2638
127.173682632186 0.679308

>collision 40.0
41.0124623220616 0.720827
43.0300697855801 65.4625
43.0894035047803 1.00815
60.0568017462137 1.97221
68.0247370649604 100.0
68.0987887346327 1.80121
85.0509958119792 6.63321

