>compound Salannin
>formula C34H44O9
>parentmass 597.3024859665
>charge 1

>ms1peaks
147.078551976044 0.575411
163.075916764424 0.513204
273.146728806675 0.501271
419.219433929328 1.7836
437.22869023314 0.772578
479.239758050444 0.753978
565.274924076983 1.46854
579.291019494883 0.62603
597.3024859665 100.0
598.304435344639 5.1497

>collision 10.0
83.049480649764 1.47912
133.101128078006 0.73868
145.063594154658 0.99888
147.079637129193 10.0391
149.09455096323 1.00305
157.100419313924 1.09871
159.080091515691 1.92664
159.111619351486 1.20824
161.09383577959 2.70992
163.074540079984 8.48484
169.098433931936 0.572194
171.116412623966 1.4681
173.098356631151 1.31169
175.075261302662 1.30897
183.116756617412 3.2606
185.13076903965 1.30585
189.090483032283 0.907438
197.118891434309 0.533703
199.110742977141 0.884502
201.110249504498 0.522476
211.11289206568 1.07356
213.126439279928 1.84353
217.12260824706 0.650054
227.104633839681 0.501967
229.120022206893 1.20099
231.137805602974 1.55918
233.151133122036 1.40195
241.122028839545 3.01652
243.13673164393 2.91845
245.152486895279 8.50899
255.137036397603 3.80915
257.148361827499 1.1127
259.133141913854 2.00218
261.148892398636 0.772374
263.162067846558 2.5203
273.147453745197 6.9192
275.160642630726 0.799826
277.150472864002 0.55039
289.146059840623 1.73872
291.157977299379 4.18059
305.172302855705 0.692753
315.163404423688 1.70124
317.182802681379 0.661248
327.172596590811 1.38002
331.190979274091 0.64881
333.175317642604 1.44238
341.187309026143 1.66939
345.182996291286 1.92581
359.195590327021 1.48129
369.188064635404 1.22446
375.194980655816 1.15845
377.204981423234 0.501122
379.199805898451 0.901584
387.194645539823 4.53101
389.2103986169 2.33319
391.224940864504 3.19176
393.238547614181 0.606877
401.208872559339 6.2446
405.20454932415 2.14505
407.218632644632 4.79567
409.237511150285 0.911656
419.220240428723 23.5993
420.226182484935 1.25195
437.22921413975 12.2381
451.245439780135 0.596616
461.232461348729 1.33021
465.223218734377 1.2717
479.240720984628 8.22326
480.243764205031 0.619642
497.250232806462 5.82322
519.270987694765 2.40836
537.284368916916 1.13114
565.2767340789 17.5602
566.274796500748 0.936961
579.293136280762 7.325
597.303153068116 100.0

>collision 20.0
55.017711178989 3.73421
55.055856738746 4.87238
69.0354652369723 1.80497
77.047371655548 0.587465
79.0538909875176 0.796302
81.0326936518439 1.48246
81.0702794240474 0.995873
83.0504057784742 30.3311
83.1198492929922 0.628717
85.0335407927555 0.584102
91.0521140210542 1.47576
93.0695250023901 1.99673
95.0143468290243 0.685104
95.0489649176379 3.04368
95.0845541383914 3.55379
101.058054197948 0.743484
104.059407731608 0.637879
105.070679228166 1.25052
107.050554081397 4.51769
107.080861843076 2.30052
109.063701735262 0.970782
109.09487142594 0.730496
113.060302017923 1.03872
115.04615667236 2.54111
117.072468036526 2.80513
119.084896575538 5.84643
121.063011865793 2.71158
121.102014095706 3.8087
123.084143988578 0.982538
129.069951348059 3.13463
131.083818828112 3.3876
132.058594889624 0.515299
133.100375816998 10.0701
135.079785015915 5.2149
141.070218452771 1.43693
143.086340539157 2.95102
145.068167516781 10.4683
146.065811432265 0.731187
147.081177699285 100.0
147.181032337251 1.67928
147.235201795154 0.764449
147.327259158469 0.752111
147.549446633203 0.523284
148.078351125582 2.07515
149.097492933351 6.28033
151.071836609561 0.603096
153.084611643621 0.898547
154.080569036927 0.542072
155.088431822393 2.93139
156.095119214843 0.932009
157.102746317758 12.8549
158.062718673178 0.541525
158.105913415606 0.524011
159.086978472091 32.0193
161.096694879622 36.6058
161.206771278143 0.644906
161.487307135225 0.549985
163.075503088937 72.266
163.185540601945 1.16809
163.229997098173 0.508298
163.279473862563 0.619446
164.079328047698 0.528164
165.090992651384 1.21518
167.099829545349 1.2065
169.103245928413 5.61132
170.104219057917 0.641295
171.116894365659 30.8703
171.540355622543 0.5313
173.097368052096 23.8188
174.087398123464 0.602314
175.076882625825 27.0974
177.092158229553 2.30361
179.111942288973 2.50546
181.090446021438 2.10722
182.094349012433 0.818188
183.116957253355 28.8464
184.12707627241 1.20822
185.131854598755 31.4864
186.134392771406 1.63909
187.105579112703 9.9352
189.107821973702 6.26424
191.104698632394 2.65236
193.124376302018 2.0361
195.118402675158 5.03531
196.110642903506 0.795428
197.123159222995 7.21703
198.089916828142 0.920487
199.112709195806 18.6227
200.118197791982 3.42597
201.102338277681 10.836
203.116375654379 6.23287
205.122986671735 3.83275
207.126513940348 3.08224
209.129775529513 3.7947
211.114362444883 6.9759
213.126547275502 34.8552
213.248895941729 0.663585
214.13208028774 1.637
215.119194824137 8.22258
217.121934764514 5.67736
219.135025282649 2.463
220.147109944515 0.906088
221.127004363225 3.50996
223.11989340505 5.20216
224.11416854341 0.502368
225.127999019173 5.2614
226.126892491501 1.18562
227.110734285157 4.61985
229.123288678656 10.2282
231.13870657209 19.4192
232.095563127995 0.516121
233.151225932313 17.5579
235.127696241788 2.48876
237.125207324532 3.38874
237.161141772934 2.02632
238.127394705189 0.596752
239.112874608946 3.55709
241.123536647606 24.7056
242.128745861396 1.46928
243.139501366851 13.0942
244.15002171998 0.705867
245.15373348914 56.4111
245.29472900235 0.929193
245.335206889085 0.531421
245.397349914662 0.523991
245.660145255382 0.7615
245.714063891555 0.72084
246.108728357721 0.685375
246.156430218072 1.10895
246.846837084387 0.542438
247.144459752766 6.37154
249.137004177142 2.50645
251.137534194128 1.73519
253.121854435875 1.99373
255.138656525399 22.58
256.145640378591 1.0094
257.146634403173 8.32698
258.137881218477 1.55724
259.134836184314 27.1627
260.157997399334 0.991386
261.145832665985 7.90452
263.163023918214 21.289
263.303032411375 0.657686
264.16883870673 2.00668
265.153028520769 2.4754
267.133703414812 1.51243
268.133485350651 0.523863
269.154599640781 1.49707
271.136433889129 3.63565
273.150382783928 58.2048
273.281038819643 0.799988
273.335715621924 0.654737
273.465237552644 0.593367
274.154722053797 2.15504
275.155399867548 7.08728
277.155013745722 3.66622
279.13974896923 2.487
281.150415678646 1.94995
283.143891166185 1.98222
284.133004146655 0.522061
285.148386764381 2.13811
287.146575254541 3.12327
288.141613188317 0.594429
289.148948711181 6.46874
291.160310721697 16.2482
293.126318871676 1.30097
295.154909260982 2.17977
297.152218413702 2.89774
298.149742092997 1.13078
299.164690264901 3.32998
300.153620590418 0.878144
301.160748593311 3.88524
303.166699649424 2.51714
305.166311280206 3.30964
307.152303387391 1.19951
309.17201322123 1.99126
311.168904409078 3.21606
312.174625265272 0.796825
313.184936247806 2.1505
315.173042018035 14.1066
316.178478969121 0.702073
317.189840182912 9.66785
319.193669023528 2.75534
321.176719108299 1.30036
323.195422341155 1.34722
325.161503571314 1.5842
326.170647915208 0.849052
327.174903708687 18.1381
328.177989128292 3.19694
329.184739860038 6.69732
330.197657977897 1.04242
331.198914717633 5.79687
333.188300095111 7.77236
335.193088764451 2.23874
336.137433107852 0.701335
337.147635548661 1.8227
339.175954259806 2.25607
340.152776966328 0.609613
341.187816439522 16.006
342.184297163553 1.47059
343.182617345138 2.43314
344.182901295773 1.15513
345.186787652477 18.195
346.194028280413 2.99304
347.190410158631 4.0474
349.197136728373 2.50287
351.192298247785 2.9801
354.147242434534 1.04865
355.166190012928 0.797067
357.183207148561 12.5672
358.189568707463 1.32087
359.201885738382 26.4964
360.196371991542 0.920171
361.181156978061 6.26145
363.201715312931 5.21151
367.174835096149 0.684598
369.186812885922 14.1366
370.174342486452 0.709991
373.054053750798 0.509281
373.205377448479 1.15732
375.195868191353 7.61495
377.21289480103 7.4255
379.211731877675 5.43858
380.191936640436 1.22843
387.196823389046 37.9567
388.203114713275 1.42567
389.209720492321 20.3149
390.218553864279 1.4839
391.229061165559 19.6781
392.231241559584 1.2304
393.244707505927 2.10605
395.20628529424 0.850835
401.213648948642 39.8188
402.213053886798 1.39374
405.207309335912 13.3041
407.224309490796 17.8227
408.227419142059 1.48654
409.237909304404 3.4051
411.219522696987 0.568672
419.22278527336 98.3102
419.530798141962 0.858236
419.619035607103 0.541706
419.722444087274 0.632088
419.945426899882 0.79435
420.010419994645 0.543697
420.226698223949 2.97213
421.198263594791 0.509988
423.209028174328 2.01457
429.206100139275 1.10625
433.222818742972 0.728468
436.216245912845 0.567436
437.234766840444 34.6995
438.242719957532 2.22334
438.891283707393 0.550432
447.225348964152 3.3625
451.24089260997 1.19458
455.247496304965 0.787454
461.226879164003 5.84923
462.242589997869 0.548563
465.225710568162 18.2065
465.855080044538 0.500504
466.248899651654 0.523126
469.23971352308 1.10401
479.246127128281 22.2642
480.250548407512 1.44427
483.228534196442 2.21225
487.25250291149 1.28446
497.259906844414 12.7131
498.240721759901 0.549517
501.264371925789 1.32729
505.256910303471 0.823214
519.279638731159 5.77238
520.269204832035 0.558866
537.282519201354 0.967043
547.255293931726 0.501449
561.288881320802 2.00098
565.284287565897 48.7822
565.520172763918 0.524232
565.933296940132 0.586535
566.015480570612 0.611294
566.281356959331 2.62144
579.295219838816 17.926
580.302631648413 0.797724
597.305900933961 15.7396
597.458476022477 0.77096
597.530452320467 0.559623
598.299572577628 1.52761

>collision 40.0
43.0177715758633 7.69982
43.0511803980087 1.41442
53.0417188999312 0.816393
55.0178433714281 19.5246
55.0548959486852 41.8523
55.1210865268675 0.896262
55.5779954307865 0.660733
57.0330968292568 0.655225
65.0392899676698 1.80843
67.0531003632816 1.68021
69.0340351640533 4.23833
69.0710412283029 2.36433
77.038801098498 3.19953
79.0544430845357 8.06775
81.0329647101916 5.7981
81.0675012718453 2.24308
83.0488767440141 61.5808
83.1281691043584 1.10732
83.1807867074897 0.513717
85.0645243608621 1.94648
91.0537538611758 14.3417
93.0686859388947 10.3467
95.0116130210347 2.07107
95.0492674731908 9.30066
95.0838790466031 7.87093
97.06225017635 3.64303
103.052217385794 1.15616
105.068419329049 12.7782
107.048307160411 7.2578
107.08488054445 10.9025
109.06399406062 5.53854
109.097111738009 3.49454
111.044008245422 1.54076
111.078663496116 1.09622
113.053480526063 0.633675
115.055755332408 5.87378
116.061525247804 1.36545
117.068169163464 16.5436
119.084219581293 28.3534
121.062553665947 7.15562
121.099107898081 9.61451
123.086897213188 1.37584
125.094386284145 0.676639
127.051898894175 2.57085
128.060092823372 3.70878
129.069635649364 17.8891
131.04655912491 1.1197
131.084505007315 17.0205
132.052614895116 1.12832
133.09879447934 25.1091
135.079872101981 7.88094
137.087794170599 0.874695
141.067807724995 5.02434
142.073721158351 2.10732
143.083590327037 15.3994
144.056045225844 0.708422
144.086504067891 1.06614
145.064221168899 26.0181
145.097005990775 22.0885
147.079590765559 100.0
147.187234581246 1.62163
147.281351245663 0.571557
147.335537514179 0.532383
147.401537755818 0.56226
147.673789356502 0.784512
148.08034122446 1.27654
148.123614312796 0.740297
149.096606566866 13.7315
153.070695690739 0.939416
154.081170332773 1.99996
155.085783011795 7.40906
156.092369412982 7.63704
157.100495731342 38.221
157.212386564735 0.579656
157.392190655167 0.532306
158.093579600685 1.87398
159.078991834192 50.2184
159.111557266806 40.9605
159.231818757472 0.853041
159.281036967283 0.514892
160.070779484062 0.740895
160.118436355276 0.572703
161.09581748852 42.7469
161.209986714136 0.688627
163.074365642455 75.0739
163.185639717243 1.18571
163.226128346019 0.906675
164.079956696819 0.917111
165.077378546877 1.92708
167.089577802589 1.57344
169.10036917726 21.874
170.106329865957 4.28627
171.115944879329 73.0698
171.234439182588 1.19289
171.286512095524 0.537656
171.846276870843 0.624882
172.098918310697 2.59131
173.096352657928 32.372
173.240532418724 0.522841
174.112084312819 1.25644
175.074468807694 17.2335
175.105144448043 12.349
177.090840792271 1.53159
177.120305864617 0.991146
179.100556105261 5.04018
180.106965209077 0.718658
181.09744456637 4.49869
182.05938773296 0.551413
182.109659891159 2.39496
183.11504471947 47.2184
183.226269008249 0.569373
184.111193168347 2.0095
185.128832803478 63.7266
185.247197568602 1.15648
185.410710001078 0.716952
186.119419676567 2.00903
187.10694294526 17.3196
189.087784586822 4.38061
189.124333024086 5.603
191.101158738857 2.65944
192.087831066842 0.966226
193.10659706723 2.3309
194.081376414729 0.781043
195.114404723834 15.7504
196.113472686038 2.03243
197.123965483494 21.8018
198.102314094082 3.386
199.110277104118 29.4381
199.232307872032 0.561314
200.114569280211 3.22722
201.091083630436 16.5446
201.122241931065 14.8387
203.104137249465 4.44587
203.137135412912 4.73536
205.12154251976 6.08887
206.105798563792 1.11855
207.113823574827 6.53214
208.078931654196 0.628419
208.124590129522 0.895847
209.120967340991 7.15613
210.103846027904 1.75755
211.11298544696 11.1815
212.117797374343 1.21026
213.126520887911 44.9509
213.256692622941 0.708227
213.827744751114 0.516694
214.128598408735 1.69747
215.115512116527 5.13417
216.114926792297 0.913672
217.118983531452 4.34924
218.102081957305 1.33055
219.117998627615 3.15468
220.124441933195 0.64744
221.13183674407 5.87145
221.210939067727 0.60644
222.134656588774 0.540348
223.115200548335 11.6901
224.073785721875 0.559438
224.119953352429 1.03186
225.115159482155 7.09008
226.097899998042 1.70475
227.108075550125 5.18089
229.121790637601 7.43554
231.132420896098 11.2768
232.123679635369 3.26877
233.139057185677 8.08219
234.138182804975 2.14867
235.13071592422 7.64447
236.145643962104 1.01026
237.127425120864 7.70695
238.105947485603 0.550419
239.110090598603 5.46622
241.12005500999 13.2002
242.128314283889 2.9311
243.133846436249 7.21059
244.130123775957 1.56847
245.150841874666 15.8125
246.131056914657 1.63178
247.134038551731 5.54995
248.141129536952 1.10053
249.138514903873 5.49819
250.139294855909 1.42152
251.140278664381 5.84068
252.139061776199 0.60644
253.105739484988 2.2286
255.135904625377 8.74374
256.128083616211 0.991019
257.138417899593 5.74605
258.130911162197 2.57855
259.136069573918 19.5327
260.127838610954 2.27831
261.134728458616 6.41543
262.13319448027 2.09765
263.149393990663 5.12824
264.14221633399 0.62107
265.141878844721 2.9357
267.129134236754 2.02738
268.116540824765 1.49491
269.137189845577 2.53273
270.130318361995 1.32517
271.143623764994 5.68281
272.145470911058 2.55648
273.149673475504 14.049
274.14155477326 2.71226
275.142583999088 5.47223
276.139719708505 1.60522
277.147913462435 2.20107
278.159888831487 1.89036
279.144067716905 2.34157
281.149212420412 0.779599
282.118411230364 1.3228
283.145578285144 4.92603
284.150511259796 4.18061
285.140380293411 3.9621
286.134102963716 4.37204
287.146320258491 8.17413
288.150823525272 2.40441
289.158213817818 5.00608
290.161974509582 1.22385
291.156022960063 3.48106
293.146413683018 1.67497
294.145038968531 2.03856
295.144928852587 1.50613
296.144695787717 1.17493
297.133526678384 4.514
298.133733562223 1.84233
298.215249805936 0.508732
299.153903366849 4.94331
300.149064214925 3.13046
301.160416604638 7.92521
302.163919538532 2.88528
303.162124257941 4.44849
304.129636733288 1.21976
305.175637563635 3.11668
306.152605863377 1.26898
307.124215170475 0.62107
307.178016141094 0.758222
308.152955826091 0.670856
309.156500078909 2.51333
310.143895935815 0.999678
311.149335990057 4.89898
312.148257990432 6.55405
313.16194731808 5.24739
314.164033055385 2.95657
315.172436523495 13.9392
316.167079236212 1.84254
317.185688461836 9.39926
318.187829441313 0.972247
319.16426791571 2.59683
321.156610875035 0.708612
323.186994470311 0.983751
324.149376556382 0.679397
325.167166960056 2.06169
326.162733182621 4.69925
327.172430610057 16.9453
327.299280212755 0.814079
328.18039304974 4.77456
329.180288165076 6.83914
330.160640524828 1.88013
331.199200479226 5.90672
333.176662598184 2.57521
335.18576818179 1.7161
337.17359935675 0.922249
339.146130138844 1.7545
340.145230836733 1.07826
341.188483824113 12.9047
341.289483017585 0.670034
342.163836572605 1.65545
343.169372311945 1.67174
344.177610869028 3.31121
345.17984738491 12.7704
346.18194000692 1.63967
347.193544601247 2.46399
351.179597695504 1.6003
353.163981508003 0.522799
354.160189048315 3.03365
355.174273338588 0.687868
357.181559686572 4.29356
359.20022500625 11.3443
361.17618227437 0.678019
361.209911137022 0.525046
362.165678285424 0.536019
363.192304086519 1.06611
369.180741629587 3.69837
370.19214393419 0.528995
372.164272830318 0.679688
373.199663900725 0.976723
374.184531197711 0.532536
375.185878652215 0.833556
376.19884009432 1.16804
377.208771744313 2.43627
387.189891055419 6.58702
389.213674887646 1.44906
391.218668303402 1.7117
401.209033965911 7.71287
402.211922506241 1.0338
405.196839620297 1.45413
409.209825279627 0.568762
419.218625484875 3.48279
465.215646290308 0.888621
479.228674878129 0.553935
497.26158839533 0.566571

