>compound Mitragynine
>formula C23H30N2O4
>parentmass 399.227341883017
>charge 1

>ms1peaks
399.23283240405 100.0

>collision 10.0
174.090208248793 1.86639
226.142850017964 2.04859
238.142663955939 1.87456
367.199484129224 0.785093
399.227341883017 100.0

>collision 20.0
110.09614616314 3.76499
129.054523770068 1.69466
159.06735217717 0.979839
166.085677018015 0.534821
168.101211308374 1.54103
171.100797257347 0.566254
174.091010618468 20.7062
188.105952080794 0.653972
194.116728807747 1.18425
200.106418426674 1.80427
202.121903487953 0.918408
226.143482699942 19.3764
238.143422391002 17.7902
255.148733216466 0.582162
270.111337238948 0.649375
283.179614332037 0.595236
326.174050335395 0.770927
328.153315815009 1.29298
335.17422969701 0.592762
367.200386289104 4.40539
399.227975961908 100.0

>collision 40.0
42.0354128506971 0.942433
44.0510265734198 1.27002
56.0509747766298 6.76258
75.0453945801081 11.6253
79.0554943785741 1.19686
84.0818097832665 3.25473
85.0292635919299 0.806556
91.0550280885295 1.42964
93.069721279735 1.06086
95.0507334740821 2.04907
105.070466973947 0.809438
108.08146354111 2.3568
110.097330011733 26.408
115.054722648295 2.09218
117.069406961031 5.96301
118.065664180785 2.34423
122.09700119861 2.45617
123.080701827179 1.17014
127.055323486757 1.69116
129.056558080813 12.3335
130.065834562957 2.2291
131.0739519249 3.04402
132.080654649419 0.955576
138.05669984872 1.18504
139.076202505429 3.11825
143.073964015238 4.36826
144.081473626575 9.43197
146.096956450052 4.22257
147.074837808209 0.776798
148.079147098417 0.811415
152.072050237098 2.69113
154.123524259591 1.05148
158.066408542356 0.779073
159.06881701256 29.2926
160.075842911697 3.56009
162.091888379653 1.46326
166.086830881451 1.36583
168.101818943376 3.89009
171.099413719978 1.61429
173.084833379961 1.22148
174.093002818715 100.0
178.123150978742 0.800048
180.101067053971 1.4472
182.116377785748 1.47501
184.076955855454 1.38864
185.083842868097 2.70482
186.092132466092 2.1576
188.107720464078 1.90257
194.117776786106 1.40553
198.092465809841 1.11537
199.098854725712 1.43243
200.108398823642 5.99941
202.123682026295 0.983709
206.117839846772 1.64218
210.092274938595 2.9129
212.108742952286 1.33049
224.11168581619 1.25573
226.144896749936 5.30066
236.108072297103 1.48856
238.144008094942 6.75429
255.150788008661 1.5474
264.127049295834 0.8346
266.139365152334 0.91471
278.151720953643 0.900734
367.201927410677 0.911259

