>compound Imperatorin
>formula C16H14O4
>parentmass 271.095976039344
>charge 1

>ms1peaks
69.0704512861201 2.48333
147.042962033408 0.702209
203.033136322864 46.2709
271.095976039344 100.0

>collision 10.0
41.0398797381564 1.23946
69.0710104977135 12.369
147.044752817585 1.7425
175.039074553045 0.773207
203.035649752831 100.0
215.033974908275 1.24126
229.050384442507 0.649733
271.098143916798 4.03218

>collision 20.0
41.0396244242916 4.14486
69.0703186464236 11.5973
91.0538507057987 0.639778
129.032456952307 0.530781
131.048181626611 3.22063
147.042783634036 13.4836
157.027230291578 1.57604
159.042341082356 2.32376
175.037798872577 8.06111
185.021773962761 2.32732
202.024418265363 0.569809
203.032971943435 100.0
215.031714510101 1.12628

>collision 40.0
41.0401184849295 6.77783
65.0397530693719 4.07773
69.0712225707008 2.85382
75.0241988315752 1.29731
77.0395564813885 5.42961
89.0390768023134 0.683897
90.0472193381475 0.666877
91.0553600655168 19.2616
101.039861153097 2.13951
102.047080040015 0.524127
103.054925855645 3.84172
105.034826233905 0.607196
119.050448298225 2.19069
129.034283441849 12.8176
131.04979268365 12.8785
147.045148683259 100.0
157.029122668802 4.82705
159.04472774612 1.39699
174.031099869878 1.49874
175.040030652934 5.86699
185.024320890367 0.703405
203.03531445635 5.24793

