>compound Psoralen
>formula C11H6O3
>parentmass 187.038680831471
>charge 1

>ms1peaks
115.053584966775 0.876924
131.048255377224 1.38058
143.048052575793 0.622124
187.038680831471 100.0

>collision 10.0
77.0396846421202 0.71717
115.055002949082 4.81635
131.049938927315 6.61576
143.05041860191 5.40021
159.044969205238 0.854865
187.041172576269 100.0

>collision 20.0
51.0237710868619 0.559179
77.0387125551477 5.26289
89.0387921160342 1.02502
103.053287201962 2.82213
115.053393376805 65.6466
131.048021892911 100.0
143.047879902458 29.9249
159.042683310664 5.59011
187.037514007626 64.3268

>collision 40.0
51.0235081307999 8.15404
63.0233887768673 1.94157
65.0389923392055 5.16447
75.0229443417341 0.535062
77.0389770391346 100.0
89.0386183716059 11.5794
101.038088158157 0.625517
102.046284314415 7.67268
103.053974132951 21.3521
114.045726026047 0.540472
115.05364485631 22.5616
131.04842012282 65.7299

