>compound Glaucine
>formula C21H25NO4
>parentmass 356.184904376871
>charge 1

>ms1peaks
294.126033096121 2.35189
310.120948249703 1.24652
325.144935850629 5.16863
356.188502123018 100.0

>collision 10.0
279.099926741507 1.36334
294.124000088265 34.3756
295.101330921735 1.68559
310.118651478838 19.2826
313.14085007086 0.883531
325.142503608582 66.7523
326.144408276035 0.50626
356.184904376871 100.0

>collision 20.0
44.050747807751 1.09835
236.084244365251 0.831252
251.107525067476 1.74229
263.10478815647 0.602227
267.10282411824 0.514064
279.102635132606 8.71163
281.115419770693 0.635007
282.125464887599 0.697098
293.119156958415 0.838973
294.128047234786 100.0
295.100911880049 10.9779
296.104912712244 0.963078
310.122517730468 54.0306
313.144303973117 0.954483
325.145841110468 43.9929
356.186991470744 4.30449

>collision 40.0
44.0502551293027 4.79743
165.068967363689 2.58508
178.076350074713 3.07467
179.084462726722 2.21663
181.066585488481 1.77819
189.068710070336 3.31252
190.076118395951 3.33538
191.084363573369 12.0881
192.090207640637 1.60484
193.083206310718 1.31982
194.071564381237 2.08144
195.079027168898 2.29124
196.087230466844 1.55063
201.068673764221 1.30829
202.076784779397 2.66645
203.083733398833 4.42857
205.074740655713 2.03017
206.07103626513 2.72824
207.07889678107 10.3106
208.086847386219 10.5186
209.090529487512 3.15828
217.063720173634 2.32733
218.070865074498 3.89015
219.078913231903 16.6314
220.086512154125 22.9769
221.093532743406 8.33243
222.079750586081 1.38746
223.109896680026 14.5982
224.081823255155 7.02526
225.090057578022 1.01223
231.076613464819 0.973441
232.0856920002 1.23744
233.094174496983 12.1258
234.073318742268 3.57669
235.074166047707 15.8549
236.081773945 47.1016
237.088459753983 5.73206
238.088959552647 1.36999
239.105270342677 11.3988
247.073484044103 5.09483
248.081918482975 5.67937
249.089165174886 11.5022
250.096678501587 7.93935
251.105189545579 63.6131
252.077484260616 7.24228
253.091671246676 0.93914
261.088634753501 3.29648
262.090114227281 1.5073
263.098739029397 8.72868
264.078667038308 7.0529
265.088463782368 1.86382
266.090832315591 1.88181
267.099899595252 22.9702
277.084067316901 7.7497
278.091624559008 3.83445
279.100428596876 100.0
280.078051146918 3.43575
281.102745014899 2.49881
282.123585174957 1.34206
293.114086597623 1.40785
294.123396259765 43.122
295.095195878268 86.1664
310.117950265685 10.7904
325.139789791534 1.07032

