>compound o-Methyldopamine (3-methoxytyramine)
>formula C9H13NO2
>parentmass 168.101485802169
>charge 1

>ms1peaks
90.0061708432017 1.47972
91.054386379816 1.75272
119.049064044725 1.42799
121.500897883036 1.33666
129.012296098492 22.891
129.513604033065 0.964761
151.075094940556 67.5727
151.231380499781 1.4232
168.019224523356 30.242
168.101485802169 100.0
168.178083163215 1.16164
168.265999841471 2.91464
168.519711896947 1.26986

>collision 10.0
82.4945858127725 2.23119
90.0063474866698 13.7533
90.506944594397 0.604096
91.0549244493 8.16936
95.0497948489386 1.90127
119.049305078584 8.54014
121.501381181794 9.76667
122.002620413329 0.519826
129.012733778513 19.19
129.513464639193 0.822519
136.051784963967 1.05497
151.075465710215 100.0
151.23165152839 3.31388
168.101639082299 1.29614

>collision 20.0
61.0116591101162 0.593198
62.9904099126545 0.505072
65.0401068023883 5.40869
73.9762614620945 0.643659
74.479469805906 1.80569
74.983610445262 2.75375
77.0398048507648 2.60891
79.054808562595 1.34979
80.0633270523944 1.36735
81.9911467320468 6.91053
82.4951348086246 40.3671
82.6102088193092 0.968222
82.9952959856181 1.20901
90.0068593899687 53.747
90.1250091807405 1.19594
90.5071766511112 1.93919
91.0553717639975 100.0
91.1761897093523 2.48019
95.0504342102987 7.57956
103.05521051152 0.529831
105.070333121627 0.822711
107.049216076118 0.669732
108.057179667317 1.51402
119.049781725943 54.0821
119.188691710711 0.756279
121.501727188375 2.26767
123.081392914554 0.861836
136.052559119672 10.9286
151.075971590738 51.2178
151.23199985132 0.771223

>collision 40.0
39.0237350737327 6.55104
41.0394951802862 4.80114
42.9843734643764 1.26649
44.9806199929784 1.46321
46.9956751647356 3.98907
51.01383838184 3.14742
52.0313311584963 0.797297
55.0190329324699 0.676556
57.9892754729294 0.660383
61.0112411162108 1.19675
62.9906945940637 11.4349
63.023445326184 2.98113
65.0392803245994 100.0
65.1419999599297 2.08853
66.0055392700061 0.766647
66.9676764943234 3.79757
73.9753441899179 8.37742
74.4791852963011 22.9182
74.5887048933074 0.66424
74.9826203489061 12.5809
77.0392103972789 14.4172
78.0135850934372 1.18652
78.0443621085785 0.545622
79.054630537928 25.5672
80.062813694884 2.82491
81.9908434546176 21.96
82.103235573134 0.695125
82.4945376684382 10.7164
84.9597144043593 5.15859
85.9668612588458 1.57564
86.9750291739569 1.51233
89.0388799018271 2.66199
90.0464391149784 2.69915
91.0546058384181 98.0267
91.1758415902 1.96757
100.990419369579 0.787356
101.998401817245 3.27295
102.969580545191 4.56028
107.0490264513 7.29456
108.056863531161 1.57502
118.041630876326 0.78627
119.049700635804 1.43734
135.042981479776 0.579305
136.051641257461 1.48764

