>compound Mangiferin
>formula C19H18O11
>parentmass 423.093396493166
>charge 1

>ms1peaks
226.952550334854 0.680726
273.037079554853 3.48407
303.050989727761 4.53148
327.049942286131 1.96653
357.057629774562 4.28593
369.057037620515 2.88914
376.883607613546 2.12323
387.073751053405 1.83546
388.130480137554 0.538391
405.080799777002 7.36425
423.090844709883 100.0
423.266636054382 1.47904
423.331931004368 0.699985
423.409984289832 0.510059
423.47309839676 0.969805
423.515677767148 0.96965
423.564306829053 0.815235
423.817507362605 0.57071
423.906543138028 0.649456
424.090193738188 0.941854

>collision 10.0
261.038585477001 3.05112
273.041193930879 51.2831
285.04606725487 7.64031
299.024271658744 3.84303
299.065983145025 2.68513
303.050216673221 100.0
303.647276024512 2.90801
308.897855288983 3.23913
313.08044868043 6.39964
327.051201841245 68.0434
339.050725206185 4.3424
351.05033629476 14.1529
357.062021837512 38.8408
369.061482409977 47.4147
370.062217995768 2.10333
376.895141050037 4.95263
387.074014849683 44.3719
405.0835781854 90.6679
405.273342424642 2.25716
405.833419667228 1.99675
406.093560905989 4.16477
408.263762652027 2.30208
423.093396493166 88.605

>collision 20.0
85.0312096804794 1.43057
158.964924309059 1.31561
212.046205574219 1.90727
222.904691787529 3.2713
240.922893774301 1.90453
257.046877310034 2.46994
261.040775317706 1.82751
273.038254695386 100.0
285.045049927461 7.505
285.545053968395 1.66418
287.153056762887 1.27729
297.040237793183 1.81305
299.049068102898 22.2972
303.049030585439 93.0117
304.050088550911 1.34275
312.870687933083 2.08458
313.069373354479 6.79661
323.052327287294 4.47256
327.050080711816 46.4573
339.048519812619 20.0992
341.064660156215 3.42793
351.050735315128 15.8513
357.062430176876 12.1436
369.060028826189 22.9065
387.06766455602 18.4341
405.071304459556 4.4724
423.083335503082 1.34754
423.258554310211 1.57888

>collision 40.0
43.0217179515168 1.65865
45.0345245510157 3.4523
55.0187224079813 5.31354
57.0339641003544 3.70042
68.9995253951008 1.5641
73.0263535062454 2.42513
109.03295802437 6.76469
115.054851102385 4.69456
122.57653808052 2.23626
153.015992991452 1.81868
165.059293403559 1.82051
169.027838420597 2.7293
171.037148535413 1.62778
183.052037088028 2.19403
187.028399991132 1.97087
201.048496446636 2.60309
205.047990214391 1.65865
211.053663797258 2.96703
213.012843373172 3.4812
219.037603008679 2.70414
222.899367213322 2.4431
225.060264798119 3.88472
229.04642278778 3.76922
231.069092444594 2.38514
243.032060090822 2.30996
243.079575878229 2.66317
245.029298058288 6.11654
249.050145607491 2.23599
253.052009675964 1.66153
257.046022522198 37.8852
258.047263845828 2.00068
260.034755174559 8.51921
261.044028049906 3.0772
265.043371802591 2.40769
267.060483940573 2.54779
271.061508834394 15.1292
273.040100192443 100.0
274.0406277298 4.84257
277.05290343636 1.66826
281.041973646709 2.96153
283.050705133958 3.68809
285.039273651993 11.7962
287.047341556444 3.25739
295.061111822502 6.43968
297.042975020734 2.67132
298.050398462206 3.00856
299.05712666547 26.7234
303.051978337739 40.6598
307.071232727699 1.54711
310.055132848274 3.18186
311.050328945233 3.21233
313.065237507592 7.73502
321.03897880965 1.66666
323.056521611837 3.97046
334.036242171039 1.57852
339.052328861983 15.0787
341.05624448143 2.61871
351.053228751882 5.92943

