>compound Echinacoside
>formula C35H46O20
>parentmass 809.246397544694
>charge 1

>ms1peaks
809.237635457044 100.0
810.237869811511 2.06795
839.23786981151 1.0e-13

>collision 10.0
809.246397544694 100.0
810.246424975382 2.24403
839.24642497538 1.0e-13

>collision 20.0
809.237502075114 100.0
810.239483154787 2.28103
839.23948315479 1.0e-13

>collision 40.0
647.192483872692 0.862715
663.186123456037 5.65466
809.24671073271 100.0
810.245848942357 2.32798
839.24584894236 1.0e-13

