>compound Honokiol
>formula C18H18O2
>parentmass 267.14046471337
>charge 1

>ms1peaks
81.0732221373847 1.73184
175.060631422254 1.25287
197.063282251141 1.52871
211.078361689163 1.99195
225.096726464973 3.5546
226.102682859238 13.5846
239.108026199816 1.80745
267.000556580145 0.980059
267.14046471337 100.0
268.137409175064 0.954844

>collision 10.0
57.066747185851 1.20549
98.9852644291687 2.22814
165.069686316319 2.19283
193.06363444306 1.25612
197.060767627562 7.72366
198.994614679341 1.44013
199.070751249436 5.98092
211.071841413998 8.2364
225.090519698841 19.0773
226.098682349585 100.0
226.227879057243 1.74503
227.108024917361 2.19502
238.09938330374 2.10802
239.106434995105 15.7497
249.112860208724 2.4338
252.083318088362 1.27497
265.1114041992 1.96647
267.135807385828 47.6565
267.466283001111 1.11445

>collision 20.0
130.078208349187 2.63948
133.065073650175 3.8866
165.067836346898 5.41166
179.087731779396 2.06629
181.060302265473 3.65271
183.111058344975 6.20084
185.058030898768 2.3273
193.069570071945 9.94662
197.060165314776 35.7258
198.059093579158 5.95218
199.074421308307 6.43502
207.077100486254 7.85147
208.079381655379 4.02932
209.095673842059 8.51303
210.069596373496 2.90378
211.077351933573 32.4807
224.0811886579 4.71068
225.091837667911 12.4371
226.099288388439 100.0
226.350146684732 2.69299
238.099613093026 10.4959
239.107344783421 15.0394
265.125785390764 4.24751

>collision 40.0
65.0396053174398 8.23345
77.0336906781915 4.83763
98.9852279764633 11.7067
105.070704585512 6.01426
115.05167519947 11.9349
116.051759538189 5.90894
127.05473860569 11.2216
129.066512834989 15.2324
131.045638912272 5.19682
133.060914679934 7.61217
141.065447314893 22.6904
142.073650005495 9.7692
143.091272036105 4.95362
144.065247054628 8.48731
151.055558620044 5.91788
152.061837006205 13.0376
153.076207746433 21.6273
155.050805007904 5.91603
155.085112626897 7.17929
157.071063527141 9.94853
165.068886756948 100.0
166.077820961267 12.4592
167.092508545583 5.05661
168.052151105361 7.04242
169.062796271086 15.2682
169.093787165302 10.9525
178.080377441203 24.1972
179.085378587277 15.1304
181.064858724653 38.9782
182.075617817075 11.6066
183.077364010306 43.5454
189.070587857923 7.73127
190.065855701139 7.04242
191.081042236256 10.4791
193.066270431884 24.4515
194.077161542636 18.4232
197.06076206757 92.0229
207.081412695325 22.3946
210.065298237044 13.2616
211.072871380022 22.473
218.081611809385 6.18043
225.088921698099 6.3102
236.070134525659 5.5496

