>compound Lariciresinol
>formula C20H24O6
>parentmass 383.148106304785
>charge 1

>ms1peaks
383.149279316573 100.0
412.14927931657 1.0e-13

>collision 10.0
383.148106304785 100.0
412.14810630479 1.0e-13

>collision 20.0
340.047703418717 1.40797
383.150069919216 100.0
383.369297383741 2.81124
383.898201644978 1.43001
412.89820164498 1.0e-13

