>compound Topotecan
>formula C23H23N3O5
>parentmass 422.169578438215
>charge 1

>ms1peaks
46.0661463369019 2.13931
377.112744435403 4.35371
422.172286138297 100.0

>collision 10.0
46.0659083127788 32.6985
348.070639293281 0.701893
349.117183405144 0.50738
377.111495526759 64.6838
378.113403949632 1.38432
422.169578438215 100.0

>collision 20.0
46.0659200363724 38.1343
248.091236225755 0.534739
276.087429804733 0.751476
305.125833911117 1.4152
320.103998614378 2.17124
333.120997770658 2.0086
348.072252402014 3.82787
349.116001302243 2.83374
377.111058629845 100.0
378.113917419752 1.30772
422.167508861985 3.37296

>collision 40.0
46.0663552802895 100.0
46.1268228432145 2.05082
57.0349384135388 1.41524
181.073428019086 0.576659
182.081352000767 0.784792
192.077349177377 0.634652
193.084269355438 0.951315
205.077476228339 2.30077
206.092144004282 1.92988
217.079396929308 0.961649
218.084785079921 3.27591
219.092250986942 10.4746
220.100124915882 12.2237
221.104909066603 1.03563
231.09044858685 0.711172
233.085469530736 0.709665
234.095744059429 4.43825
246.079996495748 7.01304
247.087891213005 13.0088
248.09519674657 34.6619
248.234389363273 0.566807
249.105113674758 5.92014
262.112418326739 0.907441
263.08828128471 0.642648
264.08992289899 1.54917
274.074564963808 17.8757
275.082577710653 8.07875
276.09010106033 40.5902
277.123090180336 4.74966
278.109309879457 0.911426
288.089681845262 0.819942
289.096701892898 1.91551
290.105022982364 4.75493
291.103649791511 5.50937
292.105280695921 14.1458
293.11514970173 0.723083
302.069571374735 14.9937
303.09828466375 2.88096
304.086393601655 14.0163
305.129193265063 43.9321
306.11255924118 1.90015
316.078435586751 0.648302
318.104843921376 0.943161
319.096311844457 0.678463
320.094819314708 52.2971
321.117146057717 2.18176
331.108925047017 3.13845
333.123058448462 13.0499
348.075692395906 48.465
348.231189149997 0.769334
349.117729508128 14.5254
377.114578373418 31.6147

