>compound ADMA
>formula C8H18N4O2
>parentmass 203.149747105604
>charge 1

>ms1peaks
46.0666005437344 0.771185
70.066658002757 0.529679
88.0882093256166 0.577783
116.070982805479 0.603643
203.150808810245 100.0
203.327603298279 2.79977

>collision 10.0
46.0659579554883 10.9068
70.0657229657113 6.84813
71.0605047765468 1.31106
72.0812682238595 0.680916
88.087457534602 8.16998
115.086884460336 0.685101
116.07041880857 10.2585
133.096362001793 0.688596
158.124692186004 7.01968
203.149747105604 100.0
203.327578341008 2.2479

>collision 20.0
46.066221332193 50.8525
46.1493112665408 1.05217
70.0659113670085 100.0
70.1690895138586 1.91201
71.0606988035177 23.3356
72.0817639367686 6.37626
88.087488080646 39.3544
88.2066434142544 0.553488
97.0769924775795 0.718294
112.087170667984 2.47804
115.086540219603 2.92492
116.070787537278 29.0488
133.096049123467 0.545594
158.128506375943 24.5243
203.149709567517 12.367

>collision 40.0
42.0348207943053 1.00771
43.0551235506489 4.79192
44.0510452787231 2.07013
46.0664343761543 26.0024
46.1492839069596 0.518261
55.0302015671328 1.24408
55.055254248947 0.583716
56.0382501123196 1.2052
57.0458990375601 0.562723
58.0544366361052 0.545877
68.0508780368464 1.12708
70.0662225505404 100.0
70.1691104138017 2.4849
71.0611622461285 35.7347
71.1686329839917 0.506177
72.0805085915831 3.2734
88.0876886435707 3.18369

