>compound 5-Aminopentanoic acid
>formula C5H11NO2
>parentmass 118.086391648462
>charge 1

>ms1peaks
55.0546073394696 1.32977
56.0499248316492 1.21609
83.0489286635735 1.00227
100.075070229599 6.01906
101.059113915401 17.7091
118.083834542336 100.0
118.184692505476 4.84612
118.215133512273 1.93135
118.24678324071 0.804187
118.2904786678 0.593345
118.316665913633 0.747695

>collision 10.0
43.0187686205742 3.04267
44.0501515406251 1.23627
55.0551951407897 56.2011
55.1228296463093 1.51798
55.1438087821781 0.567317
56.0503786727862 43.5649
56.1190598396484 0.969211
57.0342181788413 1.0612
59.0498956557506 13.2122
72.0815588967516 2.76495
82.0657142677228 3.61222
83.049659834267 25.3735
83.1327641559433 0.529515
100.076013349303 36.1825
100.167703497621 0.718099
101.060231270711 100.0
101.151768883142 3.09864
101.18032841258 1.25475
101.25035027934 0.506812
101.273161210783 0.503802
118.086391648462 19.6425

>collision 20.0
29.0386872008561 1.02006
31.0179929459224 1.41912
39.023550886528 1.23961
41.0394589052154 2.70219
43.0188502884297 4.57683
44.0502269332141 2.7977
45.0344921397365 1.15279
53.0396477360824 1.30017
55.0185349639666 0.560715
55.0552111286324 100.0
55.1230765018338 3.01518
55.1439960323346 1.20842
56.0503906730199 50.7645
56.119157630797 1.20674
56.1392751004119 0.539597
57.0342079292855 2.57911
59.0499953956313 27.4566
59.1205600757784 0.555075
72.0813447328189 3.86443
82.0655719964316 0.938695
83.0495853631363 7.84171
100.076095820842 1.67727
101.060171260932 5.94729

>collision 40.0
27.0227426858736 1.16762
28.0181548314184 2.25691
29.012610974002 0.607496
29.0383423522038 10.5335
30.0334468803106 2.37913
31.0176107269514 11.28
39.0235090802313 27.0552
41.038979043036 21.4512
43.018318018895 18.709
44.0258513367308 4.40747
44.0494927092774 5.57914
44.9975780556562 10.9942
45.0339561730895 14.1803
53.0389115286701 17.5982
55.0180706272751 4.14677
55.0544561883869 100.0
55.1226374961564 1.92416
55.1413739588784 1.04029
56.049646195239 59.4034
56.1177876327369 1.12844
57.0333624938884 2.5771
59.0492416670129 19.7448
72.0812059081647 1.03036

