>compound p-Hydroxyphenylbutazone
>formula C19H20N2O3
>parentmass 325.15440609317
>charge 1

>ms1peaks
67.4164569828991 1.32475
79.0244487432917 8.63659
126.255190799919 1.15572
232.623017868138 1.58283
247.330077003531 1.32978
263.549326452322 1.38196
283.981724993036 1.58189
285.135685338379 2.6554
285.628905663388 1.30352
324.132940311782 1.66366
324.642501077522 1.75481
324.933538374291 2.49952
325.00548471684 1.56913
325.150807079691 100.0
325.327247768385 4.4039
325.621121544318 2.55939
325.986978423803 1.63801

>collision 10.0
69.067040018597 3.04482
79.019629708654 3.48404
98.905410312438 2.30499
115.545878421165 2.13755
132.042647623248 3.20748
148.068512757604 2.13933
160.111035412064 15.608
162.054397713827 7.26707
162.126237569462 4.39122
176.103600736764 7.55597
178.118270154387 2.70603
188.109744278252 7.85692
190.042739495414 3.62414
227.09890534491 4.21688
232.093253180325 2.95295
246.933775896845 3.22885
260.994473535979 2.46934
285.129642029906 3.84016
297.156284619397 11.6124
299.247293805492 2.19147
307.170038384896 3.28013
325.15440609317 100.0
325.262731742611 4.73482

>collision 20.0
43.0557118682153 6.16711
55.0169687686879 6.28082
65.0373682884301 10.1651
79.0197154165439 22.1455
84.078744721651 9.90108
94.066051445102 6.70968
97.0634684719118 16.966
106.061671177813 31.548
108.044358081774 6.49404
120.043603534459 28.3073
122.054751239284 18.3887
134.059277165947 7.36076
136.042327698497 12.9128
138.053588022894 5.83425
146.057029231893 23.2006
148.045580952427 5.75165
160.112512999672 100.0
162.129181868171 45.665
164.981471189298 7.07743
166.037766115985 8.04337
168.917830989879 7.30702
176.102316883413 38.7344
179.048346469641 8.05247
188.106510924149 8.11556
190.124486760167 5.74016
201.743175157936 5.74174
204.097293115179 20.126
206.111195316145 11.2406
206.97591710299 7.23264
223.990255355437 7.79705
227.098456848797 7.25405
246.92970810634 8.33177
265.093584827779 8.05701
268.107556063245 11.2918
297.165533433366 12.1992
325.159216065887 41.6234

>collision 40.0
27.5712418913165 12.4716
41.0367667044587 17.1277
55.0172163699562 35.5685
57.0349863183924 28.4425
57.0698321283583 36.9607
61.0095882335039 19.37
65.0369244209974 17.7768
73.9456737207547 14.9908
77.0385055911688 78.7819
79.0230348924663 57.0248
80.0409551975124 12.6807
81.5632063845311 13.6463
84.2672869188892 12.8158
92.050091789635 23.9157
93.038701704605 21.0909
94.0642067637046 19.5699
104.049879477026 100.0
106.066266711494 78.5415
108.04465460805 33.4948
110.058439053448 33.3958
115.964120896869 26.6625
118.06304653148 51.0425
120.046149844116 32.8906
122.056753274737 19.9767
129.061876088557 16.4579
132.046302470279 23.2039
134.060046287119 13.6956
134.956747181069 21.8931
135.067731565994 14.2238
144.079770705204 19.24
146.055449404159 43.6861
160.108800741002 59.6423
162.053524222409 12.9207
162.118980634297 25.4586
174.091653014265 12.987
176.098563220894 22.2327
176.961997967528 12.9307
190.04859321247 41.1869
198.076215679375 13.3573
227.079017946899 13.6153
285.287027984188 16.3977

