>compound D-Lysine
>formula C6H14N2O2
>parentmass 147.112488977687
>charge 1

>ms1peaks
64.016521412731 96.956
65.0182308190512 2.36638
84.0808583071084 10.1975
101.105812680943 0.609141
105.042708062205 18.3234
106.046247124766 1.44073
111.089015688546 0.572205
129.100664500362 1.16895
130.08613580771 21.7417
146.979407989259 0.851899
147.112492728672 100.0

>collision 10.0
56.0499463198885 1.54485
64.0165421902882 21.0765
65.0192821288997 1.1888
67.0545641526809 0.713501
84.0809526347515 100.0
105.951813401608 0.557396
106.00209299791 1.20812
112.076268910835 0.629881
129.101684794909 2.30955
130.085669554265 47.4163
147.112488977687 10.7249

>collision 20.0
42.0342062063029 1.09201
55.0533783978327 1.04962
56.0504443748692 6.08751
64.0180304499464 1.09449
64.9779860568932 0.536909
67.0553557827007 4.18195
74.0233131850507 1.04458
84.0811421144028 100.0
130.085346174457 1.82932

>collision 40.0
28.0178811129 1.83696
30.0329277162963 1.99519
39.0245112977436 1.80576
41.0393097607472 9.76475
42.0351042846921 8.32675
43.041395584221 3.56598
44.0488155559294 0.84602
46.0273944600621 0.795272
53.0378203733815 0.788716
54.0340020863899 1.35045
55.0547307834746 14.7521
55.9395660583577 0.769335
56.0500699567761 100.0
56.302825486283 0.580701
56.5394673014891 0.536649
57.0686059663575 1.11883
64.9272533994059 2.48838
64.979112160183 2.54187
65.0389282539443 6.92004
67.0543480924921 14.7403
68.0508396116449 3.44782
69.0583198822924 5.73027
72.0048721549759 0.996778
74.0238971241864 0.875615
82.0665820545495 2.80084
83.0781017437547 0.748727
84.0809408742344 63.7087

