>compound D-Cysteine
>formula C3H7NO2S
>parentmass 122.026401747971
>charge 1

>ms1peaks
42.0347222765638 1.58392
43.0421655145647 2.09265
57.9886974048344 0.580352
58.9956118403662 78.4813
59.0657965270254 1.74059
59.0873217044762 0.744442
70.0283944335835 0.537771
76.0218656891892 66.7608
76.1021409825806 1.33727
76.1254353279566 0.654802
86.9898934526159 16.3928
88.038620983775 0.505845
105.000336430678 14.2816
122.026401747971 100.0
122.127099222284 2.14549
122.158181657832 1.01647

>collision 10.0
42.0344907133666 2.99173
43.0424337096363 5.12442
44.987845615286 0.506937
57.9874846621362 2.112
58.995636834683 100.0
59.0661507573474 2.26331
59.0887864812743 1.01801
76.0217456771887 50.2336
76.1017995702403 1.00165
76.124946574755 0.500798
86.9899433725135 10.4531
104.99995751785 9.18074
122.026273597032 9.14495

>collision 20.0
42.0347540892796 3.85384
43.0187958448954 0.544309
43.0425950141608 7.17549
44.9883173452205 0.849678
57.9876411719709 6.70679
58.995592287094 100.0
59.0661482549467 2.41466
59.0868625432399 1.01928
59.1103397076201 0.544323
76.0216975707906 23.5894
86.9902361038675 2.52975
104.999419123411 1.10678

>collision 40.0
42.0344416948144 12.8971
43.0186869827539 0.880507
43.0423490116071 11.8389
44.0508688928828 0.506911
44.9922465271588 2.94855
46.99565811115 0.866032
55.0189182487469 0.855852
57.9874792527131 34.1999
58.0571787482729 0.709717
58.9954775910135 100.0
59.066708753805 2.07235
59.0862481260145 0.925978
59.1082260943546 0.505102
76.0214599562685 1.70115

