>compound Cinnamaldehyde
>formula C9H8O
>parentmass 133.064766114807
>charge 1

>ms1peaks
55.0185675881657 6.65023
91.0550101042601 0.504654
105.069489798163 0.848687
115.053467600118 5.26488
133.064577850957 100.0
133.169003442103 0.688524

>collision 10.0
55.0186309168257 100.0
55.0861604279714 0.677459
77.0390504137046 2.35187
79.0547540024536 4.85538
91.0544593452529 5.55465
103.053709376329 7.94171
105.032451211134 1.17348
105.069685617772 22.5637
115.054111751445 65.0145
133.064766114807 59.32

>collision 20.0
31.0184438366433 1.82334
51.0234463369403 1.20349
55.0187070708079 100.0
55.0866020249696 0.633444
65.0405298447967 1.00507
77.0393533220701 34.902
78.0449373311257 0.638191
79.0546198338712 30.8409
89.0377756255918 0.929137
91.054374949007 5.96023
103.054093571924 28.9636
105.03342971602 1.82919
105.069864766516 21.3496
115.054045347286 77.2433
133.066120687972 1.60373

>collision 40.0
27.0226695735499 0.726622
31.017639560625 2.90663
39.0234985019723 3.82256
41.0388361068515 1.16284
50.0154521280948 0.930689
51.0237714585375 50.0045
55.018850886286 15.7348
62.0138893231423 0.74312
63.0237373617195 8.16692
65.0391702045029 16.049
75.0221861044766 0.8123
77.0391346011622 100.0
77.1182079484914 0.516635
78.0445568545237 1.72179
79.0544397180172 8.14536
87.0227317836914 0.93496
89.0389980800498 18.2136
91.0540394824541 6.95061
102.047350662226 0.783103
103.053905743254 6.38119
114.048596985919 0.509819
115.054255099532 16.1871

