>compound D-Ala-D-Ala
>formula C6H12N2O3
>parentmass 161.091739514388
>charge 1

>ms1peaks
44.0506547585783 46.3995
44.1118901823083 1.24662
44.1297684547445 0.52043
90.055372265403 7.21034
115.086821405008 1.34543
133.096612173847 0.62818
143.081421396262 0.736815
161.092153643647 100.0
161.207808186202 2.92181
161.244985667711 1.29407

>collision 10.0
44.0506746802809 100.0
44.1117692582889 3.04221
44.1297942410114 1.36133
90.0553168637108 11.4503
115.086297225267 2.40314
133.096323921875 0.532348
143.082098100478 0.698444
161.091739514388 21.6319

>collision 20.0
44.0506354343432 100.0
44.1118161789615 2.96425
44.1297863815525 1.27051
44.1481558199045 0.539823
90.055640212708 3.12535

>collision 40.0
42.0344248704013 1.14636
44.0505802316958 100.0
44.1118794875491 2.59058
44.1299165111765 1.16043
70.0658391947188 0.635315

