>compound Levan
>formula C18H32O16
>parentmass 527.1580254019
>charge 1

>ms1peaks
526.290230778121 0.599087
526.367833417617 1.08779
527.158338329995 100.0
527.361760165243 1.02802
527.450170761213 0.598514
527.816219909328 0.585688
528.031684559288 0.624688
557.03168455929 1.0e-13

>collision 10.0
185.046041728491 1.26239
347.092385041041 1.43608
365.101501624987 1.9944
514.971790178779 0.628882
526.291911303495 0.593443
527.1580254019 100.0
527.380149369772 1.00421
527.810483711011 0.676433
528.06767697586 0.574813
557.06767697586 1.0e-13

>collision 20.0
59.0506738178781 0.81867
106.071471118101 0.55986
185.040247771969 2.62599
203.052367546278 1.48452
347.093391429979 19.1705
365.103908744263 16.8064
436.336970046549 0.690688
526.284644765267 0.846743
527.157193433085 100.0
527.35441456545 0.745377
527.524589541794 0.73772
527.788845160747 0.50642
527.922681068658 0.886765
556.92268106866 1.0e-13

>collision 40.0
43.0539274751115 1.9312
108.029286049905 1.99361
138.047124829222 2.13778
185.041603063462 62.1344
186.042668113049 3.11996
203.05148988184 65.3664
203.727855087114 1.51125
256.142646034586 1.55982
275.074671448007 8.22882
331.670623754507 1.80122
347.093453006923 73.5724
365.104394554549 100.0
365.814558471301 1.98899
527.158863515192 15.3961
556.15886351519 1.0e-13

