>compound Salicin
>formula C13H18O7
>parentmass 309.095709500885
>charge 1

>ms1peaks
309.097518254897 100.0
309.253821972633 1.7735
309.303953886314 0.86795
309.351248627861 0.647877
309.45011952731 0.524299
309.638834896082 0.511528
338.63883489608 1.0e-13

>collision 10.0
185.044286930393 0.621527
309.095709500885 100.0
309.252888825239 1.72967
309.312160159438 0.853073
309.468236272642 0.523786
338.46823627264 1.0e-13

>collision 20.0
147.043513295469 3.46205
152.946209649115 1.01778
185.043690129841 5.17192
279.085464590922 0.702614
309.095572869508 100.0
309.252947991451 1.66533
309.306019914315 0.951585
309.474203532381 0.615622
309.576116976314 0.565157
309.636978726362 0.67156
309.730709422841 0.554209
338.73070942284 1.0e-13

>collision 40.0
56.944590516816 14.6382
58.9624190888774 47.6502
74.9352971603606 100.0
102.974615111224 16.3171
136.969397698521 19.8901
137.933139335257 20.4897
152.948573972812 59.151
294.879761048959 20.5197
323.87976104896 1.0e-13

