>compound Stachyose
>formula C24H42O21
>parentmass 689.209945532426
>charge 1

>ms1peaks
527.159501858735 1.07617
689.209712847944 100.0
689.440898736318 1.84102
689.526026099455 0.979254
689.725422342613 0.681458
689.783409288633 0.665552
689.859475714768 0.616035
689.98764956802 0.663563
690.207638819039 0.820547
719.20763881904 1.0e-13

>collision 10.0
527.154537237425 2.71982
689.209945532426 100.0
689.530504896053 1.01738
689.621606940146 0.821114
689.816315682652 0.580393
690.114866154517 0.754455
719.11486615452 1.0e-13

>collision 20.0
527.156040341325 12.5173
689.209988803812 100.0
689.436488353854 1.64986
689.528624817543 1.10099
689.635530917924 0.719464
689.798374548286 0.840487
690.070281207974 0.658122
690.207467122289 0.818638
719.20746712229 1.0e-13

>collision 40.0
347.093306510952 0.778518
365.104807849195 4.50621
467.13445275794 0.874821
509.147547908377 2.90864
527.157160055949 100.0
527.45154572822 0.881143
527.52949992961 0.831169
527.586918730899 0.672549
527.679080457642 0.575225
528.034381117308 0.66544
689.209711603546 15.6331
718.20971160355 1.0e-13

