>compound DL-3,4-Dihydroxymandelic acid
>formula C8H8O5
>parentmass 167.033766187552
>charge -1

>ms1peaks
68.0511119529071 0.804121
71.0135314278053 1.34427
84.9597499051583 5.8865
111.048344636898 2.38632
122.060500310648 0.831472
125.504360936414 7.35386
125.98815824018 13.2724
132.505780513559 0.819593
134.080012277811 0.716142
138.089822895824 0.955228
139.038492310784 4.22073
146.016868521688 1.38665
146.523364345002 1.30229
149.039947337124 0.717685
149.108902205559 0.658017
166.084957243238 1.59603
166.122799318909 2.78384
167.035540705972 100.0
167.231595512816 0.699133
167.328440216026 0.948575
167.380052562481 0.713387
167.753187954402 0.835373
168.7531879544 1.0e-13

>collision 10.0
42.0357039436311 4.33951
60.9571839784337 4.47747
65.0388693994146 8.8963
84.9607919124071 68.5387
90.9917239118226 3.08812
93.0337372509448 65.9561
95.998368840083 4.58538
97.9688969770216 2.70549
101.980828910749 3.84483
102.994849213219 6.79335
104.990171511725 14.6934
105.02896463593 5.77639
105.07160648854 6.87275
105.49236789225 10.9465
107.052248642881 3.38883
108.040113602739 6.57684
111.043238828329 47.4475
114.476002409251 4.58833
120.043107316796 3.80026
121.029972849564 8.30171
124.081221748552 2.5979
125.011525221732 2.51652
125.98818320623 11.2103
137.07699846285 7.22551
138.083305340032 3.02641
139.038864809771 99.9405
149.022925290987 70.9513
166.084033521377 3.27418
166.117546804161 4.82071
167.033766187552 100.0
167.08570945801 30.4668
168.08570945801 1.0e-13

>collision 20.0
39.0235840976228 3.31039
40.9699755206845 3.76324
65.0388886828443 88.0353
65.0898023106682 2.67755
65.1135922264408 2.17239
67.0560343025236 5.29992
83.0506140722303 11.7262
84.0812703573053 2.66763
84.9600205073704 32.1234
93.0346951087349 100.0
104.988044309769 2.26493
105.06601410696 5.67193
108.007342577416 7.71323
108.041863959098 7.67775
109.055450278049 7.32552
111.04451121517 27.0661
120.043264186776 5.45755
121.03139069289 15.2212
123.014130717625 2.8192
133.014795696701 4.48721
137.086799834126 2.28885
138.08583983786 4.27906
139.037876952348 24.1588
149.022916571707 14.7281
165.067965839268 2.368
167.08530104486 2.62071
167.119535002797 2.5769
168.1195350028 1.0e-13

>collision 40.0
39.0241207309332 21.4187
40.9712540546399 4.88899
43.0274928998823 7.40453
53.0019065464248 3.73087
53.0397084271529 3.27477
64.0366373333133 2.3366
65.040443820068 100.0
66.0441715275357 4.80454
71.0108289739288 5.1667
80.0509998419523 3.05867
81.0512269243455 4.81638
84.9581047412294 7.08662
94.062428907929 2.80579
109.053762006691 9.93969
110.05376200669 1.0e-13

