>compound Vanillylmandelic acid
>formula C9H10O5
>parentmass 181.048707268626
>charge -1

>ms1peaks
93.0332452486471 0.700184
102.005735132846 2.54946
102.999767790864 5.17716
121.047804768057 0.56984
130.515118298927 1.75497
149.021225154304 2.66291
151.029213907084 1.61075
153.05457253774 3.49988
180.017056371177 1.96542
180.143541907415 1.38439
181.048821821879 100.0
181.166038881466 2.49429
181.216447462378 1.05521
181.283232168502 0.573503
181.361466570714 0.673079
181.515912081048 0.512926
182.51591208105 1.0e-13

>collision 10.0
65.0385159996535 3.49875
68.9966644290282 0.83843
77.0394583731185 0.72252
93.0337394683066 16.0181
102.003794115262 2.28081
102.998220862859 4.41335
105.034039466205 3.17075
110.001003078811 4.0879
110.03023205092 1.41788
116.047472911229 0.641163
125.059499321528 17.428
130.51468218232 1.49859
139.042208047845 0.514578
149.022608955451 73.0065
149.135322745363 1.16857
149.182979548497 0.516086
149.362475452993 0.513961
153.053848395382 45.164
180.125622017498 1.89505
181.048707268626 100.0
181.122522675707 4.68515
181.165532178169 2.46167
181.209489854951 1.17192
181.264046466101 0.609354
181.333547628945 0.645164
181.528380333541 0.541826
181.77663031635 0.838605
181.911060179376 0.553393
182.91106017938 1.0e-13

>collision 20.0
39.0243698247169 1.12681
41.0392025903645 0.882394
54.046741360599 0.534996
56.9682272860368 0.909487
60.082188257258 0.626559
65.0394045514695 58.2545
65.1141365461179 1.28839
65.2575099595155 0.545464
67.0567648402412 1.92628
68.9968937774789 0.640667
69.0659958161786 0.550617
77.0386849964119 2.90989
79.0551463405445 2.2705
82.0425648102707 3.3328
83.0553345026794 0.759765
85.0271337777336 2.15104
93.0337089620371 100.0
93.1221376515758 1.95485
93.1489148343237 0.78672
93.2056416354538 0.600701
93.2613394621025 0.563485
93.3307046692182 0.559098
93.4561353862796 0.812082
93.5304181727507 0.523937
93.5751014447343 0.655023
93.7460553355709 0.886017
96.0204921960858 1.68282
97.0646264493841 10.5821
97.1203695185372 0.507983
98.9740301062101 0.597111
99.0852523096018 1.19117
105.033192911044 6.08805
110.034399289966 8.5789
111.03874663397 1.37441
119.051763378579 0.578518
120.083019856107 0.549595
121.029237713285 13.2693
122.059339302161 0.931576
125.059928316866 45.3712
125.152278463001 1.11605
125.217993891212 0.521086
133.081184694742 0.597111
138.029066252225 3.46075
139.033881470722 1.40505
146.999688778568 1.51016
149.022208973314 70.5939
149.135471104249 1.51214
149.261087380554 0.521312
149.475349231112 0.630099
149.516388655863 0.86003
150.118256878011 0.861707
153.055037115844 29.3014
175.813825669475 0.583648
180.103860695121 1.02014
181.045939603744 5.33684
181.159936828034 1.05022
182.15993682803 1.0e-13

>collision 40.0
39.0245608687605 13.4079
40.9683233690401 0.618953
41.0400342072375 2.44688
43.0171296594756 0.774182
51.0222368288722 4.7019
54.0467707522437 1.97928
55.0161227127787 0.674591
63.0220257384598 0.897342
64.9841733185086 0.536269
65.039079712689 100.0
65.1330170569543 1.02627
65.1567363398881 0.509245
65.2692433749563 0.650654
65.4305677147937 0.676762
67.054336582854 2.67043
68.0259945283075 0.621833
68.998144226012 1.01234
69.0338343367015 2.82911
71.0096068090469 0.597374
75.023626177093 0.792366
77.0385257541883 4.59984
79.0589664778645 1.07702
81.03222052292 2.11524
82.0415072461028 6.80583
85.0284124203596 0.537751
93.0335284222975 4.18102
95.0657009220965 0.860064
96.0181175163437 0.913575
97.0626567239467 1.27088
109.028150129932 0.849957
110.036144805412 4.76229
121.029835472867 2.27931
133.005506444007 0.682773
137.02192792219 0.927991
138.02192792219 1.0e-13

