>compound 3-Amino-3-(4-hydroxyphenyl)propanoate
>formula C9H11NO3
>parentmass 182.08121156696
>charge 1

>ms1peaks
77.0397145282419 0.539544
95.0520566266426 0.636826
101.004531886658 5.45003
102.006620026405 0.933203
103.000279504951 6.17937
104.006248805574 0.758949
121.06565534113 13.9795
123.044709984962 9.66385
147.045674001841 0.535008
165.055222421107 100.0
181.013856200686 3.87081
182.016274846493 1.44727
182.08121156696 22.0511

>collision 10.0
77.0392662554972 1.20575
95.0495181873369 2.69945
101.004251885271 3.6879
102.006724978435 0.685793
103.000344669737 4.0733
104.003076855175 0.710073
121.065653246436 3.68259
123.044668030929 100.0
147.04437681613 2.8691
165.055591684317 57.1163

>collision 20.0
77.0399256686146 4.50789
91.0551188233334 1.14669
93.0720077947183 0.970197
95.050383265361 23.7405
103.053871358386 0.821029
121.065586263275 2.55429
123.044538446526 100.0
147.04345089802 1.68963

>collision 40.0
41.0394115591431 1.23496
44.9974006870696 0.589808
51.0243270534229 7.74669
55.0205718121871 0.778571
65.0405116710545 3.6352
67.0559533795044 4.01973
77.039681703285 100.0
78.0457651989717 0.982383
91.0553590202838 6.7729
93.0714112122325 1.01222
94.0411326522555 0.642019
95.0501062298388 46.8641
103.054873577866 3.18881
119.050659989996 1.3779
120.057442519751 1.93687
123.044543519849 5.49365

