>compound Phenylpropanolamine
>formula C9H13NO
>parentmass 152.10687108616
>charge 1

>ms1peaks
56.0502348368229 1.87673
91.0546034175984 1.54149
115.054138777135 3.90675
117.069515281071 15.2866
117.201611145548 0.50054
119.072715043238 0.506183
134.096348567674 92.266
134.239401789184 5.54071
135.084428342552 0.59776
152.10687108616 100.0
152.260622802877 6.00979

>collision 10.0
43.0185494076636 0.711965
56.0502041123397 4.21247
57.0338097689849 0.670573
91.0545063635085 6.65354
115.054197211179 15.1128
115.189998801401 0.5338
116.061787908415 0.550661
117.069599043453 29.531
117.201655227593 1.34263
118.066129781224 0.647134
119.072466823096 1.70637
134.096545597212 100.0
134.239622338159 6.95756
135.080970936187 0.755792
152.106353968118 3.90314

>collision 20.0
39.0234827552553 0.847064
42.0346905569847 2.25007
43.0185622387778 4.9102
56.0502702631381 16.4387
56.1449621230247 0.570649
57.0342072272924 2.06022
65.0390823242475 2.75149
77.0391128069593 2.35874
79.0543354370649 0.7263
89.0381739284104 0.684921
91.0544199193343 49.7979
91.1756809180779 1.77936
93.0687071118658 1.9181
104.049546804894 1.56242
106.065311645218 1.13218
115.054183565183 85.6692
115.189886328203 3.90217
116.061688585943 3.09898
117.069658365187 100.0
117.201784929164 5.09232
118.064736162488 5.64207
119.072529961732 8.31913
134.095960013942 53.5233
134.238336534734 1.65111

>collision 40.0
39.0237500820741 6.35319
41.0393212081836 1.97153
42.0348313603789 5.16505
43.0187879498508 11.1734
51.0234868734249 5.68871
56.0502831776802 3.05336
57.0573143239551 1.05176
63.0236285989744 3.48447
65.0391886892175 36.4771
65.141017446579 1.27526
77.039118027467 11.2873
78.045530479835 1.14195
79.053733664196 0.873297
89.038673433155 8.16609
91.054549535477 100.0
91.1757222412078 4.0993
92.061295661615 0.791847
93.0588494227 0.516913
102.045905459906 1.02842
104.049405618105 5.63086
115.054138369435 66.1685
115.189962704641 2.23869
116.061343158551 3.18085
117.065335754153 4.19408
118.064604983758 12.6191
119.072368156318 1.93241

