>compound Triphenyl phosphate
>formula C18H15O4P
>parentmass 327.080299987924
>charge 1

>ms1peaks
326.377453778016 1.75036
326.954362694366 1.63486
327.080299987924 100.0
327.183785019648 4.34895
327.94730537343 1.74968

>collision 10.0
152.061044357844 2.39401
153.068607513429 1.71404
215.031160000812 1.2894
232.935472259689 1.37456
233.027915494321 2.1078
251.047980345436 1.32567
326.377972904696 1.55421
327.07491108255 100.0
327.198726799251 3.6679
327.332100533369 1.23338
328.075529928221 4.0039

>collision 20.0
77.0383860178684 5.31863
98.9824305698772 4.40731
151.059604896142 3.3294
152.059701360209 13.6551
153.068426565612 25.1335
171.080923610058 2.83816
215.025013531602 16.4372
228.089683281963 10.3201
229.101704394633 8.87503
233.034051254518 9.76718
251.045768903735 11.1315
327.082569993261 100.0

>collision 40.0
51.0216581524839 9.45976
77.0392870846144 100.0
95.0441894413739 8.22827
151.052976737712 10.3072
152.058910878131 76.2404
153.068837387805 13.0767
168.052177079991 29.3035
201.065896427669 7.25458
215.024662719338 21.9782
227.07970344834 7.05634
233.034275453127 6.27344
251.046601727432 12.1003

