>compound Phenylephrine
>formula C9H13NO2
>parentmass 168.102579258853
>charge 1

>ms1peaks
90.007056606754 0.852149
91.054618190726 0.566861
109.064251370852 0.739126
121.501674388119 0.931641
129.013600659573 14.9797
129.513777030498 0.550296
150.092107219509 37.5123
150.247577535487 0.577072
168.020055643291 19.9062
168.102579258853 100.0
168.177989427612 0.80716
168.266349661159 2.59992
168.520175389623 1.01387

>collision 10.0
42.0350130021088 1.47994
82.4946142254001 2.51726
90.00608347903 12.8272
91.0544971277387 3.19557
109.06493007931 3.99273
119.048894129284 1.8873
121.064712860259 0.955268
121.501153416345 10.2075
129.012735879645 17.9497
129.513288199987 0.759961
135.067733245829 3.06033
150.09120213818 100.0
150.24645687814 2.43456
168.10163195343 4.63173

>collision 20.0
32.0496501450797 1.38375
42.0349337727179 26.4891
44.0510942948285 0.925091
46.9948647904476 0.88625
56.0506095495145 1.3496
57.0584486618562 5.2535
61.0116746608372 0.977832
62.9916151333491 0.867195
65.0402261420946 1.16443
74.479427057185 2.76119
74.9832798170096 4.21277
77.0393432051862 2.7122
79.0543903312527 2.3238
81.0706948332103 7.40135
81.9911445637531 12.5681
82.4950289033338 68.787
82.6097084996627 1.62916
82.9955880723767 2.63533
90.0065886796313 100.0
90.1232575871178 2.39741
90.5069588333176 3.37733
91.0550307463039 53.0446
91.1762426329122 0.675456
93.0695531262082 2.04718
94.0425515287753 2.16153
95.0511423080409 0.503108
100.990321015259 0.576792
102.000140288753 0.63691
102.969207240062 0.583095
103.054925646028 1.79548
105.06897221059 1.08939
106.065965278367 1.24413
107.049882787108 10.6113
108.058599198606 2.47753
109.065203464441 38.1261
117.05695831076 4.88303
118.062551663595 3.44402
119.04952251051 13.0394
120.045171392709 2.00413
121.064665685246 8.5527
121.501164427902 4.16325
122.095911138139 1.58871
132.080727029627 2.60759
134.060106724811 7.12023
135.068019476284 48.6897
135.213605861 0.73436
149.084558899491 0.743873
150.091480218962 92.8314
150.247324437834 1.0606

>collision 40.0
39.0238272158692 6.7232
40.9890025380039 0.549941
41.0399144495869 7.39897
42.0351258492352 86.6824
42.1134465099304 1.42936
42.9851055220484 6.77905
43.0197926187264 1.72556
43.4880601585664 0.626809
44.0511558775162 4.10922
44.9812260475244 6.08416
45.0347385749555 0.533775
45.9892780516979 1.42009
46.9960551647434 14.7937
51.0121650906768 9.10115
51.9904231559587 0.761917
53.0400487338978 4.91092
55.0193863779912 6.14124
55.0559710725059 1.815
56.0508583493341 12.9838
56.9871437832123 0.975436
57.0592670079264 10.1877
57.9904989741024 1.73689
58.0297831011262 0.529904
58.9995366566162 1.32594
61.0108645223759 4.78992
62.0158736326373 0.600467
62.9909848914535 36.8557
63.0903178163934 0.586562
65.0045859488217 2.74744
65.0399326235233 55.7688
65.1423446485611 0.859573
66.0063021877286 1.75532
66.047088018567 4.51087
66.9682261649482 13.8268
67.044161262216 2.52044
67.4714589305102 1.10988
73.9759645126453 27.6551
74.4799582307651 83.4417
74.5889009786295 2.55886
74.9833693290823 43.9571
75.0927301200181 1.04793
75.4833945003926 1.95293
77.0398809489989 94.8558
77.1507530741992 1.50892
78.0188783441092 4.06134
79.055036089391 35.7191
79.164461977552 0.644061
80.053096179936 6.71361
81.0704466374194 9.1967
81.9912992003223 76.2706
82.1033655047205 2.58811
82.4951984188339 36.8247
82.610653878349 0.653486
82.9924763740462 0.522718
83.4871790583942 0.84932
84.9602289247912 17.1805
85.9671859598695 5.68774
86.975473509542 5.2027
89.0396212759549 5.73689
90.0476643039462 10.8681
91.0553045148393 94.9118
91.1760809210277 1.13874
91.5030309950593 0.697235
92.0504573328896 10.3889
93.0348361690312 3.49597
93.0676948133341 1.96785
94.0422275588727 30.4303
95.0511460141414 1.04625
100.991235980106 4.14154
101.999268890879 11.2988
102.042610496881 0.640274
102.970477619746 14.819
103.054642893064 4.02462
103.976625475255 1.67554
104.058486066576 1.05324
105.065484014439 1.43527
106.065890789714 22.7675
107.049536864004 100.0
107.176884211748 1.50103
108.057025503423 10.4747
109.065303365211 4.75614
116.05031712151 9.75615
117.05738658543 11.2496
118.063458875568 13.6117
119.002691494675 0.632723
119.052358315542 1.23715
120.045271452955 17.1269
130.064884621287 2.0247
131.071527748258 0.841395
132.083054586034 0.840258
133.054473158002 1.68354
134.060828965687 38.0433
135.068389737664 11.4184
146.060347957347 1.08046
148.075178644126 1.39849

