>compound N,N-Dimethyltryptamine (DMT)
>formula C12H16N2
>parentmass 189.138713100184
>charge 1

>ms1peaks
58.0656791217357 6.64203
144.080511059384 2.5407
189.138098769668 100.0
189.312401757888 4.67991

>collision 10.0
58.0663011091688 100.0
58.1594322278657 4.52421
144.081078983233 43.767
144.232964927496 1.00536
189.138713100184 20.3317

>collision 20.0
58.0664236867759 100.0
58.1594779899819 4.14326
91.055563866417 0.502038
115.054881258768 0.862099
117.069637942748 3.38028
118.066007002429 0.768567
127.05430745325 1.45135
143.07322961162 2.06866
144.081335021327 79.0885
144.23303353863 2.41415

>collision 40.0
30.0342860757276 0.873051
39.023979597085 0.620918
42.0346828689108 2.68287
43.042497623658 2.46392
51.0238553072743 0.558507
56.0495545682472 1.12947
58.0657299439739 100.0
58.1592690282565 3.04873
65.0388416566828 1.30006
66.0344466301421 1.07851
77.0386048140366 7.531
78.045252997792 0.5491
89.0387427004563 2.05618
90.0465948671201 2.48796
91.0540908305087 18.3191
101.038153752257 1.31651
102.045766714069 0.918755
103.054426417737 2.79802
104.04963987694 0.620733
115.053492128418 29.7912
116.057040566403 5.52643
117.063573009155 26.8673
118.064509526019 1.84972
126.045043232611 0.51694
127.053558171164 15.1195
128.051169615049 5.46802
129.056854655958 1.21945
142.064932387128 3.18249
143.071957768389 32.2148
144.08043653655 21.7472

