>compound 21-Deoxycortisol
>formula C21H30O4
>parentmass 347.220925979793
>charge 1

>ms1peaks
121.064266538487 0.636353
311.200301915921 1.6242
329.207628706381 0.637688
346.211292679857 0.724771
347.220959502037 100.0
347.390554553108 1.66859
347.438291031546 1.18255
347.530840480018 0.591366
347.602544482756 0.617698
347.67753142631 0.526131
347.822342400401 0.527067
347.936121093867 0.586002
348.206857042106 0.520186

>collision 10.0
121.064136190931 1.85897
135.078362776918 0.612423
137.094328356061 0.532478
173.121552761799 0.630721
175.111542508228 1.73928
185.131914735987 0.566172
189.125979210573 0.917186
225.129484973502 0.55972
241.158504382276 0.622775
251.176859346318 0.685255
267.172996856658 0.555019
269.18889889715 3.43582
283.1956612859 0.733344
287.200351755438 1.38482
293.190199543863 2.87152
311.199323124641 12.5212
329.209421711665 3.38081
347.220925979793 100.0
347.386174106256 1.75392
347.446658632806 0.939624
347.722362901712 0.511149
347.880248512318 0.511435

>collision 20.0
43.018593550698 14.0808
43.0562261711057 2.00508
55.0542555065991 0.84181
59.0483771671627 0.750035
61.0299501383211 0.768355
67.0536293040029 0.879413
71.0516269429556 0.500035
79.0548757256559 0.816504
81.0704745402395 2.41208
83.0493513238134 2.58196
85.0670152337755 1.94072
87.0443302219655 1.93399
91.0550004354687 1.38153
93.070216641839 4.48249
95.0854970984148 4.65444
97.0646225129992 13.1574
99.043830770092 1.74867
99.079976797311 3.8634
101.061881907623 0.628925
105.07017266354 5.03321
107.085037469941 3.33437
109.064046802575 8.86878
109.095266171643 2.15568
111.07862374126 1.77241
117.067627069498 0.914427
119.08562501523 4.49861
121.064759547687 38.9142
121.163490349925 0.756618
123.079805962645 12.7483
129.06840455963 0.937659
131.084912059037 4.02778
133.100216493868 3.93605
135.079112259304 6.89123
135.114096701278 3.24262
137.095823433239 9.44118
139.073850321642 0.62319
141.065865011225 0.549963
143.085267044851 3.15714
145.100829638558 8.90601
147.112653397565 10.8561
149.107656529437 5.2503
151.110412214086 4.65552
155.083766964466 1.5619
157.061014098882 0.725647
157.101587468214 5.0739
159.114301827802 7.64434
161.102947742504 6.13714
163.111420016326 9.10457
165.123539134113 0.941187
167.089566790243 0.540794
169.100889566594 7.29438
171.11569842136 9.2543
173.120317122329 8.53334
175.11008899858 30.6031
175.231242666562 0.633487
177.126957750238 8.12503
179.143147052538 0.610657
181.099909078198 1.43989
183.116137472826 3.95176
185.130773141574 9.46014
187.122511073369 6.47497
189.126889181897 9.79458
191.142125464109 2.65519
195.116437499065 2.891
195.156672395796 0.618631
197.131524451222 4.93927
199.130190093841 1.48876
201.127703289097 4.37614
203.140789256247 1.72383
205.139740285247 0.554318
207.121460178587 0.850589
209.132105427347 5.90014
210.138768304754 1.35189
211.145560358119 6.88387
213.129604000455 3.95004
215.140813728258 8.65702
216.156484160356 0.612317
217.151025635463 0.560863
219.134769138377 1.18085
221.129716527783 0.686628
223.142207410036 3.32591
225.131257816485 4.16872
227.145094424419 3.96514
229.158102669536 4.82084
233.133490177796 0.538168
235.146786015108 4.64129
237.141321588335 1.0161
239.145066861251 2.33862
241.160238880759 6.52217
242.169146010153 0.769507
243.173348737031 4.37521
247.158895309852 1.2052
249.160109538914 1.16755
250.166732222537 1.86699
251.177950720498 11.2158
253.15704867688 11.6922
255.169226769817 1.99681
257.154460759735 0.874174
265.173878203828 3.43339
267.173500769189 10.0156
268.181989336184 2.97234
269.188793805705 43.1742
269.337653014901 0.840652
271.168306663304 3.55527
275.180197449803 4.29692
283.201013357892 6.58787
285.181340956191 2.05959
286.190775388559 0.920729
287.200475769411 16.5553
293.189799558429 22.6913
296.179541481533 0.766161
301.216875994755 0.531476
311.199803326033 76.8902
311.33073601463 1.51462
311.426122980062 0.638239
311.691185147282 0.616256
311.907185483866 0.575105
329.210100466126 13.8902
346.210827306794 0.859834
347.221231594117 100.0
347.385960591806 1.57691
347.45622275697 0.841861
347.62890603375 0.760085
347.724088622827 0.757625
347.85272506221 0.540198
347.972722738198 0.63435
348.12934870859 0.676201

>collision 40.0
41.0385207395984 3.94491
43.0187049616763 78.9712
43.0532609490736 8.29469
43.0781695966126 1.75786
43.1258721226734 0.535473
43.1536505245264 0.815374
43.1895863386696 0.541456
45.0340349969785 0.904346
53.0406124634683 1.62599
55.018565190518 5.67449
55.0553554922698 10.2724
57.0343405112861 1.76378
57.0701754853583 1.37722
59.0502183686034 4.0866
61.0309317396146 2.81652
65.0380607503129 1.20885
67.0548424213926 10.0177
69.0343510849505 4.07415
69.0699104130853 8.03034
71.0496350731578 3.70334
77.0384150476826 10.6705
79.0541533660041 18.7689
79.1338959408872 0.513462
80.0602826771648 0.574944
81.070372302445 18.3133
83.049780164273 10.7973
85.0644403767683 4.33611
87.0440915679338 7.14828
91.0544277390481 23.2858
91.1413200455833 0.556453
92.0602953640045 0.594855
93.070044784778 32.4523
93.1478043418794 0.654965
95.0500295523012 3.58924
95.0858516632415 16.9928
97.0645168075857 57.8876
97.1542144525162 1.10306
99.045487807606 4.06987
99.0807074127627 3.24271
103.054080688176 1.77313
105.069395736527 53.184
105.157690137202 0.940321
107.049403775298 5.71187
107.084712052027 24.2418
107.175442756393 0.681356
109.065036646355 39.2611
109.156941011664 0.935083
111.08115273127 6.00185
115.053336003535 2.77126
116.06376664871 1.45189
117.069711558377 15.0092
119.08507607647 37.0762
119.158600520849 0.822519
121.064585485922 100.0
121.163051562202 2.06765
121.208257380234 1.00454
121.305479648923 0.587617
121.541932577436 0.684377
121.779392046001 0.514431
122.065466050579 0.933842
123.079924391855 41.5576
123.181853058296 0.793336
125.05659107245 0.585034
125.093371223457 0.698745
127.051315340777 1.27097
128.062760004494 3.43952
129.068920773364 12.6663
130.077539461647 4.64479
131.085366476985 27.8657
131.159276534397 0.758316
131.191475438237 0.662098
132.074729882353 0.994617
133.063263284649 7.61108
133.100700036995 18.4126
134.069627944881 0.547829
134.106713455386 0.756627
135.079218723437 17.0481
135.112911510654 5.75647
135.183522438201 0.550955
136.084637725251 0.570508
137.096433172224 11.6512
139.076170694563 0.518375
141.070028824869 6.71169
142.075694167927 5.20035
143.084541904764 17.6663
144.092630055476 1.97711
145.10047149624 40.0443
145.181758434744 1.00663
146.105292477904 1.86554
147.11439888079 45.7711
147.205783532386 1.30533
147.254171122277 0.652428
148.086414251053 2.31449
149.094410166147 7.63023
149.126029379235 3.13538
151.110479343342 1.43952
152.053816145204 0.917459
153.070804282456 1.40632
154.077758521945 2.80531
155.08509602848 12.9908
156.092897856333 7.46952
157.100399342306 20.2626
158.092242670074 1.67493
159.114117899238 21.0395
159.230405053868 0.521196
160.086923442438 1.2298
160.120103127855 0.510168
161.101090829718 12.5807
163.110910485602 20.5725
164.079997474195 0.553176
165.06744195637 1.70979
165.123848535707 0.820045
166.075054179544 0.863917
167.085960645609 3.55822
168.092197951898 2.54827
169.099953026274 19.3302
170.067771768621 0.892546
170.108987503628 1.05532
171.115724481465 13.6408
172.119998196 2.19308
173.126307150074 13.8566
174.101114584446 2.00146
175.111376752026 17.3184
176.11618811457 1.64143
177.127170593536 5.46731
178.076464105948 1.4971
179.087144360403 2.89682
179.138881569806 0.901828
180.092404989712 2.20242
181.100131157671 11.2744
182.110226059403 1.74946
183.11576897756 11.6924
184.084027970922 0.619659
185.129854367831 16.2214
185.240877613766 0.59065
186.109749150956 1.05975
187.114917580254 6.65382
188.12179859413 1.34122
189.128269643011 8.27697
191.142248973931 2.63975
193.102387793067 2.58341
194.110029622198 2.26428
195.114862404131 8.24627
196.124061345418 2.61733
197.131102084862 6.87734
198.136696305776 0.900446
199.138432783076 3.63724
200.118579309676 1.5195
201.124798257237 3.29488
203.133399262281 1.09414
204.098695345892 0.527222
205.095818400465 0.822378
206.109778225338 1.48846
207.117540976437 2.92291
208.125305604938 1.6345
209.130832728784 9.77289
210.13717543738 4.18441
211.144366236672 7.97867
211.220945222518 0.514225
212.117924113964 2.0181
213.129397153955 3.44514
215.145712674143 2.84622
217.099286485126 0.940305
218.106255521185 0.80517
219.117289355279 2.51213
220.120249127076 1.48639
221.127197181169 3.30856
223.146713668474 5.61517
224.120457020991 1.23194
225.138771783136 4.83325
226.127582153175 0.571302
227.141344003772 5.14424
228.152354704777 3.27921
229.155266354977 2.15399
231.119066010312 0.889055
233.121000039791 0.997839
234.142835857606 0.86964
235.147225677235 4.04021
236.150939674953 0.864573
237.160044308777 1.52294
238.131360491811 0.673525
239.14307164192 2.92345
240.144324552587 0.634848
241.156269434671 3.38145
242.163610847295 1.08729
243.171823811638 1.94459
247.151919130727 0.537007
249.163511487624 1.4552
250.171671219126 1.1561
251.178051912247 6.77147
251.230807060008 0.985862
252.153126170726 1.3152
253.159187905812 12.1742
254.167785551223 2.62869
255.16200120344 0.742962
256.157295887287 0.741933
257.149340538842 0.678034
265.184005246671 0.827287
267.172508695161 2.35562
268.179484847135 4.49063
269.188480901857 7.22848
281.153359451285 1.47965
283.173166692544 0.634387
286.192906213962 2.7868
287.198926301092 0.722255
293.183364079715 0.974151
296.179917617623 1.92453
311.197539211402 1.12957

