>compound 6-Hydroxymelatonin
>formula C13H16N2O3
>parentmass 249.122757856046
>charge 1

>ms1peaks
158.060046297115 1.26433
190.085950784598 14.5863
232.095072501097 0.707309
249.123202415695 100.0
249.265992709172 1.86888
249.307849595357 1.0233
249.354547161786 0.663762
249.424356391934 0.519027

>collision 10.0
130.065089051971 0.869617
158.059476844041 6.84216
175.060869209245 0.690113
190.085827394899 100.0
190.210600651406 1.84889
190.249842021474 0.946318
190.290295200489 0.606376
190.375945258464 0.543141
232.095522398853 3.52658
249.122757856046 27.725

>collision 20.0
86.0601949258947 0.513387
103.053953328054 0.74901
119.072383406641 0.631071
130.064822545257 4.90941
147.067005505193 1.0882
158.059526415163 53.4464
158.173336629659 0.937188
159.066061915528 1.61597
175.061580119281 6.97085
190.085592658892 100.0
190.209489773372 1.72123
190.250707346334 1.00075
190.303266542497 0.576038
232.096219888458 2.61376

>collision 40.0
43.0185019639946 0.597435
66.0453159936543 0.555456
67.0421426255864 0.910591
77.0391828080595 7.31002
91.0537914852688 2.17238
93.0578174896834 2.01906
102.045481751439 1.047
103.054256988482 22.7652
104.049994511095 4.04184
117.058110205848 1.01417
118.065211133011 14.8233
119.073228081018 28.8335
128.04856686324 1.99822
129.055582830175 1.85701
130.06470151369 100.0
130.168043902582 1.62152
130.199249317548 0.710792
130.229214638077 0.523131
130.268418785043 0.508331
131.056023527521 1.17408
132.049767216138 0.757476
146.059471964876 11.4161
147.067619333767 22.6139
148.044363537032 0.644208
158.059197830084 88.73
158.172754834122 1.32541
158.208763034625 0.825178
158.312354772505 0.547244
159.067788285009 6.79398
160.063844644327 0.635176
174.053698342425 1.93246
175.06204620599 20.2992
190.087132317328 3.39189

