>compound 3,3',4,5'-Tetrahydroxy-trans-stilbene
>formula C14H12O4
>parentmass 245.080345935604
>charge 1

>ms1peaks
135.042020947894 1.25121
162.973274025329 1.55447
199.074780570438 0.730366
203.531531998664 0.915432
203.998440165311 3.22191
244.07593772243 1.74631
244.126992587794 0.515043
245.080142841925 100.0
245.274033204679 1.03903
245.508986333696 0.606937
245.807263435816 0.627334
245.981057401711 0.509171

>collision 10.0
71.0854000112324 0.67384
107.047649374903 5.22609
109.026699904821 0.799725
111.042118142501 1.13316
121.028847177684 0.908125
123.041440977858 0.869238
133.027960294507 0.588023
135.043999421723 22.3493
135.144841450365 0.527897
136.050410919893 3.37404
137.064026429485 0.917024
142.960523675402 0.589335
161.055112432607 1.53197
162.527047634919 0.626687
162.973405074791 6.26666
181.066091308773 2.0731
183.94511884623 0.856085
185.05365053263 0.735548
199.075226069118 6.44043
209.063183529236 1.16219
217.085857393238 1.20973
227.066675131794 3.37463
243.053490352442 0.66187
245.080345935604 100.0
245.265982192687 0.97724
245.33539492702 0.749544
245.471964211221 0.532054
245.651477011378 0.527778
245.714676660731 0.744129
245.786487049512 0.773758
245.896519556494 0.693361

>collision 20.0
55.0171770426082 2.37043
57.0665528403352 1.579
68.995327101273 6.37723
69.0174891480921 1.54134
71.0085815213587 2.76827
77.0383653326574 7.49107
79.0530065126573 4.00708
81.0306708452536 2.61948
84.95905402374 17.4166
100.07904733142 2.7059
102.940615313911 1.54064
107.048332460266 100.0
107.146070131069 1.92092
107.511719404529 2.50214
109.027731769724 9.00503
110.033868657878 2.31947
111.042356128816 2.91038
121.037403283848 4.26524
123.044736910342 16.911
128.059289168911 2.17277
129.06759067487 5.68879
131.087004516844 1.64591
133.025340397169 3.0066
134.036054779691 2.92302
135.043624688739 94.5829
135.819503677993 2.19659
136.05003895343 35.2848
136.141862967966 1.57125
137.06030977743 3.03532
139.037074611379 2.80214
141.070103993516 3.44177
143.086566014012 6.19351
147.048009440978 2.29944
153.069389198733 10.8912
157.069762707985 2.10322
161.059889497163 5.74621
161.133856690385 2.15484
162.974457603146 12.2595
169.099314645991 1.55318
171.077705076944 10.1551
173.054967122492 3.44159
181.064544793039 36.4518
185.058158428581 4.10107
187.098325957195 1.93004
197.061718219951 3.89128
198.059881644305 3.92339
199.074509238323 57.2573
209.056246942856 7.27129
217.08593646292 2.07454
226.059399337927 3.4802
227.069414337317 18.9742
245.080060510286 20.1297

>collision 40.0
25.2356385210849 4.35569
40.9682609573878 5.61468
43.0165159414782 6.65357
53.0376199839914 5.07894
55.01675856306 10.7128
56.9644041716797 5.35296
57.0740846498984 5.11285
65.0385855311384 6.35841
67.0561780747238 14.209
68.9980925391531 29.8842
69.021303732634 3.96589
69.0678042686732 9.42846
77.0395261820777 58.3541
77.0750533846943 5.62331
78.0444452426338 11.4733
79.0534671333087 25.4082
80.0606226362819 3.93819
81.033448435248 20.2951
81.059354956678 3.91273
82.9793470721294 3.65675
84.9585694815248 30.4575
89.040537249764 20.8817
93.0323481099447 6.00281
95.0486606379996 4.90425
105.040046190144 3.64574
105.070136378186 8.33858
107.048139473952 100.0
107.105691430373 5.12231
109.029479424799 10.5762
110.033690879135 3.91229
115.051391546149 21.072
116.054343091527 4.66358
123.043282023884 12.7193
127.051641354211 22.8382
127.982288455056 7.5591
128.062179900992 50.8082
129.068685122834 15.3531
134.034629895903 14.3852
135.043604516038 20.9213
136.053751865676 23.0395
141.064078887807 5.16572
144.085142483216 4.14458
152.062573034036 73.5973
153.067956723267 41.7823
156.048832058361 3.72064
157.059574814479 3.90781
169.068666091088 6.06943
181.065347309054 28.3589
198.069487742352 22.2489

