>compound Hepoxilin A3
>formula C20H32O4
>parentmass 359.219985249809
>charge 1

>ms1peaks
57.0701289934791 1.69642
74.056389971422 1.28114
107.640761407052 1.23919
109.096232128427 2.026
157.576850500458 1.28977
195.824538443314 1.19291
199.187794272732 1.28759
249.263894570715 2.11141
249.279284594379 1.6889
263.211619756131 1.13644
267.264882468601 3.73563
280.097027166871 1.4976
281.190558426132 1.69534
281.215355880145 1.4276
321.635104001642 1.85764
341.208713038453 2.59875
341.296914571935 4.21675
341.327004297068 2.57318
358.109691677342 2.68328
358.137366860993 3.14344
358.950033555779 1.46611
358.989910257461 1.45034
359.129289802608 2.95773
359.220174544598 100.0
359.30572807824 6.68705
359.342749510622 2.98269
359.39456820464 2.12347
359.462746750822 2.348
359.489485058866 2.10292
359.564482316813 1.67289
359.668333119945 2.93961
359.732597615936 2.83439
359.798332678134 2.94295
359.852600201541 2.2242
359.910386123921 1.31133
360.182328803423 1.34663
389.18232880342 1.0e-13

>collision 10.0
97.1028916940263 2.33954
121.021484779095 4.24101
137.131626047495 1.81604
161.036476407894 2.92002
281.301540652701 1.8925
341.20815381846 7.13014
341.312260097164 4.31191
358.291228055823 1.81673
358.327089627831 2.30747
359.219985249809 100.0
359.289296338726 10.0211
359.368459087458 3.02735
359.480281097058 2.19333
359.52461351222 2.7002
359.569034501275 1.65171
359.67433215616 3.52079
359.870121830354 2.54776
359.899765333751 1.90142
359.949809338841 2.08205
388.94980933884 1.0e-13

>collision 20.0
57.0466002059525 20.2641
79.0192825890238 20.3019
121.024088945615 33.5036
129.817403271311 12.1703
247.089840270127 12.2733
359.217888562284 100.0
359.26784423697 14.1992
388.26784423697 1.0e-13

>collision 40.0
57.0696348746033 100.0
72.0155244099223 63.4963
79.0569218452642 54.3977
95.0880442655377 79.3637
109.114423920729 42.6424
342.202214720383 41.1229
358.355401099619 47.9333
387.35540109962 1.0e-13

