>compound Hepoxilin B3
>formula C20H32O4
>parentmass 359.217458669539
>charge 1

>ms1peaks
73.3673368753936 0.500604
171.682400630588 0.626883
191.342781980114 0.688929
205.091303951849 0.645758
232.62656183944 0.84619
267.260294629438 0.823298
341.291954632658 1.05833
350.646963178809 0.686056
358.191037294286 0.830332
358.233474693042 1.19731
358.329895134041 0.501439
358.358835090647 1.16657
358.39053934953 0.639912
358.996888061758 0.551321
359.222528292878 100.0
359.34111954868 3.47206
359.387313160144 2.42268
359.407018808993 2.22375
359.441107811527 1.57769
359.472302172867 1.73391
359.495231865821 0.982811
359.543925591173 1.41097
359.600765084015 0.745745
359.683746290089 1.56761
359.726029760928 0.715974
359.759975495403 1.20511
359.847313195308 1.46745
359.904137383878 1.64927
359.940323612524 0.874572
359.97767472312 1.04029
360.014912700719 0.992863
360.055062463924 1.60554
360.123610330692 2.02086
389.12361033069 1.0e-13

>collision 10.0
57.0731779390803 0.613527
79.0217218262293 1.1405
235.090343231663 0.72959
281.289352532078 0.613834
341.308072100516 0.551906
356.800886736838 0.570318
358.211289164385 0.548478
359.072979999298 0.641877
359.217458669539 100.0
359.361353952649 2.67662
359.394779004261 1.77736
359.45489717521 1.45527
359.506839667609 1.07399
359.577232268673 1.08515
359.644197140248 1.07292
359.702545536172 0.750934
359.758210451024 0.682384
359.805347117181 0.923556
359.852302549834 0.965366
359.906014613257 0.785332
359.944867502762 0.925459
359.997499350746 0.696268
360.053807327357 0.603863
360.146247988089 1.11077
389.14624798809 1.0e-13

>collision 20.0
101.005043139797 2.86409
181.129975203596 2.20899
186.947199729856 2.68509
205.078979320591 3.54456
219.0690670146 3.46078
219.107230904778 2.48765
235.10126536852 2.48502
358.264891027981 1.80269
359.222975134056 100.0
359.297203662201 7.92398
359.34980397932 4.42721
359.377089722476 2.10858
359.459740925713 2.07415
359.512448318065 1.92431
359.814680208592 2.4429
359.867289383418 2.57014
388.86728938342 1.0e-13

>collision 40.0
174.130638557213 100.0
272.570753086406 74.4246
328.282075938294 69.618
357.28207593829 1.0e-13

