>compound FAPy-adenine
>formula C5H7N5O
>parentmass 154.072163006257
>charge 1

>ms1peaks
126.076725607898 2.95803
136.060927970288 0.81126
154.07205183699 100.0
154.185008982693 0.605842

>collision 10.0
45.0455197802169 1.71707
82.0402719229258 1.71968
84.0566945658202 0.69116
99.0668100133732 1.52607
109.050833450445 3.10366
110.035231460369 1.46111
119.03461515231 1.92289
126.077321089841 64.2374
136.061541062044 19.4608
137.045511969054 1.29066
154.072163006257 100.0
154.183985028151 0.551763

>collision 20.0
45.045741022291 16.1965
55.0302556425687 13.3221
57.0448400868471 1.72468
67.0300957038913 1.5819
72.0560234412887 3.58245
82.0400480938231 24.1265
84.0554956912747 5.39265
92.0250246506157 1.37237
94.039309548323 1.98777
99.0663542693585 9.8242
109.05071803486 30.6732
110.034994879744 9.37002
119.034707232078 19.9518
125.069545518628 0.512489
126.077081789099 100.0
126.179687839897 0.555915
136.060906286515 19.0887
137.046879674292 0.776669
154.071834145173 8.21237

>collision 40.0
28.0180797567426 1.59973
40.019588165231 3.21989
43.0297785797091 6.66839
44.0377283347281 1.84865
45.0455338153835 26.2343
53.014802870783 0.54063
55.0297801963441 100.0
55.0970970315083 0.536804
57.0452800555955 3.75885
65.0142166902634 13.5475
66.0209446097785 0.501051
67.0299087221857 13.1478
70.0421381781607 0.804245
71.0478277640309 5.28183
72.0575026735595 1.99252
77.0125585936141 1.34478
81.0327774609059 0.829134
82.0402404538306 16.9963
84.0557357360885 0.921262
92.0244214874211 15.2697
98.0588868077662 1.00194
99.0674724930725 1.18361
109.050047569435 4.70206
110.034820468051 2.10077
119.034471484165 11.1403
126.07693245073 1.70741

