>compound 4-Methyl-5-thiazoleethanol
>formula C6H9NOS
>parentmass 144.048386162579
>charge 1

>ms1peaks
65.0393748371011 0.647032
99.0264847200433 1.07045
112.021573819128 1.0106
113.029534064034 17.5408
114.036959719187 1.16887
126.037180638073 10.2057
144.048703575583 100.0
144.156579464254 5.61843
144.19181015917 2.11734
144.224672275415 1.02876
144.274132464859 0.686454
144.302830038347 0.829639

>collision 10.0
55.0516417702301 0.626883
58.9956913996433 0.698941
65.0394358321917 2.77705
70.9956362224649 1.98621
72.0033410395 1.55904
80.0498462777344 1.68912
81.0577115819323 0.669433
85.0107220784521 1.18379
86.0185179870653 1.06031
98.0067092309418 0.908141
99.0266106233994 2.57972
112.021689356289 7.83234
113.029762886044 53.8663
113.127143162079 1.93526
113.156552017299 0.828804
114.03690799311 1.69944
126.037221357952 17.3982
144.048386162579 100.0
144.156690252084 5.0156
144.193548274745 1.83605
144.273423759614 0.597022
144.302930002101 0.708545

>collision 20.0
42.0347467205315 2.49518
44.9802972337647 1.83421
53.0395440542618 1.66614
55.0498113631788 2.27376
58.995896611947 2.15124
65.0392418887273 6.53208
68.0503207489123 1.15342
69.0580790834874 0.857737
70.9956045432245 10.3575
72.0033984883028 5.05601
73.010732593139 0.932326
80.0500401244352 6.21313
81.0575548328055 1.29175
85.0109591867487 5.01324
86.0186269723966 3.09165
97.011071766516 0.867319
98.0065210809926 2.17851
99.0264134851597 4.82146
112.021702804307 31.8735
112.118441697284 0.907768
113.029798524731 100.0
113.127039700324 4.02066
113.156590815418 1.74804
114.03690983325 2.64267
126.037227817974 28.3928
144.047878666106 52.2143
144.156526900899 1.59262

>collision 40.0
39.0239675979796 5.54956
41.0391739808993 3.89409
42.0348824688054 14.7969
44.9803218057133 20.9208
51.0240515473135 2.51101
53.0394897038286 14.7939
54.0350221648057 7.22885
55.0471575083029 7.45483
58.9957408483549 7.94342
65.039342732977 10.4554
68.0502206920189 6.83442
68.9800614617733 1.82309
69.057980590981 2.94894
70.9957149200172 68.4446
71.0727840652642 1.86988
72.0034233913359 11.2338
78.0343377791069 4.15844
80.0499077326883 22.4081
84.0030337242466 2.17398
85.0108847766508 33.0133
86.0186613167309 5.94646
98.0061189874564 4.12833
99.0261978417841 2.10119
112.021732050973 100.0
112.118149876626 2.83944
113.029475945574 52.8926
126.036964202867 3.86503

