>compound trans-4-Hydroxytamoxifen
>formula C26H29NO2
>parentmass 388.227416702758
>charge 1

>ms1peaks
72.0809667084141 1.1712
388.226038271172 100.0
388.467454166755 3.26695
389.214489722513 0.66991

>collision 10.0
72.0816421875375 9.84207
388.227416702758 100.0
388.470567506842 3.45089

>collision 20.0
42.0351224194383 0.528304
44.0508143835671 1.64347
45.0585979240932 1.63559
46.0667004102188 0.633307
58.0661311738402 1.91623
70.0664365449106 1.34766
72.0819054127064 100.0
72.1875723442016 2.70443
91.0552711046743 1.05204
107.049380097871 1.13279
129.070369174888 2.35141
145.064883589157 2.16686
166.122776627034 2.17648
223.111730321032 3.15959
249.127920196971 0.862893
316.146156114493 1.21098
343.170606151251 0.979056
388.227603985626 91.4747
388.471143091067 1.73726

>collision 40.0
42.0347206614795 3.07686
44.0502281520138 8.85085
45.0579926756218 6.06208
56.0502905133004 1.02235
57.0580523328957 2.15858
58.0656269514928 1.50817
70.0655579207703 6.28366
72.0811675484277 100.0
72.1853739553626 2.85894
91.053814265001 1.88411
105.069187876296 0.602538
107.04867050985 2.16257
117.06932057678 0.573223
121.065062749936 0.655646
127.053188119526 0.751301
128.061998662044 0.56
129.069067920332 3.46685
145.0643747176 1.81439
194.07047815618 1.14454
207.079374699787 1.47649
208.086053873638 0.530263
301.121027371329 0.600757

