>compound Isoimperatorin
>formula C16H14O4
>parentmass 271.095401550247
>charge 1

>ms1peaks
147.042114720718 0.632032
203.03281183573 70.9378
271.095401550247 100.0

>collision 10.0
69.0711294480608 1.65308
147.044816604161 1.27788
159.044776938697 0.604788
203.036127138305 100.0
271.098295832248 1.84157

>collision 20.0
41.0393432143209 1.11037
69.0700193551574 5.08517
91.0535952708745 1.38315
119.048097719529 0.686363
131.047542163768 3.63914
147.042324712068 10.4267
159.042152792567 6.37448
175.036838636996 1.70713
203.032726092971 100.0

>collision 40.0
39.0239399533763 0.723507
41.0396899072699 11.4071
65.0389025464199 6.95941
69.070277623305 6.90999
77.0386842376893 10.8643
91.054219500627 65.4715
102.045519867139 1.258
103.053736363456 10.8941
119.048235056114 19.1026
131.04817990418 33.0466
147.043161524638 100.0
157.027198883597 0.774322
159.042677961396 7.96705
175.037435808231 1.7916
203.032149982965 11.3676

