>compound Tetrahydrofolic acid
>formula C19H23N7O6
>parentmass 446.176992730521
>charge 1

>ms1peaks
120.045953326799 0.660808
165.065312809515 1.70505
166.073116074049 7.68113
167.074558618501 3.24254
178.072025820343 5.76539
179.073666995021 5.08057
297.105757917978 0.758746
298.109132767133 0.795999
299.124898610637 11.448
317.137804429394 0.693878
445.169273865675 56.5299
445.427570281452 0.577126
446.177770586759 100.0
446.434802276391 1.05687
446.611452648181 0.803184
446.678888174089 0.676127
446.888873415009 0.786721
447.082616288473 0.681274
447.177836725368 0.798977

>collision 10.0
120.046317774012 1.03876
134.056864293502 0.859224
149.0462258418 0.802721
165.063976754566 9.49632
166.07164452903 40.9483
167.073863489851 8.27038
178.071990848148 16.236
179.073589427939 9.12712
180.080504678246 0.511296
271.138905499043 0.59632
297.108518951453 1.71293
298.109468367476 3.52424
299.124354812357 100.0
299.284714411888 1.23698
299.342028550682 1.01463
299.429397834927 0.635558
299.625619486835 0.607244
299.749733308305 0.537528
300.106259174657 0.809162
300.173516737607 0.519788
317.136180673181 2.57571
428.168158803636 0.839929
445.170222966684 39.5257
445.351798359992 0.857852
445.472304459787 0.578577
446.176992730521 67.2183
446.363387037484 1.28681
446.451108177359 0.786153
446.571795950019 0.819836
446.698567548102 0.610485
446.856895158578 0.634313
446.97888118205 0.63114

>collision 20.0
107.023588814472 0.516574
120.04420611358 3.77628
121.045811933251 0.636354
134.062159961929 0.936732
152.055834502838 0.512694
165.063598777651 8.66831
166.071225492712 56.4019
166.189302560914 1.02907
166.22286972908 0.505771
167.073965784211 8.19862
178.071771086731 9.88985
179.074686392165 6.35245
180.082771731364 0.910059
236.111930270785 0.581901
271.129485226547 1.84006
297.108879232716 1.30228
298.111890029906 3.15203
299.125248388367 100.0
299.278981647157 1.76343
299.352830309717 0.686972
299.40456244818 0.523395
299.811539649593 0.656208
317.13795400081 0.593447
445.172253321999 2.38502
446.174947393073 2.44014

>collision 40.0
56.0500330566313 0.826587
65.0384962988364 0.726136
79.0284698133334 0.939658
81.0442787286629 0.569412
86.033873841464 1.28329
92.0481542149268 1.09389
93.0435629349747 2.04243
94.037127352131 0.967609
96.0559061775436 1.90378
105.05258008317 1.27104
106.063606050696 2.90003
107.023490840431 6.27016
110.07159499255 0.639619
111.076255598516 0.679206
113.045588131921 2.1219
120.044052043602 40.3582
121.048399769286 4.25871
121.097927268827 0.673856
122.052626194298 0.562847
123.077937805895 0.53539
124.050021055037 3.45504
125.048911232303 0.578782
134.060205496504 9.3571
135.064714683697 0.814027
136.051810496961 2.06675
137.047657626526 2.20198
138.071741533121 3.8868
139.06415874763 0.786356
140.057253894021 2.47976
148.062469807653 1.2605
149.045792464826 9.90228
150.066757580781 1.53991
151.068455244317 1.48204
152.057444765308 3.97572
161.044465170545 2.57131
162.046809569034 1.14638
163.058724806106 4.23509
164.05652491138 2.63117
165.063993736928 11.3442
166.071366669153 100.0
166.18786097281 1.4249
166.240517901768 0.682633
166.319806771736 0.599502
166.426559666888 0.840499
166.593521066962 0.600638
167.07443837455 9.2555
178.071735065642 12.2548
179.075037509376 7.11901
180.085788043167 12.3645
271.129731600144 6.93895
299.124011561977 29.6463
299.263355906518 0.653798

