>compound DL-Indole-3-lactic acid (3-Indolelactic acid)
>formula C11H11NO3
>parentmass 206.079973721081
>charge 1

>ms1peaks
118.06556689434 1.34548
122.517624696313 0.616221
130.064977232335 4.69236
143.023968817463 0.570535
143.535682760163 1.92165
144.0351761646 0.540147
160.075097606192 4.29923
164.046285913125 1.63454
164.925785859078 0.615706
170.061212642674 0.927716
185.014580545608 0.675434
188.071927473558 4.04169
205.069359424905 2.14324
206.080546390555 100.0
206.133301272244 20.921
206.211089296795 0.671336
206.636189282532 2.63135
206.703231578032 0.683218
206.948922898296 0.680968

>collision 10.0
58.0665814920837 7.22616
72.0821054421102 1.78295
73.0901137290447 5.86254
84.95051357048 1.9433
89.7485233039395 1.94039
91.5183735483446 1.60335
92.0191955355873 3.3868
114.016876019197 2.39666
115.053554937738 3.67719
118.065531521132 35.0505
122.515143249818 4.59903
130.065006179853 58.07
130.105653745518 1.70224
132.082094105202 7.2435
134.020891045287 1.89855
134.084021688125 1.7823
134.522770544551 3.06949
142.057872054186 3.40846
146.058844273647 21.6481
153.990273999938 3.06319
160.074968365706 84.5315
170.0570779251 12.6661
188.070106659248 100.0
188.123128536975 5.61814
188.272677353236 2.63307
206.079973721081 93.5155
206.135157989345 18.7513
206.631527823268 2.45349

>collision 20.0
58.0660308623467 16.744
59.066326501759 1.4192
68.9651802720737 1.65451
73.088446034611 3.25071
91.0536594180583 1.56942
91.5153745142369 1.54582
113.960621709155 2.34919
114.01207486988 1.28961
117.057211412244 2.95529
118.064574176889 100.0
118.528243378338 1.29
124.021610968923 1.24666
127.056598376425 1.55263
130.064396116187 80.3397
131.06606959728 9.03513
132.078882867567 13.7595
142.06282270769 2.93814
143.069933265765 2.32625
144.078572417512 11.7485
146.059771642252 46.0321
160.074572657898 19.5876
170.058135841546 26.1188
188.069842007759 28.3182
206.075703558682 4.73068
206.147547145245 1.38175

>collision 40.0
39.9618141082416 1.43945
44.0500103933775 2.60094
55.0564454360725 1.19414
58.0656760476242 6.55538
65.0370282088582 2.02838
68.9666882012063 1.80578
77.0391950503702 11.5904
89.035986990839 1.85455
90.0461475303812 6.53482
91.0539025581185 27.0892
103.055069970634 16.7641
104.048821662291 1.24161
105.066419387996 1.72301
115.054809992361 40.9758
116.058762892473 3.89755
117.058384077876 22.8884
118.06533967996 28.3379
118.46739187058 1.2056
121.092288442365 1.60038
128.048477657002 7.8804
130.065054251572 100.0
130.445582417298 1.14784
131.068795128061 4.32809
132.074035965999 1.20003
133.079711358002 1.3829
140.047536027582 4.00625
142.062259336422 11.1564
143.073452986997 6.99717
144.080464589459 3.12484
170.057627450151 1.19958

