>compound Isoscopoletin
>formula C10H8O4
>parentmass 193.048399308493
>charge 1

>ms1peaks
133.028438538909 1.13009
178.026817850427 0.915847
193.049533931307 100.0

>collision 10.0
94.0406412796381 0.544111
105.032503137026 0.719143
122.03578084389 1.01429
133.027150572711 8.58837
137.058967326492 1.75598
150.030120570628 0.606484
165.053039575565 1.6218
178.024581694785 4.64329
193.048399308493 100.0

>collision 20.0
51.0233769994529 0.796473
53.0387396943383 1.08794
65.0384677588105 0.611802
66.0467806975859 3.00895
77.0387719766729 4.72569
81.0328845013234 1.89357
89.0380025172938 1.49679
91.0539485485417 0.725453
94.0406017416671 6.0061
105.032881134704 13.1547
109.065069598422 0.508537
117.031270733429 1.54144
121.028779934025 0.697734
122.034980053716 17.519
133.026783297823 100.0
134.034666914363 1.06886
137.058082426028 30.2414
149.057536862228 3.28423
150.029670718529 13.3413
161.020362498236 0.759757
165.05309916437 5.97529
178.024159796032 79.3444
193.047979749373 76.769

>collision 40.0
39.0236287605106 1.26609
40.0315872102883 2.57464
50.0148460156567 0.749353
51.0238205803481 14.5607
52.0318115757161 1.25148
53.0396879871646 35.3231
53.1047127895017 0.570421
54.0460490944818 0.560763
55.0185548546955 1.85164
63.0241436138885 0.935567
65.0394345408746 15.3839
66.0110232615689 0.859377
66.0469280980106 73.5392
66.1199740379716 1.3104
68.0257191176871 1.89416
68.9983899801071 5.3438
76.0323889041932 2.47593
77.0391967072335 57.5298
77.117050204706 0.765919
78.0463027938344 3.25839
79.0189464817011 4.4518
79.0526286587882 2.43258
80.0262918220101 0.704194
81.0338952229104 55.9773
81.1156224790153 0.798992
89.0396306716403 1.56596
91.0529915907826 1.98417
93.0334332152468 2.72519
94.041480316528 100.0
104.025338272327 0.830893
105.033164195908 30.3294
106.038849379688 0.531728
107.048746325926 0.685649
121.027866182855 11.2288
122.035802048841 58.8809
122.132629545341 1.06192
133.0278225815 8.5871
137.058440569964 7.40205
149.021845693923 0.511579
150.030304620727 32.3551
161.021925917198 4.98822
178.026233548365 7.97598

