>compound Dulcin
>formula C9H12N2O2
>parentmass 181.097301760198
>charge 1

>ms1peaks
108.042944670854 0.735535
110.059481944523 0.594319
136.074248530753 0.77863
138.089924841064 1.12102
181.095801761612 100.0

>collision 10.0
65.0395651261356 1.32165
81.0358130981406 0.611598
92.0505904897338 0.828327
93.0356444914922 1.46675
108.044616875644 9.89081
109.052678541274 0.769363
110.060097873777 8.77333
136.075487683009 21.527
138.091245119397 24.7909
164.070318008759 2.42713
181.097301760198 100.0

>collision 20.0
39.0248469967107 0.658248
65.0395857147482 9.90847
67.0525227928393 0.63672
80.0491084096122 1.18385
81.0337426126329 4.11947
82.0654200160231 4.34772
92.049729185266 7.97962
93.0376811182952 13.9536
108.044462509494 100.0
109.051866850007 4.30496
110.060254053603 63.1465
110.154134829444 1.08678
136.075201823182 31.7778
136.177313619729 0.502269
137.082664755091 0.818817
138.091183769416 27.823
164.07106396405 0.948652
181.096343905972 3.40742

>collision 40.0
29.0383885166829 0.604324
39.0245467652806 7.45378
42.0347783030299 0.943555
44.0140982145204 1.71521
51.0248940803693 0.591645
53.0396339534101 11.0369
55.0549656176949 1.89448
64.0307669358161 0.566749
65.0393413756746 100.0
65.1117789845572 1.82789
66.0465507644199 1.40653
67.0430540538985 3.62128
68.0130872600961 4.54993
77.0386632164943 3.29831
78.033768330749 0.518369
80.0497347485989 16.6468
81.0340476743807 60.3979
81.1142487154707 1.07179
82.0654279996012 5.067
83.04784970174 0.560203
90.0345007247881 0.971656
91.0515342808724 0.735044
92.0494721525191 9.74427
93.046033394427 17.7416
94.0408899592574 0.725989
108.043816620164 53.3282
108.138212024002 0.880426
109.05243642656 10.5546
110.059766028682 8.06752

