>compound para-Phenylenediamine
>formula C6H8N2
>parentmass 109.075665998353
>charge 1

>ms1peaks
65.0396464895454 0.640105
92.0501976829011 3.02053
108.0691691602 0.597696
109.077394411635 100.0

>collision 10.0
65.0390179726146 7.95197
80.0492121906411 0.778793
82.064774370648 1.76109
92.0493865009616 48.1392
93.0569959801101 4.33604
108.067583819535 7.21974
109.075665998353 100.0

>collision 20.0
39.0243743128636 4.87523
65.0398606404182 100.0
66.0406544813427 2.36877
67.042629973157 1.19037
80.0503305840215 4.25682
81.057602690917 2.43605
82.0653185911282 4.56382
92.0505251583181 89.4103
93.0581757173291 22.8828
107.061166331028 0.931813
108.068789901962 27.7535
109.076216346368 20.8601

>collision 40.0
38.0158742368086 0.710688
39.0239708933731 83.9796
40.0238689921641 1.74971
41.038026585922 1.77444
42.0346079992641 1.34574
50.0157432172456 0.569279
51.0233821296649 2.60055
52.0194167204824 1.95959
53.0388542101927 5.21783
54.0357621133511 5.14336
55.0419328514368 0.895987
62.0150609869996 0.779504
63.0233953114922 2.65876
64.0264593974149 2.41317
65.0389434144196 100.0
66.0447411137221 14.6976
67.0417455715994 4.14603
74.0173861106064 0.568754
77.0384921226218 0.517364
78.0338178695422 1.63943
80.0495797200618 25.7976
81.0556942533354 8.08591
82.0583599990338 0.71214
90.0335980966812 0.826692
91.0408045683565 1.7054
92.0490801709385 6.84108
93.0570458809285 9.83021
107.059650773277 6.08509
108.067132699279 5.35112

