>compound Melatonin
>formula C13H16N2O2
>parentmass 233.128522528802
>charge 1

>ms1peaks
174.0906916171 15.4496
191.118257444664 0.75781
216.102799738911 1.60805
233.128121551819 100.0
233.318431884901 1.50315

>collision 10.0
86.061215582956 0.82013
159.068013946174 1.52566
173.084085764129 0.74377
174.090790261851 100.0
174.253726687675 2.21512
191.118042650093 1.09397
216.103064255596 8.1546
233.128522528802 13.9414

>collision 20.0
86.0587643403786 0.565484
117.069567547258 0.569021
130.068306592052 0.625422
131.07308554785 2.29565
142.065969971334 1.29886
143.073652698393 4.0792
144.081229557772 1.59036
159.068160006477 13.8345
173.08253864644 0.804555
174.090796311933 100.0
174.253503638954 2.30789
216.102469529881 2.60843

>collision 40.0
28.017896131863 0.658844
43.0179403087022 0.818827
44.0497666236968 1.63588
56.0483350256162 0.63419
65.039658581 0.714561
77.0381070611975 2.28881
78.048265977133 2.2184
79.0514228378154 1.0263
86.0598907114324 1.10198
89.039574082435 0.755153
90.043061700052 0.503774
91.0546976659137 4.78846
93.0342536587212 0.505998
103.05456860621 1.92765
104.056919917225 3.19946
105.05676242119 4.55052
107.048772936245 0.74534
108.054686758654 0.685589
115.053733856725 15.7588
116.056981104553 8.51652
117.064518309289 5.9785
118.063684040552 0.716821
119.082282421303 0.968226
127.053583388981 0.690654
128.054456089946 2.00786
129.06810952828 0.94776
130.065423774511 79.7034
130.210216923123 1.50793
131.072611144961 100.0
131.2176540252 2.09716
132.054177158484 4.56539
133.049208315068 0.694375
134.061107861323 0.75405
140.047241488681 1.34052
142.064587021476 3.505
143.072402913675 43.0312
143.225049618632 0.841312
144.080289367415 6.21574
146.062066234409 1.1148
147.076701627759 2.04175
148.06662937416 0.640641
154.063660597343 0.573708
158.058951299944 5.97776
159.067692718271 80.9289
159.226259751444 1.53353
167.075175121931 0.988488
172.077019122545 0.790976
173.082438536753 1.97469
174.091744986106 15.941

