>compound Serotonin
>formula C10H12N2O
>parentmass 177.101998660204
>charge 1

>ms1peaks
160.075560992476 77.3625
160.192415485185 0.828964
177.101998660204 100.0
177.225113713172 1.60986

>collision 10.0
115.053959304067 0.609163
132.080320331433 0.892377
160.07519546229 100.0
160.191637159588 2.3644
160.227903224161 0.832913

>collision 20.0
67.0422406324123 0.885567
105.069708228956 2.48656
115.054149032289 10.9578
117.057778387831 5.73616
130.064883327934 0.697786
131.060092366431 0.62294
132.080608686445 14.8672
133.0634629784 3.05369
142.064805047877 4.72902
143.071480211285 1.4289
159.0674661353 2.21146
160.075274989559 100.0
160.191791507846 1.6016
160.227377004414 0.562044

>collision 40.0
39.0230678116272 1.76722
51.0230514081634 2.4156
53.0391594563158 0.74585
54.0345876137184 1.66296
55.0184179598917 3.37781
63.0235295729366 1.2486
65.0391374941886 11.8838
66.046245300031 1.13159
67.0421626697998 8.25126
77.03912233802 36.066
78.0452758727987 4.51154
79.0544294309632 19.1017
80.0500870265314 2.0803
89.038821301429 14.8337
90.046706519676 9.28635
91.054374908416 8.32462
92.0504245560595 0.794673
93.0516539629702 1.33535
94.041306127121 4.55634
102.045053244321 0.815449
103.054227953328 15.1449
104.050275184578 9.41443
105.067806387405 21.3631
106.053864724029 1.49954
107.0487830012 3.70373
113.038883248957 0.576751
114.045474753123 1.80472
115.05424395975 100.0
115.153849515667 0.726281
116.051334721808 10.2952
117.057269966165 55.1968
118.051174596955 0.747064
120.042994789218 0.65041
128.049649732933 1.25363
130.064821938032 24.424
131.065881469636 10.7357
132.078441799154 6.80909
133.052512810432 19.884
140.04900894662 3.3611
141.056863124727 5.67053
142.064897053013 6.47221
143.072453777577 12.9589
144.0450555448 2.07074
145.051423451064 1.73563
158.059260023212 4.90676
159.067513824899 18.4855

