>compound Prostaglandin I2
>formula C20H32O5
>parentmass 353.235058080065
>charge 1

>ms1peaks
101.060808900256 0.63696
111.044790730431 1.10967
129.055514473068 1.04908
181.085890832174 2.12277
189.164920205071 1.10951
193.088613468758 0.525555
275.957072653714 0.721282
299.203203175204 1.02351
317.212895279015 9.14762
318.217436580767 1.90236
335.224805268312 7.56816
336.229143023237 1.77899
353.235058080065 100.0
353.397776423631 2.29557
353.4590779573 1.20783
353.546831356866 0.892901
353.63399527537 0.837347
353.726042028357 0.789276
353.825531651766 0.704488
353.949872606994 0.69918
354.009166206909 0.580878
354.0603097044 0.535192

>collision 10.0
55.0538505736335 2.89932
67.0536657243563 1.52513
69.0696541694289 3.48818
71.0851924625824 4.64548
79.0532374852045 1.78985
81.069574770675 1.53652
83.0482218443949 3.00481
83.0808844430023 0.589514
85.1011733657831 0.665624
91.0536553359966 3.15693
93.0691162198798 5.67223
95.0496228183122 0.590868
95.084813722382 1.09905
99.0793698373023 5.75784
101.058741417133 12.6027
102.063203615645 0.565054
105.068634288027 1.07858
107.085264313113 0.909485
109.094431419174 0.717402
111.043016930649 28.0883
111.112926579154 0.929294
111.139345394262 0.620399
112.045691119138 1.73268
113.056870748713 0.876156
117.068651206863 1.95081
119.084407415612 3.89338
121.063038818444 1.11794
121.097599162263 0.689997
127.073428197524 0.645374
129.053706671536 18.2702
130.058390470866 0.789824
131.084687497961 1.34243
133.099643578493 2.6389
135.09838676844 0.693713
141.069949685994 0.570259
143.082369600387 0.706207
145.099037508041 0.930171
147.085655404488 2.08666
149.130977552692 1.95863
153.125621870085 1.39411
157.09913688733 4.6768
158.102752656799 0.574993
161.126280576452 0.619291
163.07244575197 0.931789
163.145379427467 3.41894
165.091570502444 0.695705
167.082486855951 0.736491
169.093907336766 1.49929
171.112918560853 0.571954
173.129589695601 7.29598
174.134459818389 0.701029
175.1099655096 0.557547
181.083890079481 21.6808
182.086439079649 1.79844
183.107746723053 2.5839
185.094887951856 4.08801
187.144051765141 1.31553
189.160994528069 17.7783
190.16404340112 2.36019
191.141321453662 7.28895
192.144119908994 0.937566
193.084577797507 5.55485
194.093792558051 0.72888
195.935373092816 0.542612
197.126145493695 0.804126
197.93816651876 1.17815
199.144611017476 1.06326
201.106371928849 1.67982
203.104319103229 1.77023
205.157160530526 0.794834
207.115353694933 0.540284
207.171301049597 4.56192
208.176258763459 0.799118
211.105864321856 1.83936
215.140806788726 2.64177
219.134736093521 1.41076
221.118569201954 1.00773
227.178406836366 0.599082
233.150100787391 3.16555
237.157623608667 0.671946
238.148154863694 0.51938
253.192836891159 2.97751
254.196508256834 0.916092
263.17924138869 0.897501
271.20406348459 2.70245
272.209453909183 0.694086
273.183830763471 0.682308
273.95092688526 0.904666
275.950751868868 1.84521
277.143230727808 0.71076
281.18649634809 2.91261
282.191723182031 0.523765
289.21526353649 0.618491
299.198260902023 10.6219
300.202341811423 2.00285
317.208560120804 64.9155
317.371196082639 1.00751
317.408834832515 0.666973
317.459147122802 0.634152
318.21160566699 13.5773
319.214873519545 1.7723
335.219460432565 38.0534
335.38030398715 0.735407
336.22120699867 8.21018
337.223679042934 1.05791
353.22989884397 100.0
353.397870254598 1.9034
353.453524975303 1.14267
353.499772924683 0.842418
353.535314779799 0.757406
353.632979003573 0.77462
353.750036070916 0.759435
353.81581227377 0.572296
353.848855681776 0.560413
353.923909427699 0.632882
354.032474202591 0.653076
354.232298481524 22.8873

>collision 20.0
55.0190824049857 0.584485
55.0551076854356 19.4773
56.0584493489318 0.900499
57.033362714136 0.556857
57.0701099618577 1.30796
59.0500646329104 2.53882
67.0549197595338 5.88013
69.070576863844 11.8279
71.050123913366 1.73485
71.0862011933893 17.567
72.0892373386313 1.05956
77.0399925190998 0.623976
79.054464785687 5.93966
81.032836815033 0.750758
81.069987773725 6.51452
83.0496345391591 24.3887
83.1315766135745 0.533037
84.0543408138948 1.00012
85.0657379779673 1.92986
85.0990972090192 0.589755
91.0545514476595 10.257
92.0581892091424 0.719666
93.0700122187262 15.905
94.0734023486686 1.13418
95.0496398848878 1.34969
95.0849807059081 3.43654
97.064911979742 2.9917
97.0978239459418 0.908326
99.0809099732254 14.4249
100.08562319124 0.999125
101.060135207107 68.1218
101.151431513361 1.33135
101.178335679374 0.635532
102.063956993014 2.57957
103.067799288764 0.551989
105.07066824684 7.12063
107.07899475791 2.89373
109.063996964095 1.84801
109.101001225691 2.14783
111.044463472452 100.0
111.139552220384 1.78756
111.173677568374 0.762084
111.201024885024 0.528177
111.270029700217 0.581368
112.047730484675 6.59551
113.059980890192 1.71444
117.070319665202 6.98342
118.073112910032 0.534659
119.085685304927 16.5071
120.088315767961 1.60143
121.06530136398 6.36047
121.098892330074 2.63002
123.079401450954 1.26119
123.114151295981 0.653
125.060772293075 1.09239
127.105334058513 1.02985
129.056198153595 27.0467
129.159244994177 0.508551
130.063466802539 1.8226
131.085389801395 6.49218
132.089862047712 0.525738
133.101850821058 6.51251
133.946458102348 0.530845
134.103838600428 1.0151
135.079782939875 2.29299
135.113345310622 1.19369
137.101080675623 0.936938
141.070481176835 2.01264
143.086215913306 3.06729
145.100669276016 1.94559
147.092982819319 3.94768
149.131967546018 2.00479
151.939684947212 0.513394
153.127294319724 0.85241
155.084500693984 1.56674
157.101484217145 11.8877
158.105498189741 1.57457
159.112448850997 1.08492
161.124773346479 1.43387
163.075500648923 2.70541
163.146314865449 2.38171
165.089279645168 1.0092
165.934070530423 0.530475
167.084712199448 2.63805
169.099504621307 2.49257
171.115096669053 1.32731
173.132398201901 10.6647
174.137408470049 1.23089
175.113219076212 0.903235
181.086925747233 16.8194
182.091860050651 2.06684
183.116166808875 3.29019
185.097334605637 10.0298
186.09974245111 1.39784
187.145046724162 2.41412
189.164224211946 20.1687
190.16656651743 3.45273
191.143738882559 8.2023
192.148752856069 1.12224
193.088662265397 3.97943
194.094768386485 0.500081
195.106649451122 0.516256
195.936258884358 0.660179
197.129548419896 1.5494
197.941085362347 2.37313
199.145908251772 2.72061
201.121377412004 2.00639
203.107425659456 4.53628
204.111017188103 0.692636
205.161750895208 1.38631
207.112417720752 1.15733
207.175240805669 3.12114
209.018238991031 0.510777
211.115537956552 1.61083
215.144829278254 4.96545
216.149620153861 0.951086
217.143565756206 0.541148
219.139786163337 1.06383
221.121912338979 1.40713
225.134689347806 0.516468
229.123341207413 0.878058
233.155437886681 4.75447
234.157665023447 0.766647
237.162940976603 0.867463
238.143713347644 0.63566
239.181978689781 0.572245
253.196546147899 3.16023
254.198234808584 0.848318
255.180464569868 0.663784
263.180337013133 0.743388
271.2060641376 2.99419
272.207596948759 0.648375
281.193860936895 2.08603
289.215239308899 0.731588
299.201744166064 5.55588
300.20586711015 1.48886
317.213103094863 16.4453
318.218597398111 3.21231
335.221830193592 3.11783
336.230270130025 0.560708
353.23791502673 2.89698

>collision 40.0
55.0176080430868 2.95922
55.0542985671429 100.0
55.105384008317 1.71619
55.1225053838967 2.11403
55.1440400307758 0.904237
56.0571848630748 3.37126
57.0339316666179 1.74746
57.0697623048438 2.40202
59.0490288939974 18.5964
60.0515860517921 0.824507
65.0384740837895 0.995331
67.054059317725 11.161
69.0697595182174 5.70688
71.048672600358 2.48002
71.0852201315533 9.99499
73.0651644195569 0.529195
77.037994244683 4.00627
79.0537294348702 10.1659
80.0566642298969 0.866951
81.0315282498348 0.763804
81.0689489570064 5.55342
83.0485152717648 55.4002
83.109365252278 1.04566
83.1323003209638 1.21622
84.051675374252 3.05534
85.0640028921075 0.87622
91.0531149513446 21.8946
92.0569262548944 1.37413
93.0694091423102 10.4405
94.0718591718246 0.935812
95.0468240484903 1.36812
95.084540270503 2.25279
97.063529668903 2.87459
99.0788256851972 0.974213
101.05845002836 37.1166
101.126563802283 0.682059
101.150892498789 0.777691
102.062756505166 2.02352
103.054300352581 1.15834
105.068508457723 11.2996
106.071445149532 1.29468
107.047243728881 1.63792
107.084234777606 2.56658
108.085681773102 0.564345
109.063567307447 1.46234
109.098388536788 0.872259
111.042585496007 24.8263
112.045942592394 1.85064
115.054131508169 1.87012
117.068203438164 8.50913
118.072919095996 0.751621
119.04642376561 1.311
119.083691329018 8.73791
120.087511913333 0.879715
121.063278082304 4.75187
121.094704565013 1.31304
123.079881823709 0.911888
128.059478870168 2.30969
129.068058927553 7.74321
130.073462628001 1.14173
131.083539481447 5.65049
133.09826755202 2.07461
135.079161859987 1.54893
136.920663330753 0.700589
137.092855179089 0.669166
141.067494560753 3.10455
142.075387206457 2.89057
143.083513632491 6.22682
144.087031379881 0.729659
145.0953778637 2.01429
147.097674510565 0.783799
149.093796334115 0.670489
154.073998629809 0.513257
155.083479006308 1.74502
157.099291738134 4.20774
158.101314421279 0.720577
159.078290678884 0.660946
163.071811311844 0.63025
167.084620424795 1.24406
168.090458210865 0.505109
169.099250439735 1.14205
173.130089900878 0.917459
181.086180935177 1.28967
183.116081631397 0.911126
185.094356489817 2.25336

