>compound Clomiphene
>formula C26H28ClNO
>parentmass 406.195438196966
>charge 1

>ms1peaks
100.111821152061 1.32231
406.195438196966 100.0
406.442630594218 10.0171
406.696232885231 0.589717

>collision 10.0
58.0661158271925 0.526799
72.0814066425416 0.549095
100.112677404427 10.3294
406.196311424261 100.0
406.443288487731 9.92877
406.696828748764 0.593493

>collision 20.0
44.0506173146951 2.26347
58.0662264435513 5.98421
72.0818616068775 5.65754
73.089739396123 1.39864
74.0973366504318 0.690389
86.0972763088429 2.28306
100.113038164295 78.2976
100.239072884243 4.75728
297.127240576339 3.50664
406.194141804549 100.0
406.442044164607 6.14345
407.149227572398 0.509006

>collision 40.0
44.050234275104 31.6847
44.1309810670319 0.867544
58.0657643531309 59.1219
58.159255948188 2.18287
70.0658294572264 0.9042
72.0811348452631 47.1177
72.1849922914197 1.18906
73.0890445659814 1.90604
74.0963741095687 1.13187
86.0967415992107 4.32277
100.112100956016 100.0
100.238923636861 3.95464
165.068620686898 0.806004
178.076654652677 3.79658
191.084115788851 0.859161
199.030106617576 1.36775
219.079071868651 0.695552
239.083195061003 0.816134
241.100141598189 2.80666
242.106983032337 0.951521
252.092247762835 1.42343
253.100226194023 2.77453
254.107192734375 2.18082
269.109175213684 0.558199
270.10201531018 0.821136
277.093912481044 0.532018
281.094892417119 0.657507
297.125713651274 1.19388

