>compound albendazole
>formula C12H15N3O2S
>parentmass 266.095741253711
>charge 1

>ms1peaks
234.068629226065 2.5531
266.095778295611 100.0
266.297852415128 4.61987

>collision 10.0
191.014516246616 0.653531
192.023150175063 0.640129
234.068969271035 23.8497
234.256603122609 0.666481
266.095741253711 100.0
266.297928744369 4.43785

>collision 20.0
159.04190940733 1.27054
191.014433275387 5.57257
192.021955675646 4.95477
234.069512129416 100.0
234.256899311081 5.38002
266.09553324812 18.3484

>collision 40.0
41.0396806853294 0.668596
43.0548911468415 1.40154
104.037292832065 0.846682
119.048010719567 1.96003
120.997945748463 0.706334
122.005723729793 0.642062
131.047777738278 3.17279
136.008775576773 3.16201
147.04290571276 1.48107
158.034235927706 0.666554
159.042419366517 48.0901
159.19890848633 1.55924
160.050257392928 1.27826
163.01964643736 9.31847
164.027038373405 3.05719
190.005855025719 1.08743
191.014608981002 100.0
191.189883509265 3.21878
192.022150057292 33.7724
192.191149575357 0.932313
204.02278481684 0.639997
234.068887853859 15.1119

