>compound albendazole sulfoxide
>formula C12H15N3O4S
>parentmass 298.085190021592
>charge 1

>ms1peaks
159.040812140845 0.681716
219.956384506214 0.948377
256.957929656406 4.69932
266.058798882154 3.96151
297.082057169715 1.0082
297.680736916816 1.03817
297.96359988292 3.7614
298.085535085738 100.0
298.19018253957 0.987141
298.314700485321 1.50952

>collision 10.0
104.037915248558 0.611947
159.042380448899 2.21067
174.95154747796 1.19685
178.944637986667 7.08673
219.947957066142 1.94519
224.009737081407 1.92551
252.965848389538 0.518013
253.977369371751 0.777589
256.036452074907 0.827409
256.958484035949 4.04814
258.980492294534 0.542173
266.058061085188 24.1663
297.231465119128 0.83252
297.957449480948 1.11999
298.085190021592 100.0
298.349974311748 0.802781

>collision 20.0
68.0477738610873 0.836654
79.0216123967744 3.06099
104.039419190193 0.789849
120.553954319764 0.613146
130.963092604613 0.867203
134.954081437838 10.7135
135.949774293644 0.770458
157.992168206281 0.643591
159.040434984152 15.5069
159.193476205891 0.626762
160.045650220605 0.830858
161.249218988548 0.606842
174.948621685544 4.43235
175.958761766779 1.87338
178.945905076366 9.71087
180.65758174719 1.36681
205.942648027675 0.546762
210.956732920378 0.546385
214.922712087239 0.633797
216.119661120165 0.677686
219.020175623149 0.517684
219.949122165301 0.629572
220.172399934873 0.604945
224.012009942065 17.8231
256.0373077083 5.82032
266.058956644992 100.0
266.47839244119 0.604477
297.119404357177 1.25421
297.24327673695 1.30728
298.086380325035 37.5621
298.21636693193 1.34273
298.341203822192 2.05182

>collision 40.0
41.0380020829378 2.63684
44.0483052179582 3.03651
54.82779592629 1.83751
56.9447565300071 1.44496
70.0714392412841 2.37317
72.9364909221262 2.8718
79.0202942089063 2.9055
97.0741869179033 1.39897
102.929519979898 4.76373
104.037402906245 1.38507
116.039007108426 1.65009
118.046905607483 2.1624
128.943403628146 1.99797
130.963609607608 4.58042
131.046956899579 3.13119
132.06243703134 2.42497
134.955278150126 11.8048
147.081287957908 5.13309
159.041850746407 100.0
159.366931914633 1.97816
160.049917874592 8.58157
191.069293817561 5.48965
207.010831341353 4.02681
224.01300426135 22.0522

