>compound Creatine
>formula C4H9N3O2
>parentmass 132.076815319352
>charge 1

>ms1peaks
90.0553049770099 7.13314
132.078052620585 100.0
132.155725945963 4.27212
132.181764202046 6.34891
132.215123157719 2.70143
132.247234404952 1.12577
132.268518532998 0.861508
132.293875702787 0.75748
132.321218509587 1.01376
132.359231010759 0.535812

>collision 10.0
86.0714893155145 0.739552
87.0557219082646 3.3204
90.0554997185425 100.0
90.1201243140661 2.46282
90.1425866988892 3.82657
90.1688363210142 1.50679
90.1952258473061 0.612107
114.066094516093 2.88662
115.049976864731 1.42089
132.076815319352 96.1849
132.155198228748 2.29391
132.181855715352 3.45276
132.214016362479 1.37522
132.246634349055 0.551306

>collision 20.0
58.0532612332856 2.40607
69.0458000575699 1.99739
72.0554033153491 2.89703
86.072879807839 0.886604
87.0607247675702 12.1185
90.0551751809898 100.0
90.1201055983927 1.70913
90.141970261563 2.13136
90.1685415309103 0.940922
114.066386424197 3.2572
115.049890628397 1.08147
132.07656830719 15.7605

>collision 40.0
50.8505619925397 0.634835
53.0148235632509 2.3046
53.7163504765406 0.653364
55.0305423688933 8.82481
56.038856303916 6.219
57.0174769623279 1.03794
57.0457155963506 52.3175
57.0836197907174 1.53177
57.0962772245835 0.933014
57.116557853253 0.854365
57.1327170048188 0.626449
57.3118872601116 0.672424
57.4461501351766 1.17534
57.7734113050934 0.621545
58.0531164326594 64.8318
58.1088088047309 1.4394
58.1251515676538 1.84197
58.1389539725281 0.827207
58.1467521104009 0.696977
58.280016302562 0.737042
58.3359060637438 0.996452
59.013527421425 9.21646
59.0649714609386 0.883782
59.1058482945557 0.693163
59.4944167238553 0.803544
60.2107485079151 0.973722
62.933171786226 0.723804
65.7697259148257 0.589449
68.0098683245689 0.678741
69.0449465341647 71.3972
69.1011424442352 1.18657
69.120042679827 1.29659
69.1415507876155 0.765885
69.1880740492302 0.839608
69.7971410123956 0.613077
71.0601544674486 2.33478
72.0560375125688 100.0
72.1130389374596 1.65785
72.13429101357 1.57754
72.2318968670956 0.657262
72.3409291300324 0.780614
72.4430653948991 0.766008
72.9441430166216 0.87144
72.9825502687733 0.590984
73.0624751697489 2.37314
74.0731568884926 1.27255
76.4583365868956 0.975694
84.6752176017677 0.635169
87.0782952262294 9.29547
90.054879306929 3.05065
92.0428739833796 0.736796
103.009586287673 0.651371
114.061694264175 0.626885
117.358285632614 0.672605

