>compound Bilirubin
>formula C33H36N4O6
>parentmass 585.270636436764
>charge 1

>ms1peaks
299.139783436785 32.8989
299.293176671774 0.697835
299.396118450938 0.661963
300.288785845314 0.669578
584.263490526017 6.77162
584.364667827921 0.561503
585.270636436764 100.0
585.473621347767 2.04944
585.557652895691 1.14409
585.676681346711 0.966761
585.857524318958 1.0279
586.069297059238 0.694444
586.267386774729 1.38327

>collision 10.0
299.139155937972 100.0
299.288396242255 1.75659
299.343686483103 1.03043
299.392701396272 0.703356
299.455572997884 0.657938
299.606232061772 0.606955
300.147782847162 1.02576
584.261251827164 3.86733
585.267759824267 23.8003

>collision 20.0
287.135418856661 1.00327
298.129437383469 0.563165
299.138776887747 100.0
299.292344325478 1.51077
299.354222283069 0.759441
299.438361675331 0.53526
299.682291771761 0.536015
299.815393212254 0.576007
300.148368307104 1.20286
584.256620445869 2.09375
585.27030580207 0.950053

>collision 40.0
120.076621394186 0.680907
130.062972095243 0.710332
170.089870942206 0.609371
183.096820093772 0.733278
198.114455600241 1.50993
211.094310567735 0.694443
212.132012698332 2.11139
225.102851938942 2.46179
226.108463419906 1.09431
227.123229698497 0.640896
236.108522655301 0.689471
238.117971042369 1.25429
239.117745118765 1.76279
240.120680717279 2.67107
254.117165230072 0.981887
255.132041980311 0.679083
257.128042198221 3.49181
271.141591766274 10.3567
282.111418831929 1.4558
284.11551159448 1.67931
285.119364715817 0.532129
286.129600424495 0.89572
297.120791872012 1.22989
298.126072572623 0.588834
299.138873683118 100.0
299.388495842898 0.789592
299.429439564664 0.648146
299.484444620706 0.552542
299.554256463504 0.871764
299.635747650638 0.684295
299.726951184692 0.672738
300.025688649956 0.594652
300.138411531718 1.57813
300.450838225039 0.569718

