>compound Ipecac (Emetine)
>formula C29H40N2O4
>parentmass 481.307333265496
>charge 1

>ms1peaks
223.107149497494 0.59306
480.813688019677 0.500988
481.306759212001 100.0
481.575431397104 3.59521
482.301904672843 1.09826

>collision 10.0
246.149020711621 1.11419
274.179937928828 0.707697
464.279462213931 1.02448
481.307333265496 100.0
481.575912007917 6.35839

>collision 20.0
165.090647835235 0.799027
177.090117036128 0.61008
179.105873648118 0.540106
191.103732178502 0.652035
192.101820637964 0.944398
194.116975974596 1.40801
246.148766842414 6.34402
272.164078859091 0.826509
274.179820195886 3.59208
464.279583793748 5.00945
479.290546200421 0.560882
481.30779417984 100.0
481.576607251254 7.32606
482.270305243148 0.895195

>collision 40.0
160.086370515529 4.40681
162.089490037525 5.29694
165.090473797281 28.8387
176.07852886907 5.42907
177.089390539025 17.3344
179.104780859169 9.53948
190.087262694213 8.33617
191.103404800592 10.3907
192.101701530071 19.0733
194.117084459249 14.4535
203.10387766664 4.17471
205.109547265092 9.39952
206.117221797884 7.22103
230.117592305034 8.31349
231.126273333365 4.21856
244.132999359144 5.63263
246.148836749924 100.0
258.148428090467 4.64077
272.164099728303 13.2285
274.180196744926 38.0884
286.179514626869 5.22575
436.248702507276 5.74673
448.247665778355 3.91424
464.279557992193 12.5545
481.306308801018 32.7019

