>compound Isoetharine
>formula C13H21NO3
>parentmass 240.15929454691
>charge 1

>ms1peaks
180.102137466975 0.670905
222.148658304716 7.1059
240.159432720592 100.0
240.355601706914 5.13716

>collision 10.0
60.0817631287909 3.00956
70.0658751688899 1.50149
123.04455851834 1.30856
145.064067133961 1.12106
163.074755785356 0.932127
180.101624023875 11.4311
181.08553058901 1.21412
193.109274895192 0.668151
222.148757658322 100.0
222.334776895876 3.59006
240.15929454691 57.3933
240.355561162499 1.73126

>collision 20.0
43.0551169213728 3.00912
53.0395527466868 1.72628
57.0341885570353 1.45212
58.0656827415174 1.68861
60.081717700238 9.75934
70.0657601021199 25.1838
70.170528913572 0.847341
71.0496644384404 3.34398
72.0808624498907 0.550879
93.0337918336207 0.772232
100.111728486423 0.672972
107.049220846992 4.42566
111.043950704992 1.2109
115.054194783626 0.616692
117.069747831463 5.91454
123.043687300671 16.0955
127.053306537817 0.805201
135.07984674489 1.19047
137.059042143247 1.60467
138.055111825539 1.63816
139.038935834702 2.4664
145.064515888445 14.3821
151.062896478647 4.49066
163.074630122232 6.27523
178.086005102811 2.12412
180.101593124157 100.0
180.271085996019 2.69064
181.085876014898 1.88573
193.109156561301 8.65346
222.148632881431 83.4355
222.334210302412 1.95844
240.159326438578 1.53586

>collision 40.0
29.0392774392901 1.42139
30.0345665885515 1.18285
39.0233266510185 0.925798
41.0394904401732 9.45339
42.0352723133859 2.05433
43.0179208928791 1.77327
43.0549867787549 27.6886
43.1360029360707 0.93704
44.0511385989937 1.48194
51.0236158961212 3.1332
53.0395030528265 16.5524
55.0187813497975 1.31466
55.0548297222 0.963218
56.0500320051847 3.694
57.0344017562897 10.149
58.0666783171826 3.9792
60.0820702027509 3.27905
65.0392036958648 12.4302
67.0530064331742 3.39688
68.050585356617 1.90605
70.0659059743824 24.5843
70.1705299165335 0.782874
71.0516410946796 1.7714
72.0813019616521 0.810523
77.0391250074942 18.5795
78.0453544261416 1.77444
79.0544393947996 6.80947
80.0499801207162 4.82003
81.0330797848407 1.29408
89.0381417467251 1.32635
91.0545108611031 23.6891
91.1706014898333 0.51019
93.0337997450083 17.1832
94.0290311571401 1.20672
94.0646037472324 1.44541
95.0521654181605 3.85166
100.11104281668 0.616145
102.045601475832 1.57965
103.053720817722 0.830156
104.049898380599 3.11703
105.044747676628 4.94102
106.043843117962 1.5667
107.049219663596 27.7834
107.180200742033 0.632738
108.045404246118 1.98157
109.029722644405 0.876509
110.04391373053 0.650579
111.044066540361 5.87366
115.054003671936 39.8996
115.184774936816 0.827165
116.060679967563 1.74987
117.069867978015 52.6166
117.205554528746 1.36729
118.061676227476 0.520842
119.049705795645 2.92391
122.058985195874 2.16585
123.043766434015 100.0
123.179069609684 2.66061
124.05098440586 2.17543
126.048832594256 0.500436
127.053821880023 13.421
130.041237041733 0.51427
132.065480133903 2.95044
133.056607357204 2.78237
134.057983290577 4.23124
135.043062634365 3.35707
136.042307087218 2.62228
137.058718186697 2.34765
138.054869556214 6.98634
143.048698458048 6.13789
144.059176957134 0.627041
145.064242775344 11.2547
146.058494365894 0.850754
148.051106185485 0.576269
149.046405219393 1.04868
150.054327123212 4.36099
151.062342862722 38.938
151.2145855365 1.13333
160.074732026395 3.03412
161.059438235419 5.19295
162.078157594687 0.549313
163.066541778774 2.63566
176.071706428721 0.589517
178.085936426611 12.208
180.101699962877 4.25233
193.108612980443 1.54558

