>compound Isonicotinic acid
>formula C6H5NO2
>parentmass 124.039104604819
>charge 1

>ms1peaks
124.039143873211 100.0
124.14039748259 0.55641

>collision 10.0
53.0412773981754 0.729303
80.0504828634146 7.39039
96.0446961530656 5.54432
124.039104604819 100.0

>collision 20.0
41.0391095090028 0.664088
44.9972266899531 0.664975
45.0326694804663 0.553842
51.0251104765031 0.787758
53.0390013895968 19.7149
68.0502323306935 2.21696
78.0350395514322 11.5995
79.0418549078734 5.47399
80.0501188379597 96.9677
96.0449866882673 61.4733
106.028481070368 0.594477
124.039133896176 100.0

>collision 40.0
27.0239196498363 0.789147
28.0181753388297 0.707749
39.0229917235105 5.52211
41.0392641139892 12.5305
42.0346210936407 2.23961
44.0511859374564 4.3583
44.9976873903202 4.98996
50.0163828877965 4.52419
51.0223861930841 29.0455
52.0307450345222 63.6149
53.0018561875526 1.47266
53.0390532813311 100.0
53.1162164440606 0.515165
53.9375693543036 0.572577
67.042779719076 0.656851
68.049571867446 5.33792
69.0332130414976 4.11283
78.0339081963533 39.0476
79.0421572780585 59.6078
80.0497161922498 69.6064
80.6471371043754 0.584141
96.0445119982804 18.9038
124.040724388085 1.03896

