>compound Inosine
>formula C10H12N4O5
>parentmass 269.087801801468
>charge 1

>ms1peaks
137.045610755608 100.0
269.087801801468 61.2215

>collision 10.0
137.045602367257 100.0

>collision 20.0
57.0340570209271 0.510795
73.0298175947412 0.539902
110.034154084702 0.595955
119.033703940384 0.726455
137.045548538995 100.0

>collision 40.0
41.038454884269 0.986737
43.0166282418303 0.567149
45.0349160943137 0.845085
55.0277724835489 4.54078
57.0344681965996 2.44373
61.0297533229446 0.759661
67.0293080695879 0.69873
71.0116684012655 1.09321
73.029182736125 0.670722
82.0402510882633 4.23778
83.024015177357 0.546716
92.0229837708709 0.50685
94.0397196129791 9.18626
110.034522303774 20.3878
119.03500033352 14.4887
120.017778492862 0.768884
137.045873488137 100.0

