>compound 1,2-Diacetylhydrazine
>formula C4H8N2O2
>parentmass 117.065993108088
>charge 1

>ms1peaks
73.4693022524792 0.63915
75.0553775622099 100.0
75.1046446450836 1.19826
116.107600753409 1.33955
117.065993108088 25.9331
117.128235899821 0.704612

>collision 10.0
57.0445725808758 1.88215
75.055271851258 100.0
75.092055704283 1.56692
75.2767707530555 1.20431
75.3477749341601 0.67831
115.054522503983 1.6493

>collision 20.0
57.0451702625725 20.4865
58.029564781276 13.4434
58.0656967635518 2.19759
58.1553207064349 3.07108
62.2995955467034 1.26837
68.8632293876348 1.30333
75.0552264284045 100.0
75.1036186717126 1.64955
75.366147243187 1.72959

>collision 40.0
57.0442370808805 86.687
70.065704017608 71.2305
75.0543010402259 100.0

