>compound Clomipramine
>formula C19H23ClN2
>parentmass 315.160453168665
>charge 1

>ms1peaks
58.065656605859 0.53642
86.0964136170082 3.53314
315.158516121006 100.0
315.319205033787 5.52962
315.381749090989 2.46613
315.49407227837 0.966914
315.536824635423 1.18409
315.59839446404 0.707488
315.6675913589 0.646468
315.708166939105 0.662574
315.756533301599 0.624263
315.83781883114 0.536668
315.876403678509 0.504242

>collision 10.0
58.0659389310211 5.21952
86.095921578663 42.1539
86.1586053679633 1.16022
86.182385315331 1.67717
86.2082780528225 0.729757
242.072877997567 0.774356
270.10456258495 1.54913
315.160453168665 100.0
315.31924398116 4.90523
315.383348553301 2.12397
315.493896966584 0.832856
315.537862408611 0.929715
315.603650880016 0.636845
315.666533835668 0.602265
315.707541907548 0.595713
315.758488431711 0.568092

>collision 20.0
58.0662282999636 28.8264
58.1359092603073 0.971762
86.0960483141835 100.0
86.1586018486942 3.36195
86.1821928600734 4.79231
86.2087068164884 2.21297
86.2514816373933 0.678868
86.2729596834706 0.621633
86.2943653116973 0.737952
227.050148699921 0.511672
235.135628663182 0.711243
242.073749990535 5.08622
270.105023146524 3.76059
315.16335444545 9.5021

>collision 40.0
44.0499931823447 0.781248
58.0646784637229 100.0
58.1356855038618 4.72404
58.1561776132289 1.88725
58.1789167403724 0.727132
58.2278988561997 0.646374
71.0729240557884 0.863352
86.0960706831509 58.5875
86.1819774779391 1.99155
86.2074763036932 0.892117
192.079188248868 0.878444
206.094694992531 0.843622
207.102383638895 1.89213
220.109961787091 2.84777
227.047738640711 13.9404
234.12545388402 0.832861
235.133701026142 0.885841
242.071079611369 7.81578

