>compound Adenosine
>formula C10H13N5O4
>parentmass 268.103959058751
>charge 1

>ms1peaks
136.062137135622 8.58643
164.983499176051 0.531363
268.103775639617 100.0
268.516329147058 0.620705
268.818896851228 0.513245
268.890000458162 0.505253

>collision 10.0
92.0279860615481 1.56544
136.061075726116 100.0
136.141458338252 0.560593
136.474779845009 0.764473
136.518422863932 0.536629
136.637681247602 0.716955
185.104933646727 0.684099
268.103959058751 44.7899

>collision 20.0
57.0356889249505 0.581209
90.9751962634278 0.50527
94.0392209924578 0.657536
115.039952686119 0.776547
119.033751270726 0.864771
136.061598206261 100.0
268.102982129544 0.620408

>collision 40.0
27.0221911329602 0.556009
41.031041920899 1.06126
45.0445802504324 0.50475
55.0189544999229 0.794647
57.0347325715069 2.09419
59.0485714082533 0.68127
61.0317005340829 0.747247
67.0291690134114 2.12633
69.0331632240129 1.44376
71.0123743188868 2.23766
92.0216558479494 2.12605
94.0399197849997 4.28677
109.045879713854 0.852131
119.035914062211 12.9569
119.216096770107 0.633472
136.062080463741 100.0
136.330513114015 0.6814
136.539867532203 0.571625
136.618989088386 0.883902
197.528291563999 0.845085

