>compound Guanosine
>formula C10H13N5O5
>parentmass 284.098332809083
>charge 1

>ms1peaks
135.029566883392 1.89393
152.055741253532 49.0574
152.13141182414 0.931396
152.147359118347 0.753749
152.172079080138 0.581418
152.199454513808 0.721925
152.467483970423 0.558446
284.098332809083 100.0
284.193065773112 2.88108
284.247490298911 2.33321
284.29191189062 0.732715
284.321598980655 0.723233
284.357182170005 0.559193
284.514375930393 0.82786
284.626392661088 0.586055
284.780098033447 0.781085
284.902369734132 0.596373

>collision 10.0
135.030775847543 1.44311
152.05577276457 100.0
152.141900466704 1.47425
152.168611522644 1.5319
152.207113565264 0.885502
284.097774935298 2.21313

>collision 20.0
85.025658457019 0.604188
110.034717313351 1.9253
135.028580232402 3.99815
152.055909281808 100.0
152.140484516055 1.5312
152.167452388094 1.4341
152.199991271949 0.886351
152.250479187194 0.537449

>collision 40.0
55.0243775350204 3.88615
57.0332438564545 1.24833
61.0295011104498 0.661238
69.0329162468791 0.826495
71.0117838896365 0.644022
73.0272226120536 1.19354
80.026799135794 1.50781
82.0371977379703 1.76966
85.0256839892179 0.581305
107.034541276177 2.93982
109.047470073599 2.95328
110.034122670689 26.8278
110.130281866699 0.700702
134.045947042463 1.54321
135.02941496652 100.0
135.109779534555 1.60734
135.135988290195 0.925385
135.163650637732 0.510779
135.199115470235 0.755235
135.252863891893 0.514958
135.388672538063 0.713385
135.439550694109 0.605743
135.719534404089 0.51949
135.983943575213 0.537912
152.055495402368 85.3946
152.141924642411 1.53459
152.165602231844 1.35119
152.204817887471 0.590272
152.308388788835 0.636466
190.997752564981 0.597071

