>compound N-Desmethyldiazepam (Nordazepam)
>formula C15H11ClN2O
>parentmass 271.063657249079
>charge 1

>ms1peaks
253.051412473412 0.698785
270.079574583217 21.1702
271.064859044024 100.0
271.267008335903 1.0073

>collision 10.0
140.025699108543 0.786429
218.08194355734 0.531473
243.066054484815 0.707623
253.051997062002 2.7742
254.053417384803 0.549984
270.078140087069 21.5144
271.063657249079 100.0
271.272326259313 0.926272

>collision 20.0
91.0546306562663 3.35189
116.050826999641 0.809129
140.027103136303 8.13897
150.010624412859 0.767262
165.022068755792 5.98552
184.034762292807 0.636335
193.017884749602 0.875749
208.099450337677 4.46462
217.072840652608 1.17816
218.083423995383 5.27278
219.088959129792 0.726636
226.041423657611 2.64804
235.082092745316 0.555081
241.052259603428 1.53496
242.0580733776 0.987141
243.068791008579 5.87351
253.052935634105 17.2848
254.057696857439 4.53534
270.078808506514 11.4127
270.317206325151 0.618076
271.06441837114 100.0
271.273630969378 0.781916

>collision 40.0
39.0237348937165 0.914737
51.0233204565493 1.16536
65.041024932223 3.371
75.0215513063639 0.75775
77.0382772003579 14.1426
78.0461762261251 0.808988
78.3278474618821 0.770666
79.0532717559319 2.33794
82.494185561282 0.708388
86.09750526101 0.727791
89.0400808821385 2.56881
90.0442120605232 3.72542
91.0550647113568 71.1865
91.1728644005875 1.72134
92.059916603075 4.67234
99.0006153577758 0.80837
102.034917453093 4.32659
103.040827775231 3.48574
104.049609241972 19.5377
105.058289460887 8.48643
106.06354492211 1.73946
110.997664152841 7.52767
111.994377373623 2.70841
113.015673906031 8.88591
116.050961326386 16.0026
116.343338999686 0.774301
117.059325012425 8.87107
118.064535360847 0.781504
119.993792814098 0.842615
123.001568479058 1.12008
123.99642551669 1.38212
125.002346315797 0.785466
126.006899728246 1.3342
127.020081927887 11.1357
129.046038256091 4.84409
130.05345538572 8.97188
131.059691766296 2.37423
132.064101676367 0.691054
135.994916898824 5.56615
138.012495198578 13.7074
140.026609016359 100.0
140.994384743096 1.25074
143.078175566812 1.07274
144.042054869839 1.84206
148.080513866853 1.05757
150.011015139876 7.47046
151.024950238753 2.20995
152.062699884264 0.998421
153.065807244024 0.680511
154.058829693377 0.865069
158.047325825097 13.5324
163.007751705027 11.0533
164.012579127772 3.4881
164.062332039434 2.91998
165.021746201795 70.9613
166.007119228147 7.519
177.059427950691 0.843992
178.068045838746 2.77763
179.076280126323 4.04188
180.079703150979 11.6938
181.089058338084 3.41477
184.029302512571 0.794104
190.066252961858 19.2697
191.072871844858 24.248
192.08068940309 3.56085
193.013700573896 1.55032
193.085087759448 6.77374
199.029878947908 11.6768
201.057117608783 1.89701
203.058968467736 0.870883
205.077093908104 1.04587
206.083440192836 5.9024
207.090819385775 15.7973
208.099256279217 50.1464
209.083843868871 1.11604
214.042968673851 10.2696
216.057089284854 3.95605
217.076901686454 25.7076
218.082940983284 62.7932
218.594244224418 0.689623
219.087030285862 17.9063
225.041222228099 1.10003
226.042637285564 13.3676
227.04789276198 4.41457
229.058277391979 0.737005
235.085298213911 1.89445
241.05215669928 10.3305
242.056904892953 3.30923
242.97010208984 0.650213
243.072240893594 5.4963
251.032566127505 0.863232
252.046218377581 10.2197
253.049951228147 6.3877
254.053322772097 1.62406
271.067806537173 1.39839

