>compound Ketoprofen
>formula C16H14O3
>parentmass 255.100162002209
>charge 1

>ms1peaks
77.0391267122664 1.39462
105.032084172015 3.06233
209.094499532699 5.75662
213.11366124606 0.909866
221.971719063575 0.856902
255.100850702339 100.0
255.188724407331 0.827809
255.399535309088 0.809475

>collision 10.0
77.0404029267392 1.77997
103.055175861594 2.46635
105.032601682961 25.0229
131.048004708798 2.95332
177.055979779117 6.06455
209.094527389568 100.0
255.100162002209 65.1849
255.73490461963 1.81475
255.788689870922 1.34827

>collision 20.0
51.0226163438975 2.00826
77.0382694542672 7.94209
105.03342401021 100.0
131.047152768824 2.94859
177.053171401487 26.5083
194.074323477503 11.0979
209.0947865124 64.5059

>collision 40.0
43.0174586826307 2.66449
51.0219109717003 2.199
51.1551245366525 1.68324
77.039468161881 100.0
77.6451808615185 1.25229
79.0536613167758 1.1989
91.0543450775023 2.76897
93.0711251168301 3.13911
103.054154430294 21.6791
105.033149474953 61.0464
115.051199331855 1.40722
121.094504625394 2.36934
131.048242310968 1.67779
152.059296648494 1.91875
165.065669402593 2.26091
177.056448588141 1.55927
190.079061554337 1.93284
194.074575191723 2.75326

