>compound Uridine
>formula C9H12N2O6
>parentmass 245.076991322647
>charge 1

>ms1peaks
113.034940143121 100.0
133.048963266484 1.66411
245.076991322647 48.7326

>collision 10.0
55.0164922753658 0.795115
57.0336041045723 1.91613
61.0295102269544 0.936614
70.0296505412105 1.00174
73.0295321408328 1.28303
85.0289295588402 1.70308
96.0097794253707 0.868377
97.0298404563176 0.978588
113.034916662193 100.0
115.037235862044 1.23142
133.048859987157 2.14011

>collision 20.0
43.0176278770762 1.13652
55.0206243149446 1.57684
57.0342683152049 5.43905
69.0341331292325 0.999595
70.0295285205771 5.24218
73.0290307888023 3.38661
85.027946723019 2.00002
96.0075654013487 2.31104
103.038566307877 0.982585
113.034375902203 100.0
115.037114662821 1.6848

>collision 40.0
40.0188151405778 7.70703
43.0192198838685 19.3261
45.0340484541378 8.53487
55.0189242347442 7.12058
57.0343440287806 24.3047
61.0295176308141 7.21059
68.0125363993014 5.00157
69.0353709307342 10.2907
70.0295533225827 93.955
71.0142135438045 7.83163
73.0314336826928 6.63547
85.0293211536747 5.1061
95.0259839423063 8.75356
96.0082804357737 67.0003
113.035074624378 100.0

