>compound 2'-Deoxyuridine
>formula C9H12N2O5
>parentmass 251.062308361899
>charge 1

>ms1peaks
135.017814306261 2.83916
139.035404936889 0.53264
251.063505415457 100.0
251.557806551978 0.609677
280.55780655198 1.0e-13

>collision 10.0
115.95840803223 1.35029
135.016785986305 91.0014
139.035475041357 3.94566
173.083175483033 1.04236
183.060331659131 1.07698
197.117107181576 1.21994
209.106523780721 1.00893
251.062308361899 100.0
251.728407383981 1.11951
280.72840738398 1.0e-13

>collision 20.0
117.950561579465 16.4452
135.017738217078 100.0
168.948738726418 12.3613
251.069115284297 22.1167
280.0691152843 1.0e-13

>collision 40.0
93.0313433721616 100.0
122.03134337216 1.0e-13

