>compound cAMP
>formula C10H12N5O6P
>parentmass 330.059279223969
>charge 1

>ms1peaks
136.060695566713 2.35762
297.960188265008 0.553466
312.047645753177 0.638515
329.314490838254 10.0366
330.059797834119 100.0
330.212332112715 0.524402
330.314032485623 1.43242

>collision 10.0
97.0271591581342 0.593544
98.9841373436664 0.685111
136.062651708133 18.5188
176.995312455753 0.712569
214.067225092967 0.547988
232.081953271358 0.653909
268.264121464177 6.94848
269.267911657932 1.17173
312.048016888696 3.84716
329.203336883287 0.878208
329.315973633495 7.8891
330.059279223969 100.0
330.30784585514 0.706818

>collision 20.0
57.0708485738861 0.5757
67.0201848823353 0.513262
69.0341366355032 1.48107
81.0680070582944 0.885999
97.0289167515934 5.66271
119.035034675216 1.25584
120.728049697977 0.78455
136.062161671254 100.0
136.210619163897 0.744555
137.104713712182 0.852925
157.572985362163 0.666806
176.995143790055 2.41351
190.069532261283 1.30537
195.008231246153 0.565485
204.087225338218 2.65249
214.069026634419 1.25138
232.081716285534 4.39109
232.16386385999 0.521729
268.262849867789 27.0582
269.265742835371 1.81636
312.048594036921 8.11073
329.311752990924 1.35724
330.060156444736 44.56

>collision 40.0
41.0389602747197 1.53022
43.0538326321771 1.07149
57.0711948712598 3.86664
69.0338267572608 2.30509
71.0846508203123 3.47251
75.6308736858399 0.528096
80.9772314845264 0.633015
85.1038241941532 1.23994
94.038417275328 1.27577
97.0300440003689 2.61694
98.984315032555 5.03633
100.119687611807 0.721724
109.101676937462 1.58283
119.034899238574 9.53792
134.983958155191 0.502976
136.061694893157 100.0
136.209442853254 0.966911
148.063784096355 1.45705
149.066202613005 0.643846
176.093233587094 0.692681
178.127636126567 0.633768
268.261835745391 2.1253

