>compound Amiloride
>formula C6H8ClN7O
>parentmass 230.055394429018
>charge 1

>ms1peaks
60.0565580448745 0.511487
171.005090740106 1.60327
230.054646398097 100.0
230.247505929455 2.18753

>collision 10.0
60.0565330000986 14.2672
86.0356660050036 1.41215
116.000114015179 0.865812
143.012176656544 0.993035
171.006394361699 29.4386
188.033374207661 1.53026
213.028818480019 1.49757
230.055394429018 100.0
230.247754077551 1.86465

>collision 20.0
43.0299453457571 1.39407
60.056178007221 54.9122
60.153939324654 1.29202
86.0355237951413 2.00463
108.042918804037 0.949404
116.000304185627 9.12115
143.011393093772 17.166
171.005858628905 100.0
171.167660877614 2.09207
188.03249382383 0.535923
213.026547604083 0.709374
230.054270322618 9.06551

>collision 40.0
43.0297647274112 11.1971
53.014065541111 2.38204
55.0298186505772 3.65721
60.0563172151341 54.165
60.1539297957162 0.980303
61.9797605593638 8.02863
63.9955843851508 19.5769
66.0217178005225 1.97494
73.9792234186929 3.5874
80.0242739543226 1.01573
88.9902478830377 13.9854
91.0058983713991 0.862219
100.989817487719 10.1595
107.035054465991 0.850371
108.042999814842 14.956
116.000533637005 100.0
116.133952876119 1.66983
143.011243752917 18.8542
171.0062622461 5.5383

