>compound cis-9-palmitoleic acid
>formula C16H30O2
>parentmass 277.213258015337
>charge 1

>ms1peaks
236.140699554585 0.724713
277.213258015337 100.0
306.21325801534 1.0e-13

>collision 10.0
277.21154914997 100.0
306.21154914997 1.0e-13

>collision 20.0
277.12410614841 100.0
306.12410614841 1.0e-13

