>compound Acetylcarnitine
>formula C9H17NO4
>parentmass 204.12229474395
>charge 1

>ms1peaks
60.0818689188883 0.51387
85.0292465145793 2.02717
145.049845517219 0.626707
204.122087687274 100.0
204.251508908835 5.34104
204.300207488315 2.2775
204.391765887756 0.94623
204.427010501973 1.12217
204.475591447613 0.678643
204.531040880355 0.62754
204.564610317685 0.627065
204.596101398649 0.585776
204.66706556821 0.505916

>collision 10.0
60.0820729117669 14.5237
85.0283007507194 53.8888
85.1134386419667 2.3428
85.1397469237648 0.881339
144.102517189406 2.35385
145.050555806701 16.8872
204.12229474395 100.0
204.252030522117 4.88405
204.297820567071 2.02899
204.391423026569 0.764368
204.427269590815 0.919818
204.465438143114 0.57382
204.528825921345 0.534577
204.565080363229 0.529461

>collision 20.0
43.0188162390979 0.991401
57.0342401277231 1.40322
60.0815060927708 9.95656
85.0274704395719 100.0
85.112871286902 5.50156
85.1396278092035 2.3979
85.1657294013945 1.06158
85.2034146784839 0.78296
85.2251305577433 1.03728
144.101301278047 3.11033
145.048772713674 1.93919
204.122118820352 2.30768

>collision 40.0
29.0390683047661 2.56432
41.0398095963026 1.17351
42.0350494996615 0.524186
43.0191824451642 17.3739
44.0508169126469 0.757208
44.9983415692207 0.796091
45.0585624562498 1.42087
57.0347899039016 17.7716
58.0663680591275 5.10712
59.0739676700849 1.51992
60.0820874968515 9.82303
84.0817193451163 8.1184
85.028996382601 100.0
85.1135205695821 3.87485
85.1405793282878 1.4505
85.2256707861064 0.555062

