>compound Levonorgestrel
>formula C21H28O2
>parentmass 313.21485248151
>charge 1

>ms1peaks
91.0543912327832 0.857733
149.023041813261 1.28881
149.048322510496 0.544801
234.131440762272 0.573513
245.189963187543 0.627203
295.207501094866 1.17892
312.360573006254 1.8335
313.215330017068 100.0
313.426624913739 1.11731
313.509143595434 0.882616
313.611772598777 0.887988
313.767650129693 0.70388
314.030529139635 0.599336

>collision 10.0
57.0322651353422 0.520492
79.0551353758385 0.756622
91.0559504285638 4.56388
109.067123475412 1.38826
109.098148025461 0.812319
119.086269634967 0.520193
121.063130586467 0.523333
123.081569903245 1.58537
125.094272756567 1.5277
129.068720081561 1.09204
135.113175464094 0.865146
143.082866852857 0.596863
145.100512364025 1.78232
147.118776133188 0.580036
149.022340842898 2.1214
149.095367645267 1.58177
153.052388015601 0.72808
157.098241672378 1.13325
159.110422486238 1.29949
161.129225778893 1.02541
163.110035193961 0.617794
173.117694170575 0.553062
175.109679858109 0.52227
181.095289821707 0.816558
185.122357067909 0.821984
186.997566732983 0.555805
187.129641073989 1.11945
189.128021807295 0.93379
191.136735234511 0.859148
193.107547880332 0.566112
197.135832838113 0.802395
199.13626067391 0.513314
201.12642479671 0.87257
205.080236981863 0.65415
225.162549605335 0.520582
231.130233798869 0.580779
235.152534248732 1.10683
236.161845442751 0.577156
237.158879706835 1.20965
245.188930533176 4.2272
249.167835142228 0.8362
277.195365844102 2.20484
295.203895134314 3.14285
312.358679824496 2.81459
313.21485248151 100.0
313.372660301304 2.09777
313.47224016754 0.70504
313.536664904561 0.586905
313.596216915432 0.562165
313.654914174377 0.547579
313.717232818936 0.589476
313.802949934409 0.67355
313.881242180108 0.689154
313.946260231237 0.566917

>collision 20.0
36.1854026332464 1.78078
43.0188788056665 3.08246
53.0374809069136 3.30346
57.0356850515168 4.05881
69.0723480862358 9.87698
79.0519177705246 3.88255
81.0716982913634 16.205
83.0494600800005 16.7145
85.0630773220246 1.75512
90.9773855143143 1.81826
91.0540844049548 58.6312
93.0694130159491 8.29412
95.0866742111148 11.5798
97.0636205223246 6.23302
105.069963511581 28.0074
107.048740217376 13.1488
107.084737991815 8.59921
109.064598931814 49.9171
117.068622466728 6.01718
119.084789893068 12.6933
121.063785575342 1.83996
121.101984529966 5.21285
123.079216219551 10.9037
123.119117277402 3.94957
125.095019895521 7.08066
129.0686921098 11.1729
131.083408965976 19.6868
133.062952307603 7.03694
133.099898066119 23.8556
135.088009919785 12.0334
135.461261919012 2.00029
136.97007231441 2.11707
137.094223125775 5.26124
137.132011359213 3.29549
141.068309916404 4.23734
143.083537606033 11.2437
145.100533166567 17.3311
147.116038135801 9.15824
149.022369273335 11.6107
149.098862911767 10.9243
150.105261629715 1.78056
153.061224177514 2.5327
155.084090654052 3.44281
155.43737901621 2.55728
157.10091479586 8.46479
159.077764815596 7.47023
159.115085327496 24.5729
161.1084658874 9.37214
163.11073912236 6.65276
165.078791621885 2.27413
167.09666231981 2.99871
169.101679836516 7.97764
171.116513404523 2.48772
171.366255587888 2.38688
173.127000409862 9.34191
174.109763602268 2.73875
175.11095627001 8.72621
175.144808295099 4.10628
179.104795687981 2.05024
179.140463405335 3.25568
181.099635271074 6.63589
183.11731059803 14.7716
185.13162483479 12.5461
186.237257129992 1.83515
187.143186071647 11.1778
188.119635253955 2.08872
189.127301443156 8.2148
190.134501598185 1.89453
193.101587276953 7.39734
195.113343811372 6.29502
197.132645619184 5.29279
199.146827421592 3.87194
201.130932979676 3.13531
203.141528831661 3.6101
207.112701545349 7.55083
211.143595839011 4.15093
213.131670319354 3.87664
221.129485166557 5.90975
223.141463806356 2.08297
225.16363294939 8.18955
227.175283396549 16.1475
228.147434309241 2.84688
232.61020090889 1.75208
233.201849065468 2.38831
235.039469540947 2.45633
235.148344113003 12.6548
236.147335163426 3.60181
237.159628698761 11.714
239.158122427528 9.9611
241.149748978575 3.21321
243.169454432997 3.43184
245.189808257706 48.0272
245.286755446492 1.8443
247.146274467732 1.99799
248.159713153503 4.69661
249.161144352301 1.92334
251.183046064064 2.52416
253.162100378593 5.46869
257.202445378846 1.86636
266.156335683865 1.8226
267.173057294235 5.90718
277.188858285648 2.80195
295.205009035526 17.6045
312.358807881296 15.1076
312.409135119746 2.71763
312.463401999505 1.99618
313.21584197781 100.0
313.312805597171 5.51721
313.376487713746 1.79692

>collision 40.0
41.0391286009931 5.01652
43.0174750819659 11.3801
43.0537840561574 5.30976
55.0560640369567 19.5879
59.0471686974989 7.11669
59.0629680677125 2.87184
59.3927418275751 2.14827
60.0798240017737 11.2145
67.0549432242309 21.6708
69.0727191496943 3.9595
77.03995358564 22.2702
79.0529738754753 45.398
81.0704796887405 32.8586
83.0491618564125 48.316
91.0543121424312 100.0
91.1098795182065 2.90193
93.0690173035075 22.0706
95.086003421379 22.2333
103.055127319659 6.30331
105.069487883196 30.983
106.077557011322 4.98853
107.04662680662 16.1286
107.081621212808 16.2689
109.06567797176 57.6399
109.160871498656 2.6211
115.057141719465 6.55512
116.061299453308 6.37755
117.069886623279 25.7162
119.084990687788 23.0534
121.059606082774 3.85523
121.10106998591 11.6325
123.080671963618 15.4829
123.111607814348 8.28481
128.061442955944 13.2114
129.069480730239 22.946
130.078010882732 6.341
131.083757399673 15.4752
132.056652540606 3.94324
133.062101534917 6.12194
133.100880695324 15.213
135.079956484406 30.6797
139.033643497871 2.14636
141.069723678823 9.49657
142.077045356482 13.24
143.08692493002 26.7725
144.048169741381 2.58187
144.093243821939 3.90773
145.100320381998 13.1271
146.104770888643 2.60351
147.113446331008 10.4864
149.02049677491 2.25649
149.095459908736 4.02258
151.416624646776 2.4107
153.065982059091 4.43231
155.082512802971 9.38459
156.087977780388 2.69581
157.097302963877 12.5731
159.078102786787 3.3859
159.116005317087 3.40584
161.091045025309 5.9213
163.106734007553 3.85809
166.076742751601 2.5294
167.083871775523 2.99583
168.089482175405 2.72139
169.097360245655 6.05086
170.073717326498 3.04333
171.118213885459 14.9916
173.134623267824 2.52019
175.100638028297 2.40143
176.355597248792 3.01646
179.081861928414 2.63306
183.115519860995 5.78122
185.13128719636 10.4203
187.108508465295 4.23314
191.092383365815 2.53983
192.089252239987 4.97607
197.130494129694 6.55274
199.111292359145 3.62689
201.131674189397 2.30059
206.100764489269 3.43055
211.143518541756 3.63967
215.134068354384 2.87572
251.135694280896 2.46151
266.832666360125 3.4805
283.170745219814 2.18033

