>compound L-3,5-Diiodotyrosine
>formula C9H9I2NO3
>parentmass 433.873793108609
>charge 1

>ms1peaks
289.943734648118 1.79915
387.86827450551 9.4417
416.847746822189 4.59508
433.873662135593 100.0
434.129575749317 0.837141

>collision 10.0
133.052935227779 0.557717
219.939281129278 0.746457
233.952616780635 1.04716
260.9646346798 4.76442
261.945173572766 0.555348
271.93032761402 1.13337
289.943863247511 28.835
370.8450871768 1.01351
374.838884186438 6.53327
387.86861576683 90.5192
398.840579278268 1.28892
416.847364988466 28.3183
433.873793108609 100.0
434.131041683226 0.568288
434.868220870483 0.517169

>collision 20.0
43.020291425402 0.583914
107.046900399145 1.33983
133.050231498775 1.55568
134.060277619142 3.59578
219.937016573588 1.71886
233.953057018635 1.47607
243.938901842451 1.29218
244.940821504267 0.563282
245.946996146828 0.929051
247.93139215979 1.30893
259.956152210631 0.974744
260.961775636649 24.2824
261.947712827125 2.22147
271.932473353262 3.76625
288.932444538823 0.656171
289.941138393114 38.1908
370.842921504034 3.10661
374.834049494256 11.3698
387.866473252637 100.0
388.864044340346 0.642858
398.835283758831 2.05208
416.845947545093 10.9589
433.873936286575 8.74439

>collision 40.0
55.0181101413034 0.616161
67.045784313012 0.505828
77.038808240623 5.18019
78.045338788451 0.656284
79.0545376237284 5.3737
89.0382478121377 2.1607
91.0545825615246 2.64169
92.0268333246536 1.18051
93.033003273256 2.62847
105.056859629562 1.95414
106.063124618501 12.4808
107.049402799405 24.6113
116.04853906205 7.35164
117.046165868873 5.78657
118.041509765853 0.957276
120.019304448379 1.01504
132.0432263096 0.537375
133.051736279598 16.2388
134.058962703375 31.4748
145.029034433809 1.47419
146.039233082282 0.513653
163.03549343559 1.97112
215.946105604659 0.720438
219.938157602763 28.4037
228.90240946722 0.572193
232.944446638929 13.0401
233.952778273863 33.0308
243.938675803202 13.2109
244.948763174609 1.0761
245.94511335973 3.22154
246.926595965371 5.87809
247.933562812768 4.36978
259.955888769974 15.8547
260.962375969162 100.0
261.94869089694 6.53401
271.932984570817 10.8
272.939666995985 3.5137
288.934142203352 7.25351
289.942269301597 12.7473
370.837155433235 2.42736
374.834720591602 6.43243
387.867681991007 19.9785
398.829855636755 0.997745

