>compound Guanidylic acid (guanosine monophosphate)
>formula C10H14N5O8P
>parentmass 364.064892113455
>charge 1

>ms1peaks
135.031201050222 1.00741
152.056928838784 30.2857
152.140666193601 0.569531
364.065297441582 100.0
364.212372598045 1.34843
364.23839117915 1.31977
364.306661214568 0.848228
364.384908888709 0.585995
364.465674099034 0.588116
364.550516761524 0.656496
364.692537037535 0.613401
364.81817835918 0.733992

>collision 10.0
97.028037310046 2.09016
135.032935124492 0.683275
152.056371190068 100.0
152.092082730888 6.26357
152.142189191969 1.36825
152.172845360165 1.72679
152.205013691426 0.700616
364.064892113455 14.6444

>collision 20.0
97.0289029890297 5.03665
110.034710278827 0.671402
135.029743655534 2.1406
152.056304516498 100.0
152.086112975753 6.47273
152.143348353575 1.28919
152.172645792606 1.71188
152.204697509021 0.571101

>collision 40.0
53.0141676116076 0.505592
55.0303584729991 0.518666
57.0695527582165 0.501014
69.0342933554355 0.832348
97.0272360695093 8.32192
97.0587731045566 0.509946
107.035357616546 0.623222
109.051059086826 1.35872
110.034405427733 8.32912
110.062239568925 0.588836
134.044572254906 1.17908
135.02981439383 30.449
135.060105969895 2.20106
135.080479836863 1.00926
152.055950647938 100.0
152.115484315805 2.24701
152.14079837149 1.4488
152.171311501422 1.52857
152.213060271274 0.794091
152.316819445056 0.518666

