>compound Lidocaine
>formula C14H22N2O
>parentmass 235.181561092854
>charge 1

>ms1peaks
86.0968526624776 4.58062
235.183309608999 100.0
235.374534751295 10.9745
235.565607351723 0.529595

>collision 10.0
58.0658801711599 0.617406
86.0975259257949 75.8955
86.2143999845166 5.65064
235.181561092854 100.0
235.374899660933 7.86143

>collision 20.0
58.0652881990566 2.58197
86.0974471200864 100.0
86.2139641015965 9.76758
235.179456163995 2.6099

>collision 40.0
30.0340544069594 2.16702
58.0658902896624 31.161
58.1591524449116 1.16363
86.0971030310404 100.0
86.2143473109105 6.11818

