>compound Monoethylglycylxylidide (MEGX)
>formula C12H18N2O
>parentmass 207.148947689964
>charge 1

>ms1peaks
58.0657580833301 6.21522
207.148825595604 100.0
207.328335163469 2.04095

>collision 10.0
58.0659835743992 100.0
58.1592927904748 2.40562
122.09620588735 2.76985
207.148947689964 31.9969

>collision 20.0
30.0340172540052 0.958441
58.065522466027 100.0
58.159232462833 2.75012
122.095288699785 1.85842

>collision 40.0
29.0391939291262 0.851865
30.0340033050331 4.83428
58.0659015971335 100.0
58.1592492493363 1.87287
77.0390650285291 1.32336
79.0554573775493 0.668368
91.0548453616914 0.790416
105.069931876128 2.41443
106.064232824115 0.970397
107.07330067828 4.22669
122.094812637471 0.854244

