>compound Clotrimazole
>formula C22H17ClN2
>parentmass 345.116524533063
>charge 1

>ms1peaks
277.078269130444 100.0
345.116524533063 6.74904

>collision 10.0
165.069774339668 6.20822
277.078157773741 100.0

>collision 20.0
165.069961909228 24.1597
241.101754078901 7.93587
242.107093038482 9.49437
277.07890138474 100.0

>collision 40.0
125.010941883612 4.93633
165.070633578929 100.0
199.031184004481 19.0969
239.090974139091 6.69275
241.101491902935 25.2031
242.108324854889 10.846

