>compound L-Methionine_L-Methionine
#instrument UPLC Q-Tof Premier, Waters
>formula C5H11NO2S
#smiles N[C@@H](CCSC)C(O)=O
#RECORD LC-ESI-QTOF_train_data/PR100030.txt
>charge 1
>ionization [M+H]+
>parentmass 150.05885

>collision 5-60
104.0509 55.27
150.0545 903.0

