>compound Cytidine-5'-monophosphate_Cytidine-5'-monophosphate
#instrument UPLC Q-Tof Premier, Waters
>formula C9H14N3O8P
#smiles NC(C=2)=NC(=O)N(C2)[C@H](O1)[C@H](O)[C@H](O)[C@@H](COP(O)(O)=O)1
#RECORD LC-ESI-QTOF_train_data/PR100124.txt;LC-ESI-QTOF_train_data/PR100752.txt;LC-ESI-QTOF_train_data/PR100540.txt;LC-ESI-QTOF_train_data/PR100318.txt;LC-ESI-QTOF_train_data/PR100123.txt
>charge 1
>ionization [M+H]+
>parentmass 324.05965

>collision 30
112.0529 178.8
324.0597 59.51

>collision 5-60
78.9601 1035.0
96.9701 536.8
138.9805 70.71
322.044 610.0

>collision 5-60
78.9599 1803.0
96.9699 946.2
138.98 134.5
322.044 1089.0

>collision 5-60
95.0246 64.1
97.0284 62.72
112.0506 1074.0
324.0597 25.42

>collision 5-60
112.0519 110.6
324.0597 218.4

