>compound L-Glutamine_L-Glutamine
#instrument UPLC Q-Tof Premier, Waters
>formula C5H10N2O3
#smiles NC(=O)CC[C@H](N)C(O)=O
#RECORD LC-ESI-QTOF_train_data/PR100164.txt;LC-ESI-QTOF_train_data/PR100163.txt
>charge 1
>ionization [M+H]+
>parentmass 147.07694

>collision 30
56.053 7.333
84.0458 80.6

>collision 5-60
84.0447 799.0
130.0502 462.2
147.0769 74.8

