>compound L-Glutamic acid_L-Glutamic acid
#instrument UPLC Q-Tof Premier, Waters
>formula C5H9NO4
#smiles OC(=O)CC[C@H](N)C(O)=O
#RECORD LC-ESI-QTOF_train_data/PR100162.txt;LC-ESI-QTOF_train_data/PR100580.txt
>charge 1
>ionization [M+H]+
>parentmass 148.06096

>collision 5-60
84.0444 772.6
102.0552 188.1
130.0502 187.7
148.061 86.1

>collision 5-60
102.0559 101.3
128.0353 59.49
146.0454 67.59

