>compound L-Tyrosine_L-Tyrosine
#instrument UPLC Q-Tof Premier, Waters
>formula C9H11NO3
#smiles OC(=O)C(N)Cc(c1)ccc(O)c1
#RECORD LC-ESI-QTOF_train_data/PR100036.txt;LC-ESI-QTOF_train_data/PR100499.txt;LC-ESI-QTOF_train_data/PR100035.txt
>charge 1
>ionization [M+H]+
>parentmass 182.08169

>collision 30
123.0476 19.05
136.0806 44.31
165.0599 10.75
181.9998 8.82
182.0817 88.39

>collision 5-60
72.0099 64.18
93.035 66.93
119.05 186.9
163.0399 235.4
180.0661 490.8

>collision 5-60
136.0762 135.2
182.0817 1026.0

