>compound 1,4-Diaminobutane_1,4-Diaminobutane
#instrument UPLC Q-Tof Premier, Waters
>formula C4H12N2
#smiles NCCCCN
#RECORD LC-ESI-QTOF_train_data/PR100038.txt
>charge 1
>ionization [M+H]+
>parentmass 89.10784

>collision 5-60
72.0827 3.329
89.1078 24.35

