>compound L-Leucine_L-Leucine
#instrument UPLC Q-Tof Premier, Waters
>formula C6H13NO2
#smiles CC(C)C[C@H](N)C(O)=O
#RECORD LC-ESI-QTOF_train_data/PR100496.txt
>charge -1
>ionization [M-H]-
>parentmass 130.08682

>collision 5-60
84.083 3.648
130.0868 322.9

