>compound Cytidine-5'-diphosphate_Cytidine-5'-diphosphate
#instrument UPLC Q-Tof Premier, Waters
>formula C9H15N3O11P2
#smiles NC(C=2)=NC(=O)N(C2)[C@H](O1)[C@H](O)[C@H](O)[C@@H](COP(O)(=O)OP(O)(O)=O)1
#RECORD LC-ESI-QTOF_train_data/PR100120.txt;LC-ESI-QTOF_train_data/PR100119.txt;LC-ESI-QTOF_train_data/PR100538.txt
>charge 1
>ionization [M+H]+
>parentmass 404.02598

>collision 30
105.0758 13.99
121.0703 6.545
129.0576 2.247
147.0723 2.532
267.1382 8.087
387.1947 19.7
404.026 1.824
404.2043 13.56
404.2288 13.44

>collision 5-60
105.0615 7.447
387.1482 32.03
404.1728 73.4

>collision 5-60
78.9594 149.0
110.0355 24.18
158.9241 84.32
304.0305 16.15
383.9996 23.19
402.0104 122.4

