>compound Guanosine 5'-monophosphate_Guanosine 5'-monophosphate
#instrument UPLC Q-Tof Premier, Waters
>formula C10H14N5O8P
#smiles NC(N3)=Nc(c2C(=O)3)n(cn2)C(O1)C(O)C(O)C(COP(O)(O)=O)1
#RECORD LC-ESI-QTOF_train_data/PR100145.txt;LC-ESI-QTOF_train_data/PR100754.txt;LC-ESI-QTOF_train_data/PR100567.txt;LC-ESI-QTOF_train_data/PR100144.txt;LC-ESI-QTOF_train_data/PR100319.txt
>charge 1
>ionization [M+H]+
>parentmass 364.0658

>collision 30
152.063 120.5
364.0658 57.81

>collision 5-60
78.9602 3134.0
96.9706 527.9
133.0161 331.2
150.0427 335.6
211.0018 701.0
362.0502 1577.0

>collision 5-60
78.9597 1782.0
96.9699 291.4
133.0149 181.2
150.0415 203.1
211.0005 412.2
362.0502 998.6

>collision 5-60
152.0567 88.82
364.0658 189.6

>collision 5-60
97.0292 190.9
110.0355 217.5
135.0308 698.2
152.0571 3208.0
364.0658 145.1

