>compound 4-hydroxy-benzoate_4-hydroxy-benzoate
#instrument UPLC Q-Tof Premier, Waters
>formula C7H6O3
#smiles Oc(c1)ccc(c1)C(O)=O
#RECORD LC-ESI-QTOF_train_data/PR100187.txt;LC-ESI-QTOF_train_data/PR100596.txt
>charge 1
>ionization [M+H]+
>parentmass 139.03949

>collision 5-60
95.0503 33.43
121.0293 30.91
139.0395 17.06

>collision 5-60
93.0341 380.3
137.0239 97.33

