>compound Guanine_Guanine
#instrument UPLC Q-Tof Premier, Waters
>formula C5H5N5O
#smiles NC(N1)=Nc(n2)c(nc2)C(=O)1
#RECORD LC-ESI-QTOF_train_data/PR100561.txt;LC-ESI-QTOF_train_data/PR100138.txt
>charge -1
>ionization [M-H]-
>parentmass 150.04161

>collision 5-60
66.01 19.73
108.02 34.24
133.0153 183.1
150.0416 104.3

>collision 5-60
111.0206 25.78
131.5321 23.01
152.0572 214.4

