>compound 2'-Deoxyguanosine 5'-monophosphate_2'-Deoxyguanosine 5'-monophosphate
#instrument UPLC Q-Tof Premier, Waters
>formula C10H14N5O7P
#smiles NC(N3)=Nc(c2C(=O)3)n(cn2)[C@@H](C1)O[C@H](COP(O)(O)=O)[C@@H](O)1
#RECORD LC-ESI-QTOF_train_data/PR100696.txt;LC-ESI-QTOF_train_data/PR100273.txt
>charge -1
>ionization [M-H]-
>parentmass 346.05528

>collision 5-60
78.9598 1478.0
96.97 233.4
133.0154 215.2
150.0415 253.2
346.0553 615.3

>collision 5-60
81.0342 710.8
110.0361 378.6
135.0319 1260.0
152.0584 6004.0
348.0727 99.82

