>compound trans-Zeatin_trans-Zeatin
#instrument UPLC Q-Tof Premier, Waters
>formula C10H13N5O
#smiles OCC(C)=CCNc(n2)c(n1)c(nc2)nc1
#RECORD LC-ESI-QTOF_train_data/PR100759.txt;LC-ESI-QTOF_train_data/PR100323.txt
>charge -1
>ionization [M-H]-
>parentmass 218.1042

>collision 5-60
92.0255 63.37
107.0365 92.35
117.021 77.7
132.0316 145.9
133.0397 490.4
134.0473 682.6
188.0943 162.2
200.0939 237.8
218.1042 675.5

>collision 5-60
119.0369 220.0
136.0629 1374.0
148.0634 201.2
185.0829 85.88
202.1102 248.0
220.1198 663.5

