>compound 2'-Deoxyadenosine-5'-monophosphate_2'-Deoxyadenosine-5'-monophosphate
#instrument UPLC Q-Tof Premier, Waters
>formula C10H14N5O6P
#smiles O[C@@H](C1)[C@@H](COP(O)(O)=O)O[C@H]1n(c3)c(n2)c(n3)c(N)nc2
#RECORD LC-ESI-QTOF_train_data/PR100521.txt;LC-ESI-QTOF_train_data/PR100084.txt;LC-ESI-QTOF_train_data/PR100083.txt
>charge -1
>ionization [M-H]-
>parentmass 330.06037

>collision 5-60
78.9595 1347.0
96.9692 392.6
134.0469 1037.0
176.9959 209.1
195.0064 474.0
330.0604 926.5

>collision 30
81.0357 45.71
136.0653 224.7
332.076 175.1

>collision 5-60
136.0633 150.3
332.076 558.6

