>compound D-(+)-Glucosamine_D-(+)-Glucosamine
#instrument UPLC Q-Tof Premier, Waters
>formula C6H13NO5
#smiles OCC(O1)C(O)C(O)C(N)C(O)1
#RECORD LC-ESI-QTOF_train_data/PR100125.txt;LC-ESI-QTOF_train_data/PR100126.txt
>charge 1
>ionization [M+H]+
>parentmass 180.08717

>collision 5-60
162.0775 70.2
180.0872 478.5

>collision 30
72.0467 5.321
162.08 5.198
179.9997 2.999
180.0333 3.252
180.0872 32.53

