>compound O-Phosphorylethanolamine_O-Phosphorylethanolamine
#instrument UPLC Q-Tof Premier, Waters
>formula C2H8NO4P
#smiles NCCOP(O)(O)=O
#RECORD LC-ESI-QTOF_train_data/PR100842.txt
>charge -1
>ionization [M-H]-
>parentmass 140.01129

>collision 5-60
78.9599 211.4
140.0113 26.07

