>compound Guanosine_Guanosine
#instrument UPLC Q-Tof Premier, Waters
>formula C10H13N5O5
#smiles OC[C@@H](O1)[C@@H](O)[C@@H](O)[C@@H]1n(c3)c(N=2)c(n3)C(=O)NC(N)2
#RECORD LC-ESI-QTOF_train_data/PR100140.txt;LC-ESI-QTOF_train_data/PR100139.txt;LC-ESI-QTOF_train_data/PR100562.txt
>charge 1
>ionization [M+H]+
>parentmass 284.09946

>collision 30
152.0615 457.9
283.9937 15.52
284.0132 15.59
284.0995 146.1

>collision 5-60
152.0585 375.1
283.9827 19.14
284.0995 579.8

>collision 5-60
108.0201 538.9
133.0154 966.8
150.0415 2594.0
282.0839 885.1

