>compound D-Glucosamine-6-phosphate_D-Glucosamine-6-phosphate
#instrument UPLC Q-Tof Premier, Waters
>formula C6H14NO8P
#smiles O[C@@H](O1)[C@H](N)[C@@H](O)[C@H](O)[C@H]1COP(O)(O)=O
#RECORD LC-ESI-QTOF_train_data/PR100516.txt;LC-ESI-QTOF_train_data/PR100068.txt;LC-ESI-QTOF_train_data/PR100067.txt
>charge -1
>ionization [M-H]-
>parentmass 258.0379

>collision 5-60
78.9596 609.0
96.9694 882.8
199.0013 100.7
258.0379 217.2

>collision 30
84.0472 8.723
98.066 3.578
108.0511 5.798
126.0603 25.34
144.0716 12.55
206.0274 10.61
224.0401 6.027
242.0579 3.449
259.9533 4.443
260.0535 34.38

>collision 5-60
126.0558 18.33
260.0535 152.8

