>compound Guanosine 5'-diphosphoglucose_Guanosine 5'-diphosphoglucose
#instrument UPLC Q-Tof Premier, Waters
>formula C16H25N5O16P2
#smiles OCC(O1)C(O)C(O)C(O)C1OP(O)(=O)OP(O)(=O)OCC(O2)C(O)C(O)C2n(c4)c(N=3)c(n4)C(=O)NC(N)3
#RECORD LC-ESI-QTOF_train_data/PR100565.txt;LC-ESI-QTOF_train_data/PR100143.txt
>charge -1
>ionization [M-H]-
>parentmass 604.06935

>collision 5-60
78.9601 1566.0
96.9701 282.1
158.9257 254.4
211.0018 301.8
241.0127 361.5
362.052 1603.0
424.0093 209.2
604.0693 1938.0

>collision 5-60
444.0401 5.963
605.8243 1.756
605.911 1.646
606.085 26.06

