>compound 3,4-Dihydroxy-L-phenylalanine_3,4-Dihydroxy-L-phenylalanine
#instrument UPLC Q-Tof Premier, Waters
>formula C9H11NO4
#smiles OC(=O)C([H])(N)Cc(c1)cc(O)c(O)c1
#RECORD LC-ESI-QTOF_train_data/PR100092.txt;LC-ESI-QTOF_train_data/PR100091.txt
>charge 1
>ionization [M+H]+
>parentmass 198.0766

>collision 30
107.0549 1.886
139.0439 4.324
152.0725 10.64
181.0503 2.121
197.9391 2.087
197.9795 1.679
198.0766 17.97

>collision 5-60
152.0717 14.11
181.0496 8.209
198.0766 135.2

