>compound gamma-Amino-n-butyric acid_gamma-Amino-n-butyric acid
#instrument UPLC Q-Tof Premier, Waters
>formula C4H9NO2
#smiles NCCCC(O)=O
#RECORD LC-ESI-QTOF_train_data/PR100220.txt
>charge 1
>ionization [M+H]+
>parentmass 104.07113

>collision 5-60
69.0348 60.77
86.0609 73.8
87.045 311.5
104.0711 46.37

