>compound trans-Cinnamic acid_trans-Cinnamic acid
#instrument UPLC Q-Tof Premier, Waters
>formula C9H8O2
#smiles OC(=O)C=Cc(c1)cccc1
#RECORD LC-ESI-QTOF_train_data/PR100060.txt;LC-ESI-QTOF_train_data/PR100513.txt
>charge 1
>ionization [M+H]+
>parentmass 149.06023

>collision 5-60
131.0512 8.178
149.0074 8.39
149.0555 81.15

>collision 5-60
102.9346 15.17
103.0548 81.54
145.888 8.815
146.8973 46.19
147.0446 51.43

