>compound Cytidine_Cytidine
#instrument UPLC Q-Tof Premier, Waters
>formula C9H13N3O5
#smiles OC[C@@H](O1)[C@@H](O)[C@@H](O)[C@@H]1N(C=2)C(=O)N=C(N)C2
#RECORD LC-ESI-QTOF_train_data/PR100116.txt;LC-ESI-QTOF_train_data/PR100115.txt;LC-ESI-QTOF_train_data/PR100536.txt
>charge 1
>ionization [M+H]+
>parentmass 244.09332

>collision 30
112.0539 322.4
133.0548 15.85
244.0047 15.28
244.0933 108.7

>collision 5-60
112.052 342.4
244.019 20.32
244.0933 557.1

>collision 5-60
81.0464 63.19
109.0402 287.2
110.0367 26.46
152.045 29.37
242.0777 118.1

