>compound 5,6-Dihydrouracil_5,6-Dihydrouracil
#instrument UPLC Q-Tof Premier, Waters
>formula C4H6N2O2
#smiles O=C(C1)NC(=O)NC1
#RECORD LC-ESI-QTOF_train_data/PR100394.txt
>charge 1
>ionization [M+H]+
>parentmass 115.05073

>collision 5-60
55.0205 2.177
70.0293 4.909
72.0452 5.301
73.0482 1.485
73.9313 2.823
87.048 2.24
98.0239 4.715
99.5091 2.866
115.0507 45.06

