>compound beta-Nicotinamide mononucleotide_beta-Nicotinamide mononucleotide
#instrument UPLC Q-Tof Premier, Waters
>formula C11H15N2O8P
#smiles NC(=O)c(c2)c[n+1](cc2)[C@H](O1)[C@H](O)[C@H](O)[C@@H](COP(O)([O-1])=O)1
#RECORD LC-ESI-QTOF_train_data/PR100219.txt
>charge 1
>ionization [M+H]+
>parentmass 335.0644

>collision 5-60
80.0496 146.1
97.0289 635.2
123.0554 2237.0
335.0644 99.82

