>compound N-alpha-Acetyl-L-ornithine_N-alpha-Acetyl-L-ornithine
#instrument UPLC Q-Tof Premier, Waters
>formula C7H14N2O3
#smiles NCCCC(NC(C)=O)C(O)=O
#RECORD LC-ESI-QTOF_train_data/PR100735.txt;LC-ESI-QTOF_train_data/PR100304.txt;LC-ESI-QTOF_train_data/PR100305.txt
>charge -1
>ionization [M-H]-
>parentmass 173.09264

>collision 5-60
129.1039 38.04
131.0826 433.4
173.0926 148.1

>collision 5-60
70.0659 1392.0
71.0503 172.7
74.0247 129.6
112.0763 197.7
115.0866 1363.0
116.0714 539.7
157.0977 264.6
158.0823 444.0
175.1082 255.0

>collision 5-60
70.0659 1392.0
71.0503 172.7
74.0247 129.6
112.0763 197.7
115.0866 1363.0
116.0714 539.7
157.0977 264.6
158.0823 444.0
175.1082 255.0

