>compound O-Phosphocholine_O-Phosphocholine
#instrument UPLC Q-Tof Premier, Waters
>formula C5H15NO4P
#smiles C[N+1](C)(C)CCOP(O)(O)=O
#RECORD LC-ESI-QTOF_train_data/PR100866.txt;LC-ESI-QTOF_train_data/PR100407.txt
>charge -1
>ionization [M-2H]-
>parentmass 182.05824

>collision 5-60
52.9646 1.156
59.5593 1.156
65.8643 1.046
66.3496 1.119
78.9429 1.675
81.1398 1.159
87.5454 1.097
181.8149 6.798

>collision 5-60
71.0742 90.79
86.097 579.7
98.9852 291.5
125.001 572.5
184.0738 830.0

