>compound 4-Aminobenzoic acid_4-Aminobenzoic acid
#instrument UPLC Q-Tof Premier, Waters
>formula C7H7NO2
#smiles Nc(c1)ccc(c1)C(O)=O
#RECORD LC-ESI-QTOF_train_data/PR100063.txt
>charge 1
>ionization [M+H]+
>parentmass 138.05548

>collision 5-60
77.0404 1073.0
94.067 1077.0
138.0555 2643.0

