>compound Xanthosine-5'-monophosphate_Xanthosine-5'-monophosphate
#instrument UPLC Q-Tof Premier, Waters
>formula C10H13N4O9P
#smiles O=C(N3)Nc(c2C(=O)3)n(cn2)[C@H](O1)[C@H](O)[C@H](O)[C@@H](COP(O)(O)=O)1
#RECORD LC-ESI-QTOF_train_data/PR100625.txt;LC-ESI-QTOF_train_data/PR100212.txt
>charge -1
>ionization [M-H]-
>parentmass 363.03421

>collision 5-60
78.9602 731.2
96.97 470.2
108.0205 274.0
120.9695 54.23
151.026 1057.0
211.0015 975.2
363.0342 703.4

>collision 5-60
69.0351 7.177
97.0289 366.2
99.5098 3.697
110.0353 21.44
136.0141 31.09
153.0414 124.9
213.0172 15.1
365.0498 8.849

