>compound 2,5-dihydroxy benzoic acid_2,5-dihydroxy benzoic acid
#instrument UPLC Q-Tof Premier, Waters
>formula C7H6O4
#smiles Oc(c1)cc(C(O)=O)c(O)c1
#RECORD LC-ESI-QTOF_train_data/PR100383.txt;LC-ESI-QTOF_train_data/PR100832.txt
>charge 1
>ionization [M+H]+
>parentmass 155.03441

>collision 5-60
67.9333 3.825
81.0317 12.75
85.9416 4.324
92.9659 5.037
98.982 45.36
99.51 6.863
109.0261 9.404
113.9367 5.201
113.9587 4.178
137.0189 51.67
155.0344 3.927

>collision 5-60
108.0218 668.7
109.0294 715.1
153.0188 474.3

