>compound sn-Glycero-3-phosphocholine_sn-Glycero-3-phosphocholine
#instrument UPLC Q-Tof Premier, Waters
>formula C8H21NO6P
#smiles OCC(O)COP(O)(=O)OCC[N+1](C)(C)C
#RECORD LC-ESI-QTOF_train_data/PR100313.txt
>charge 1
>ionization [M]+
>parentmass 258.11062

>collision 5-60
86.0971 464.2
98.9853 233.8
104.1076 1723.0
125.0012 626.7
184.0748 157.7
258.1106 504.5

