>compound gamma-Glu-Cys_gamma-Glu-Cys
#instrument UPLC Q-Tof Premier, Waters
>formula C8H14N2O5S
#smiles SC[C@@H](C(O)=O)NC(=O)CC[C@H](N)C(O)=O
#RECORD LC-ESI-QTOF_train_data/PR100326.txt
>charge 1
>ionization [M+H]+
>parentmass 251.07014

>collision 5-60
74.0229 7.429
84.0455 82.42
85.0449 6.891
120.0135 6.746
122.029 9.162
130.0507 19.48
151.986 9.318
186.0245 9.09
188.0435 4.171
241.0334 10.08
251.0701 4.29

