>compound 2'-Deoxycytidine-5'-diphosphate_2'-Deoxycytidine-5'-diphosphate
#instrument UPLC Q-Tof Premier, Waters
>formula C9H15N3O10P2
#smiles NC(C=2)=NC(=O)N(C2)[C@@H](C1)O[C@H](COP(O)(=O)OP(O)(O)=O)[C@@H](O)1
#RECORD LC-ESI-QTOF_train_data/PR100087.txt;LC-ESI-QTOF_train_data/PR100088.txt;LC-ESI-QTOF_train_data/PR100523.txt
>charge 1
>ionization [M+H]+
>parentmass 388.03107

>collision 5-60
105.0895 127.3
106.0929 17.12
121.0863 16.7
387.2481 220.9
388.2513 108.9

>collision 30
105.0778 154.3
106.0825 23.04
121.073 22.56
387.1988 57.67
388.2008 30.55

>collision 5-60
78.9597 185.4
96.9693 13.59
158.9249 101.3
162.8948 8.148
256.9616 20.56
274.9731 14.14
368.003 25.06
386.0155 155.3

