>compound 2'-Deoxycytidine_2'-Deoxycytidine
#instrument UPLC Q-Tof Premier, Waters
>formula C9H13N3O4
#smiles OC[C@@H](O1)[C@@H](O)C[C@@H]1N(C=2)C(=O)N=C(N)C2
#RECORD LC-ESI-QTOF_train_data/PR100522.txt;LC-ESI-QTOF_train_data/PR100086.txt;LC-ESI-QTOF_train_data/PR100085.txt
>charge -1
>ionization [M-H]-
>parentmass 226.0828

>collision 5-60
66.0362 14.04
93.0472 90.66
135.0583 13.81
209.9796 10.85
226.0144 12.92
226.0828 21.75

>collision 30
112.0536 148.5
117.0582 38.37
228.0984 74.98

>collision 5-60
112.0513 209.9
228.0984 299.8

