>compound O-Acetyl-L-serine_O-Acetyl-L-serine
#instrument UPLC Q-Tof Premier, Waters
>formula C5H9NO4
#smiles CC(=O)OC[C@H](N)C(O)=O
#RECORD LC-ESI-QTOF_train_data/PR100272.txt
>charge 1
>ionization [M+H]+
>parentmass 148.06096

>collision 5-60
60.0452 123.3
70.0297 30.14
88.0393 457.2
102.0557 30.93
106.0499 362.4
130.05 48.09
131.0346 23.31
148.061 64.03

