>compound L-2-Aminoadipic acid_L-2-Aminoadipic acid
#instrument UPLC Q-Tof Premier, Waters
>formula C6H11NO4
#smiles OC(=O)CCC[C@H](N)C(O)=O
#RECORD LC-ESI-QTOF_train_data/PR100729.txt;LC-ESI-QTOF_train_data/PR100296.txt
>charge -1
>ionization [M-H]-
>parentmass 160.061

>collision 5-60
98.0598 19.63
116.0714 72.62
142.0505 59.2
160.061 88.47
160.8423 69.17

>collision 5-60
98.0609 162.3
116.0722 47.15
144.0674 46.99
162.0766 29.43

