>compound Guanosine-3',5'-cyclic monophosphate_Guanosine-3',5'-cyclic monophosphate
#instrument UPLC Q-Tof Premier, Waters
>formula C10H12N5O7P
#smiles NC(N4)=Nc(c3C(=O)4)n(cn3)[C@H](O1)[C@H](O)[C@H](O2)[C@@H](COP(O)(=O)2)1
#RECORD LC-ESI-QTOF_train_data/PR100141.txt;LC-ESI-QTOF_train_data/PR100563.txt
>charge 1
>ionization [M+H]+
>parentmass 346.05523

>collision 5-60
135.032 448.0
152.0582 1699.0
346.0552 286.9

>collision 5-60
78.9604 1418.0
96.9707 184.7
107.0371 160.5
108.0212 370.0
133.0162 1769.0
150.0426 2939.0
344.0396 2768.0

