>compound 3-Methyladenine_3-Methyladenine
#instrument UPLC Q-Tof Premier, Waters
>formula C6H7N5
#smiles CN(C=1)C(=N2)C(N=C2)=C(N)N1
#RECORD LC-ESI-QTOF_train_data/PR100062.txt;LC-ESI-QTOF_train_data/PR100061.txt
>charge 1
>ionization [M+H]+
>parentmass 150.07794

>collision 30
123.0651 2.781
150.0779 38.81

>collision 5-60
149.9734 26.55
150.0779 2031.0

