>compound Cytidine-3',5'-cyclicmonophosphate_Cytidine-3',5'-cyclicmonophosphate
#instrument UPLC Q-Tof Premier, Waters
>formula C9H12N3O7P
#smiles NC(C=3)=NC(=O)N(C3)[C@H](O1)[C@H](O)[C@H](O2)[C@@H](COP(O)(=O)2)1
#RECORD LC-ESI-QTOF_train_data/PR100118.txt;LC-ESI-QTOF_train_data/PR100537.txt;LC-ESI-QTOF_train_data/PR100117.txt
>charge 1
>ionization [M+H]+
>parentmass 306.04909

>collision 30
112.0532 400.9
305.9271 26.2
306.0491 241.7

>collision 5-60
67.0318 228.2
78.9602 3596.0
96.9704 748.8
110.0364 2529.0
134.9858 185.2
192.9921 255.2
304.0335 3604.0

>collision 5-60
112.0515 243.2
306.0491 863.2

