>compound DL-beta-Hydroxybutyric acid_DL-beta-Hydroxybutyric acid
#instrument UPLC Q-Tof Premier, Waters
>formula C4H8O3
#smiles CC(O)CC(O)=O
#RECORD LC-ESI-QTOF_train_data/PR100550.txt
>charge -1
>ionization [M-H]-
>parentmass 103.03954

>collision 5-60
59.0141 12.52
103.0395 24.12

