>compound O-Acetyl-L-homoserine_O-Acetyl-L-homoserine
#instrument UPLC Q-Tof Premier, Waters
>formula C6H11NO4
#smiles CC(=O)OCC[C@H](N)C(O)=O
#RECORD LC-ESI-QTOF_train_data/PR100306.txt
>charge 1
>ionization [M+H]+
>parentmass 162.0766

>collision 5-60
56.0508 71.7
74.0241 184.0
74.0603 472.7
84.0448 137.6
102.0549 740.9
120.0654 243.1
162.0766 134.5

