>compound D-Sorbitol-6-phosphate_D-Sorbitol-6-phosphate
#instrument UPLC Q-Tof Premier, Waters
>formula C6H15O9P
#smiles OC[C@H](O)[C@@H](O)[C@H](O)[C@H](O)COP(O)(O)=O
#RECORD LC-ESI-QTOF_train_data/PR100780.txt;LC-ESI-QTOF_train_data/PR100336.txt
>charge -1
>ionization [M-H]-
>parentmass 261.03757

>collision 5-60
78.9602 1850.0
96.9703 1660.0
261.0376 1075.0

>collision 5-60
69.0327 58.2
93.0686 30.38
105.0691 27.56
121.0638 54.73
147.0632 33.14
154.9072 74.15
166.9069 26.82
182.9024 22.94
196.9174 56.57
208.9148 29.6
238.9268 22.11
263.0532 174.4

