>compound D-(+)-Fucose_D-(+)-Fucose
#instrument UPLC Q-Tof Premier, Waters
>formula C6H12O5
#smiles C[C@@H](O1)[C@H](O)[C@H](O)[C@@H](O)C(O)1
#RECORD LC-ESI-QTOF_train_data/PR100278.txt
>charge 1
>ionization [M+H]+
>parentmass 165.07627

>collision 5-60
75.0483 5.246
133.0549 3.502
134.0584 6.731
164.0685 5.935

