>compound 6-Hydroxynicotinic acid_6-Hydroxynicotinic acid
#instrument UPLC Q-Tof Premier, Waters
>formula C6H5NO3
#smiles OC(=O)c(c1)cnc(O)c1
#RECORD LC-ESI-QTOF_train_data/PR100730.txt;LC-ESI-QTOF_train_data/PR100297.txt;LC-ESI-QTOF_train_data/PR100298.txt
>charge -1
>ionization [M-H]-
>parentmass 138.01914

>collision 5-60
94.0297 282.3
138.0191 53.37

>collision 5-60
66.0357 25.72
78.0348 112.3
94.0297 88.93
95.014 26.3
98.9648 35.45
112.0404 14.83
122.0249 403.1
140.0347 1150.0

>collision 30
66.0367 10.46
78.0356 43.65
94.0309 20.72
122.0249 26.96
140.0347 23.84

