>compound 3-Methyl-L-histidine_3-Methyl-L-histidine
#instrument UPLC Q-Tof Premier, Waters
>formula C7H11N3O2
#smiles OC(=O)[C@@H](N)Cc(c1)n(C)cn1
#RECORD LC-ESI-QTOF_train_data/PR100835.txt;LC-ESI-QTOF_train_data/PR100385.txt
>charge -1
>ionization [M-H]-
>parentmass 168.07732

>collision 5-60
72.0102 32.2
107.0621 16.05
151.0513 131.5
168.0773 318.9

>collision 5-60
95.0625 829.2
96.0697 2456.0
97.0779 503.0
109.0779 1397.0
126.1051 524.4
170.0929 1820.0

