>compound trans-4-Hydroxy-L-proline_trans-4-Hydroxy-L-proline
#instrument UPLC Q-Tof Premier, Waters
>formula C5H9NO3
#smiles [H]C(O)(C1)CC([H])(N1)C(O)=O
#RECORD LC-ESI-QTOF_train_data/PR100208.txt;LC-ESI-QTOF_train_data/PR100613.txt
>charge 1
>ionization [M+H]+
>parentmass 132.06604

>collision 5-60
68.0504 459.3
86.0604 1289.0
132.066 699.8

>collision 5-60
71.0155 14.94
84.0463 15.56
128.0353 121.0
130.0504 345.9

