>compound Nicotinic acid mono nucleotide_Nicotinic acid mono nucleotide
#instrument UPLC Q-Tof Premier, Waters
>formula C11H14NO9P
#smiles [O-1]C(=O)c(c2)c[n+1](cc2)C(O1)C(O)C(O)C(COP(O)(O)=O)1
#RECORD LC-ESI-QTOF_train_data/PR100183.txt;LC-ESI-QTOF_train_data/PR100592.txt
>charge 1
>ionization [M+H]+
>parentmass 336.04842

>collision 5-60
97.0288 574.9
124.0395 1224.0
336.0484 71.71

>collision 5-60
78.9595 269.9
79.1067 3.034
79.5203 2.899
80.0509 7.252
96.9693 166.4
97.6608 3.073
138.9784 42.0
150.977 9.345
162.9771 3.304
192.9897 44.2
210.9994 25.26
290.0424 141.1
334.0328 4.698

