>compound O-Succinyl-L-Homoserine_O-Succinyl-L-Homoserine
#instrument UPLC Q-Tof Premier, Waters
>formula C8H13NO6
#smiles OC(=O)CCC(=O)OCCC(N)C(O)=O
#RECORD LC-ESI-QTOF_train_data/PR100299.txt
>charge 1
>ionization [M+H]+
>parentmass 220.08208

>collision 5-60
73.0298 218.4
74.0249 340.0
74.0612 1050.0
84.0457 239.4
101.0247 557.7
102.0557 1937.0
120.0668 579.4
220.0821 547.1

