>compound Trimethylamine N-oxide_Trimethylamine N-oxide
#instrument UPLC Q-Tof Premier, Waters
>formula C3H9NO
#smiles C[N+1](C)(C)[O-1]
#RECORD LC-ESI-QTOF_train_data/PR100384.txt
>charge 1
>ionization [M+H]+
>parentmass 76.07621

>collision 30
58.0667 18.1
59.0736 7.097
60.0462 2.731
76.0762 32.28

