>compound 1-Aminocyclopropane-1-carboxylic acid_1-Aminocyclopropane-1-carboxylic acid
#instrument UPLC Q-Tof Premier, Waters
>formula C4H7NO2
#smiles OC(=O)C(N)(C1)C1
#RECORD LC-ESI-QTOF_train_data/PR100488.txt;LC-ESI-QTOF_train_data/PR100012.txt
>charge -1
>ionization [M-H]-
>parentmass 100.03988

>collision 5-60
99.9251 4.714
100.0399 36.04

>collision 5-60
56.0514 23.57
102.0555 315.5

