>compound L-Anserine_L-Anserine
#instrument UPLC Q-Tof Premier, Waters
>formula C10H16N4O3
#smiles NCCC(=O)N[C@H](C(O)=O)Cc(c1)n(C)cn1
#RECORD LC-ESI-QTOF_train_data/PR100845.txt;LC-ESI-QTOF_train_data/PR100392.txt
>charge -1
>ionization [M-H]-
>parentmass 239.11443

>collision 5-60
151.0507 66.15
164.8955 76.58
166.0987 105.2
168.0772 458.5
223.0287 128.2
238.915 45.72
239.1144 338.5

>collision 5-60
95.0617 273.8
96.0696 500.0
97.0777 146.7
109.0776 1141.0
126.1046 353.3
153.0686 222.1
170.0946 481.6
224.1054 107.4
241.13 1186.0

