>compound Adenosine 3'-monophosphate_Adenosine 3'-monophosphate
#instrument UPLC Q-Tof Premier, Waters
>formula C10H14N5O7P
#smiles OC[C@@H](O1)[C@@H](OP(O)(O)=O)[C@@H](O)[C@@H]1n(c3)c(n2)c(n3)c(N)nc2
#RECORD LC-ESI-QTOF_train_data/PR100446.txt;LC-ESI-QTOF_train_data/PR100898.txt
>charge 1
>ionization [M+H]+
>parentmass 348.07088

>collision 5-60
119.0362 129.1
136.0627 2108.0
348.0709 368.5

>collision 5-60
78.9602 1514.0
96.9704 392.5
134.0473 866.0
211.0013 1447.0
346.0553 743.2

