>compound trans-4-Hydroxy-3-methoxycinnamate_trans-4-Hydroxy-3-methoxycinnamate
#instrument UPLC Q-Tof Premier, Waters
>formula C10H10O4
#smiles COc(c1)c(O)ccc(C=CC(O)=O)1
#RECORD LC-ESI-QTOF_train_data/PR100004.txt;LC-ESI-QTOF_train_data/PR100482.txt;LC-ESI-QTOF_train_data/PR100005.txt
>charge 1
>ionization [M+H]+
>parentmass 195.06571

>collision 5-60
177.0556 69.33
195.0657 359.2

>collision 5-60
134.0369 1318.0
149.061 159.4
178.0264 354.7
193.0501 445.7

>collision 30
145.0324 11.24
149.0614 6.524
177.0544 34.25
194.9949 6.052
195.0657 47.05

