>compound Farnesol (mixture of isomers)_Farnesol (mixture of isomers)
#instrument UPLC Q-Tof Premier, Waters
>formula C15H26O
#smiles OCC=C(C)CCC=C(C)CCC=C(C)C
#RECORD LC-ESI-QTOF_train_data/PR100824.txt;LC-ESI-QTOF_train_data/PR100374.txt
>charge -1
>ionization [M-H]-
>parentmass 221.19055

>collision 5-60
143.92 3.668
144.9197 2.537
145.9212 5.682
160.9231 11.02
162.925 16.4
204.8963 2.535
205.8968 7.066
220.905 14.41

>collision 5-60
73.0697 240.0
191.0585 1196.0
207.0933 2301.0
209.0748 253.6
223.13 430.2
225.1103 286.2

