>compound Luteolin_Luteolin
#instrument UPLC Q-Tof Premier, Waters
>formula C15H10O6
#smiles Oc(c3)c(O)cc(c3)C(=C1)Oc(c2)c(c(O)cc(O)2)C(=O)1
#RECORD LC-ESI-QTOF_train_data/PR100231.txt;LC-ESI-QTOF_train_data/PR100643.txt;LC-ESI-QTOF_train_data/PR100230.txt;LC-ESI-QTOF_train_data/PR100644.txt
>charge 1
>ionization [M+H]+
>parentmass 287.05554

>collision 30
67.0193 60.84
68.9974 63.09
89.0394 67.35
117.0346 82.26
135.0449 177.2
137.024 62.15
153.0186 477.7
161.0244 73.6
241.0493 65.08
287.0555 224.6

>collision 5-60
107.0141 79.25
132.0227 73.71
133.0294 582.1
151.0033 113.9
175.0399 71.28
285.0399 1230.0

>collision 5-60
153.0199 216.0
287.0555 1119.0

>collision 30
63.0246 27.69
65.0044 87.17
83.0138 75.82
105.0345 40.25
107.0139 199.2
121.0287 63.59
132.0204 83.7
133.0282 1373.0
143.0498 21.37
145.0287 20.58
147.0435 17.81
149.0236 71.62
151.0021 128.2
171.0441 25.29
174.03 15.1
175.0391 99.27
198.0315 24.37
199.0384 53.52
201.0176 38.05
215.0341 18.58
217.0483 17.57
285.0399 29.92

