>compound Benzamidine_Benzamidine
#instrument UPLC Q-Tof Premier, Waters
>formula C7H8N2
#smiles NC(=N)c(c1)cccc1
#RECORD LC-ESI-QTOF_train_data/PR100109.txt
>charge 1
>ionization [M+H]+
>parentmass 121.07654

>collision 5-60
104.0497 39.94
121.0172 32.34
121.0765 1878.0

