>compound 2-Hydroxycinnamic acid, predominantly trans_2-Hydroxycinnamic acid, predominantly trans
#instrument UPLC Q-Tof Premier, Waters
>formula C9H8O3
#smiles OC(=O)C=Cc(c1)c(O)ccc1
#RECORD LC-ESI-QTOF_train_data/PR100185.txt;LC-ESI-QTOF_train_data/PR100593.txt
>charge 1
>ionization [M+H]+
>parentmass 165.05514

>collision 5-60
65.0384 19.63
69.0333 19.2
77.0382 120.0
91.053 218.5
95.0488 90.39
103.0533 303.4
121.0633 35.36
123.0423 276.1
147.0425 234.0
165.0551 17.39

>collision 5-60
119.0501 518.7
162.8392 1204.0

