>compound Hesperetin_Hesperetin
#instrument UPLC Q-Tof Premier, Waters
>formula C16H14O6
#smiles COc(c3)c(O)cc(c3)[C@H](C1)Oc(c2)c(c(O)cc(O)2)C(=O)1
#RECORD LC-ESI-QTOF_train_data/PR100772.txt
>charge -1
>ionization [M-H]-
>parentmass 301.07123

>collision 5-60
139.9313 9.765
143.9357 8.836
156.9389 36.65
158.938 16.98
159.9353 6.575
160.9382 33.07
161.9399 5.985
222.9224 7.456
224.9261 7.169
270.8709 7.346
272.8701 5.409
282.8772 11.09
300.8701 54.21
301.8726 12.21

