>compound Piperidine_Piperidine
#instrument UPLC Q-Tof Premier, Waters
>formula C5H11N
#smiles C(C1)CCNC1
#RECORD LC-ESI-QTOF_train_data/PR100190.txt
>charge 1
>ionization [M+H]+
>parentmass 86.09694

>collision 30
69.071 9.169
86.066 1.183
86.0969 115.8

