>compound L-Homocystine_L-Homocystine
#instrument UPLC Q-Tof Premier, Waters
>formula C8H16N2O4S2
#smiles OC(=O)C(N)CCSSCCC(N)C(O)=O
#RECORD LC-ESI-QTOF_train_data/PR100166.txt
>charge 1
>ionization [M+H]+
>parentmass 269.06295

>collision 5-60
88.0241 87.71
90.0398 48.55
98.9878 13.74
100.9933 2.006
118.0351 9.837
134.0311 52.82
136.0471 68.88
210.9685 2.346
269.063 3.134

