>compound (R)-(-)-mandelic acid_(R)-(-)-mandelic acid
#instrument UPLC Q-Tof Premier, Waters
>formula C8H8O3
#smiles OC(=O)[C@H](O)c(c1)cccc1
#RECORD LC-ESI-QTOF_train_data/PR100875.txt
>charge -1
>ionization [M-H]-
>parentmass 151.03954

>collision 5-60
107.0502 27.68
151.0395 66.54

