>compound alpha-Methyl-DL-serine_alpha-Methyl-DL-serine
#instrument UPLC Q-Tof Premier, Waters
>formula C4H9NO3
#smiles OCC(C)(N)C(O)=O
#RECORD LC-ESI-QTOF_train_data/PR100629.txt;LC-ESI-QTOF_train_data/PR100215.txt
>charge -1
>ionization [M-H]-
>parentmass 118.05044

>collision 5-60
88.0401 34.79
118.0504 174.4

>collision 5-60
56.0493 34.49
57.0358 8.33
74.0606 816.8
84.0443 66.85
102.0556 146.1
120.066 199.2

