>compound Citraconic acid_Citraconic acid
#instrument UPLC Q-Tof Premier, Waters
>formula C5H6O4
#smiles OC(=O)C=C(C)C(O)=O
#RECORD LC-ESI-QTOF_train_data/PR100761.txt
>charge -1
>ionization [M-H]-
>parentmass 129.01881

>collision 5-60
85.0293 102.7
129.0188 28.76

