>compound D,L-Sulforaphane_D,L-Sulforaphane
#instrument UPLC Q-Tof Premier, Waters
>formula C6H11NOS2
#smiles S=C=NCCCCS(C)=O
#RECORD LC-ESI-QTOF_train_data/PR100442.txt
>charge 1
>ionization [M+H]+
>parentmass 178.036

>collision 5-60
71.9899 88.01
114.0366 160.2
119.0526 22.35

