>compound 5-Methylcytosine_5-Methylcytosine
#instrument UPLC Q-Tof Premier, Waters
>formula C5H7N3O
#smiles CC(=C1)C(N)=NC(=O)N1
#RECORD LC-ESI-QTOF_train_data/PR100016.txt;LC-ESI-QTOF_train_data/PR100017.txt
>charge 1
>ionization [M+H]+
>parentmass 126.06671

>collision 5-60
125.9861 26.99
126.0643 1580.0

>collision 30
83.057 1.829
109.0347 1.41
126.0643 11.39

