>compound 6-Aminohexanoic acid_6-Aminohexanoic acid
#instrument UPLC Q-Tof Premier, Waters
>formula C6H13NO2
#smiles NCCCCCC(O)=O
#RECORD LC-ESI-QTOF_train_data/PR100222.txt
>charge 1
>ionization [M+H]+
>parentmass 132.10242

>collision 5-60
69.0708 1063.0
73.0656 183.3
79.0552 436.6
96.0819 308.5
97.0662 158.3
114.0916 1236.0
115.0771 169.0
115.966 155.2
132.1024 626.7

