>compound Thymidine-3',5'-cyclic monophosphate_Thymidine-3',5'-cyclic monophosphate
#instrument UPLC Q-Tof Premier, Waters
>formula C10H13N2O7P
#smiles O=C(N3)C(C)=CN(C(=O)3)C(O1)CC([H])(O2)C([H])(COP(O)(=O)2)1
#RECORD LC-ESI-QTOF_train_data/PR100205.txt
>charge 1
>ionization [M+H]+
>parentmass 305.05384

>collision 5-60
81.0338 288.4
127.0508 95.38
305.0538 85.15

