>compound L-beta-Homovaline_L-beta-Homovaline
#instrument UPLC Q-Tof Premier, Waters
>formula C6H13NO2
#smiles CC(C)[C@@H](N)CC(O)=O
#RECORD LC-ESI-QTOF_train_data/PR100721.txt;LC-ESI-QTOF_train_data/PR100290.txt
>charge -1
>ionization [M-H]-
>parentmass 130.08682

>collision 5-60
59.0152 1.754
129.8702 3.847
130.0868 53.94

>collision 5-60
69.0711 769.3
72.0813 2306.0
73.0664 301.6
99.5111 238.4
115.9659 420.4
132.1024 613.4

