>compound O-Acetyl-L-carnitine_O-Acetyl-L-carnitine
#instrument UPLC Q-Tof Premier, Waters
>formula C9H18NO4
#smiles CC(=O)O[C@H](CC(O)=O)C[N+1](C)(C)C
#RECORD LC-ESI-QTOF_train_data/PR100396.txt
>charge 1
>ionization [M]+
>parentmass 204.12355

>collision 5-60
85.0299 7488.0
145.0539 1061.0
204.1236 2527.0

