>compound 2-Hydroxypyridine_2-Hydroxypyridine
#instrument UPLC Q-Tof Premier, Waters
>formula C5H5NO
#smiles Oc(c1)nccc1
#RECORD LC-ESI-QTOF_train_data/PR100048.txt
>charge 1
>ionization [M+H]+
>parentmass 96.04491

>collision 5-60
78.0339 8.804
95.9478 5.135
96.0134 10.4
96.0449 513.1

