>compound 4-Hydroxy-3-methoxycinnamaldehyde_4-Hydroxy-3-methoxycinnamaldehyde
#instrument UPLC Q-Tof Premier, Waters
>formula C10H10O3
#smiles [H]C(=O)C=Cc(c1)cc(OC)c(O)c1
#RECORD LC-ESI-QTOF_train_data/PR100480.txt;LC-ESI-QTOF_train_data/PR100003.txt
>charge -1
>ionization [M-H]-
>parentmass 177.05519

>collision 5-60
134.0375 34.93
162.0311 580.9
177.0552 166.8

>collision 5-60
65.0402 92.97
77.0402 105.2
79.0555 174.3
91.0555 749.7
105.0714 201.7
107.0512 164.0
118.0427 205.3
119.0506 673.6
133.0661 233.2
136.0539 185.2
146.0382 252.4
147.0458 976.8
161.0615 598.9
179.0708 737.3

