>compound N-Methyl-DL-Alanine_N-Methyl-DL-Alanine
#instrument UPLC Q-Tof Premier, Waters
>formula C4H9NO2
#smiles CNC(C)C(O)=O
#RECORD LC-ESI-QTOF_train_data/PR100184.txt
>charge 1
>ionization [M+H]+
>parentmass 104.07113

>collision 5-60
58.0658 36.46
104.0711 26.64

