>compound N-acetyl putrescine_N-acetyl putrescine
#instrument UPLC Q-Tof Premier, Waters
>formula C6H14N2O
#smiles NCCCCNC(C)=O
#RECORD LC-ESI-QTOF_train_data/PR100276.txt
>charge 1
>ionization [M+H]+
>parentmass 131.11841

>collision 5-60
72.0816 1035.0
114.0915 1571.0
131.1184 494.1

