>compound 1-Methylnicotinamide_1-Methylnicotinamide
#instrument UPLC Q-Tof Premier, Waters
>formula C7H9N2O
#smiles NC(=O)c(c1)c[n+1](C)cc1
#RECORD LC-ESI-QTOF_train_data/PR100411.txt;LC-ESI-QTOF_train_data/PR100412.txt
>charge 1
>ionization [M]+
>parentmass 137.07146

>collision 5-60
78.037 457.9
92.0527 944.1
94.0681 2298.0
137.0715 4928.0

>collision 30
65.0396 101.7
67.0538 54.25
78.0349 220.3
79.0422 140.0
92.0505 244.2
93.0583 134.9
94.0662 478.0
96.0446 52.23
137.0715 124.8

