>compound 4-Nitrophenyl phosphate_4-Nitrophenyl phosphate
#instrument UPLC Q-Tof Premier, Waters
>formula C6H6NO6P
#smiles [O-1][N+1](=O)c(c1)ccc(c1)OP(O)(O)=O
#RECORD LC-ESI-QTOF_train_data/PR100750.txt;LC-ESI-QTOF_train_data/PR100600.txt;LC-ESI-QTOF_train_data/PR100599.txt;LC-ESI-QTOF_train_data/PR100193.txt
>charge -1
>ionization [M-H]-
>parentmass 217.98547

>collision 5-60
78.9598 389.2
217.9855 24.65

>collision 30
78.9446 363.5

>collision 5-60
78.959 636.5

>collision 5-60
75.0237 11.4
94.0412 150.4
109.0279 10.58
123.0313 9.3
174.0079 85.18
202.9983 31.06
220.0011 76.31

