>compound 2-Aminoethylphosphonic acid_2-Aminoethylphosphonic acid
#instrument UPLC Q-Tof Premier, Waters
>formula C2H8NO3P
#smiles NCCP(O)(O)=O
#RECORD LC-ESI-QTOF_train_data/PR100520.txt;LC-ESI-QTOF_train_data/PR100079.txt
>charge -1
>ionization [M-H]-
>parentmass 124.01638

>collision 5-60
78.9595 119.0
79.9672 8.425
106.9891 12.5
124.0164 153.0

>collision 5-60
84.9604 3.736
125.9838 10.08
126.032 35.98

