>compound 2-Aminoisobutyric acid_2-Aminoisobutyric acid
#instrument UPLC Q-Tof Premier, Waters
>formula C4H9NO2
#smiles OC(=O)C(C)(C)N
#RECORD LC-ESI-QTOF_train_data/PR100213.txt;LC-ESI-QTOF_train_data/PR100626.txt
>charge 1
>ionization [M+H]+
>parentmass 104.07113

>collision 5-60
58.0656 177.8
59.0503 17.96
87.0447 10.77
99.5117 4.289
104.0711 126.4

>collision 5-60
102.0555 99.66

