>compound Luteolin-7-O-glucoside_Luteolin-7-O-glucoside
#instrument UPLC Q-Tof Premier, Waters
>formula C21H20O11
#smiles OC[C@@H](O1)[C@@H](O)[C@H](O)[C@@H](O)[C@@H]1Oc(c4)cc(O2)c(c(O)4)C(=O)C=C2c(c3)cc(O)c(O)c3
#RECORD LC-ESI-QTOF_train_data/PR100669.txt;LC-ESI-QTOF_train_data/PR100247.txt
>charge -1
>ionization [M-H]-
>parentmass 447.09276

>collision 5-60
107.0145 175.8
133.03 230.7
151.0047 246.3
199.0414 102.7
227.0359 134.0
256.0395 205.4
284.0346 2228.0
285.0419 3397.0
447.0928 2788.0

>collision 5-60
135.0454 168.6
153.0203 495.1
287.0561 5194.0
449.1084 448.1

