>compound 1-Amino-1-cyclopentanecarboxylic acid_1-Amino-1-cyclopentanecarboxylic acid
#instrument UPLC Q-Tof Premier, Waters
>formula C6H11NO2
#smiles OC(=O)C(N)(C1)CCC1
#RECORD LC-ESI-QTOF_train_data/PR100001.txt;LC-ESI-QTOF_train_data/PR100002.txt
>charge 1
>ionization [M+H]+
>parentmass 130.1

>collision 5-60
84.0793 191.6
130.0827 2038.0

>collision 30
67.0531 3.507
84.0325 0.5769
84.0522 0.4709
84.0776 7.539
95.0468 1.16
129.373 0.4946
130.0024 0.4655
130.0869 2.959

