>compound 4-Methyl-5-thiazoleethanol_4-Methyl-5-thiazoleethanol
#instrument UPLC Q-Tof Premier, Waters
>formula C6H9NOS
#smiles OCCc(s1)c(C)nc1
#RECORD LC-ESI-QTOF_train_data/PR100300.txt;LC-ESI-QTOF_train_data/PR100301.txt
>charge 1
>ionization [M+H]+
>parentmass 144.04828

>collision 5-60
112.0255 704.1
113.0325 3430.0
126.0412 1679.0
144.0483 4400.0

>collision 30
70.9965 177.6
72.0041 91.26
80.0504 99.28
85.0117 105.8
112.0225 709.7
113.0303 1234.0
126.0387 182.4
144.0483 84.99

