>compound apigenin-7-O-glucoside_apigenin-7-O-glucoside
#instrument UPLC Q-Tof Premier, Waters
>formula C21H20O10
#smiles OCC(O1)C(O)C(O)C(O)C1Oc(c4)cc(O2)c(c(O)4)C(=O)C=C(c(c3)ccc(O)c3)2
#RECORD LC-ESI-QTOF_train_data/PR100235.txt;LC-ESI-QTOF_train_data/PR100649.txt
>charge 1
>ionization [M+H]+
>parentmass 433.11344

>collision 5-60
153.0203 806.4
271.0613 7751.0
433.1134 651.0

>collision 5-60
107.0154 305.4
151.005 390.6
211.0423 371.1
239.0378 410.6
240.046 415.3
268.0391 5468.0
269.0494 1900.0
431.0978 4504.0

