>compound 1-Methylhistamine_1-Methylhistamine
#instrument UPLC Q-Tof Premier, Waters
>formula C6H11N3
#smiles NCCc(n1)cn(C)c1
#RECORD LC-ESI-QTOF_train_data/PR100078.txt
>charge 1
>ionization [M+H]+
>parentmass 126.10309

>collision 5-60
109.0761 30.69
126.1031 623.2

