>compound 3-Hydroxypyridine_3-Hydroxypyridine
#instrument UPLC Q-Tof Premier, Waters
>formula C5H5NO
#smiles Oc(c1)cncc1
#RECORD LC-ESI-QTOF_train_data/PR100333.txt;LC-ESI-QTOF_train_data/PR100332.txt;LC-ESI-QTOF_train_data/PR100769.txt;LC-ESI-QTOF_train_data/PR100768.txt
>charge 1
>ionization [M+H]+
>parentmass 96.04491

>collision 30
68.0503 42.47
78.0347 36.73
79.0412 8.145
96.0449 372.8

>collision 5-60
68.0512 118.2
78.0357 70.17
96.0104 17.81
96.0449 2153.0

>collision 30
94.0293 13.53

>collision 5-60
66.0355 2.513
94.0293 91.3

