>compound 2-Hydroxyphenylacetic acid_2-Hydroxyphenylacetic acid
#instrument UPLC Q-Tof Premier, Waters
>formula C8H8O3
#smiles OC(=O)Cc(c1)c(O)ccc1
#RECORD LC-ESI-QTOF_train_data/PR100850.txt
>charge -1
>ionization [M-H]-
>parentmass 151.03954

>collision 5-60
107.0497 1375.0
151.0395 143.7

