>compound Kaempferol_Kaempferol
#instrument UPLC Q-Tof Premier, Waters
>formula C15H10O6
#smiles Oc(c3)ccc(c3)C(O1)=C(O)C(=O)c(c(O)2)c(cc(O)c2)1
#RECORD LC-ESI-QTOF_train_data/PR100641.txt;LC-ESI-QTOF_train_data/PR100228.txt
>charge -1
>ionization [M-H]-
>parentmass 285.03994

>collision 5-60
64.9965 4.495
93.023 6.698
97.0178 5.852
119.0343 79.42
164.9985 38.64
285.0399 33.52

>collision 5-60
69.0622 6.086
91.0421 5.857
99.4978 12.4
100.4944 4.882
105.0564 14.95
111.1031 11.06
119.0337 9.155
147.0268 12.97
167.0118 30.66
287.0555 24.97

