>compound 2,2',2''-Nitrilotriethanol_2,2',2''-Nitrilotriethanol
#instrument UPLC Q-Tof Premier, Waters
>formula C6H15NO3
#smiles OCCN(CCO)CCO
#RECORD LC-ESI-QTOF_train_data/PR100337.txt
>charge 1
>ionization [M+H]+
>parentmass 150.11299

>collision 5-60
70.0672 947.8
88.0778 870.0
114.0944 335.1
132.1046 1278.0
150.113 2100.0

