>compound (R)-(-)-Phenylephrine_(R)-(-)-Phenylephrine
#instrument UPLC Q-Tof Premier, Waters
>formula C9H13NO2
#smiles CNC[C@H](O)c(c1)cc(O)cc1
#RECORD LC-ESI-QTOF_train_data/PR100009.txt
>charge 1
>ionization [M+H]+
>parentmass 168.10242

>collision 5-60
150.0875 512.0
168.096 1841.0

