>compound Oxypurinol_Oxypurinol
#instrument UPLC Q-Tof Premier, Waters
>formula C5H4N4O2
#smiles Oc(n1)nc(n2)c(cn2)c(O)1
#RECORD LC-ESI-QTOF_train_data/PR100860.txt;LC-ESI-QTOF_train_data/PR100403.txt
>charge -1
>ionization [M-H]-
>parentmass 151.02562

>collision 5-60
108.0215 93.46
151.0256 1250.0

>collision 5-60
80.0132 16.55
110.0356 35.2
135.0298 21.24
136.015 290.4
153.0412 168.7

