>compound Mecamylamine_Mecamylamine
#instrument UPLC Q-Tof Premier, Waters
>formula C11H21N
#smiles CNC(C)(C21)C(C)(C)C(CC2)C1
#RECORD LC-ESI-QTOF_train_data/PR100177.txt
>charge 1
>ionization [M+H]+
>parentmass 168.17519

>collision 5-60
67.0552 246.5
79.0547 282.9
81.0698 4639.0
95.0862 744.3
137.1317 2717.0
168.1752 580.4

