>compound Methylsuccinic acid_Methylsuccinic acid
#instrument UPLC Q-Tof Premier, Waters
>formula C5H8O4
#smiles OC(=O)CC(C)C(O)=O
#RECORD LC-ESI-QTOF_train_data/PR100833.txt;LC-ESI-QTOF_train_data/PR100834.txt
>charge -1
>ionization [M-H]-
>parentmass 131.03446

>collision 5-60
87.0455 241.5
131.0345 120.1

>collision 30
87.0453 193.2
131.0345 99.16

