>compound Quisqualic acid_Quisqualic acid
#instrument UPLC Q-Tof Premier, Waters
>formula C5H7N3O5
#smiles N[C@H](C(O)=O)CN(O1)C(=O)NC(=O)1
#RECORD LC-ESI-QTOF_train_data/PR100197.txt
>charge 1
>ionization [M+H]+
>parentmass 190.04637

>collision 5-60
57.0458 13.81
133.0176 11.43
144.0412 31.54
149.0433 12.73
151.0212 5.133
190.0464 25.7

