>compound Lignoceric acid_Lignoceric acid
#instrument UPLC Q-Tof Premier, Waters
>formula C24H48O2
#smiles CCCCCCCCCCCCCCCCCCCCCCCC(O)=O
#RECORD LC-ESI-QTOF_train_data/PR100438.txt
>charge 1
>ionization [M+H]+
>parentmass 369.37321

>collision 5-60
99.5365 10.69
105.097 138.8
147.1068 7.806
369.2571 16.15

