>compound naringenin-7-O-glucoside_naringenin-7-O-glucoside
#instrument UPLC Q-Tof Premier, Waters
>formula C21H22O10
#smiles OCC(O1)C(O)C(O)C(O)C1Oc(c4)cc(O2)c(c(O)4)C(=O)CC(c(c3)ccc(O)c3)2
#RECORD LC-ESI-QTOF_train_data/PR100249.txt;LC-ESI-QTOF_train_data/PR100671.txt
>charge 1
>ionization [M+H]+
>parentmass 435.12909

>collision 5-60
91.0547 79.35
119.0502 207.3
123.045 53.04
147.0451 623.6
153.0193 1455.0
273.0759 2226.0
435.1291 48.71

>collision 5-60
65.0047 88.21
83.0148 93.58
93.0355 137.2
107.0144 284.0
119.0503 893.3
151.0035 1063.0
177.0194 130.8
271.0612 2726.0
433.1135 206.7

