>compound Isorhamnetin_Isorhamnetin
#instrument UPLC Q-Tof Premier, Waters
>formula C16H12O7
#smiles COc(c(O)3)cc(cc3)C(O1)=C(O)C(=O)c(c(O)2)c(cc(O)c2)1
#RECORD LC-ESI-QTOF_train_data/PR100227.txt;LC-ESI-QTOF_train_data/PR100640.txt
>charge 1
>ionization [M+H]+
>parentmass 317.0661

>collision 5-60
153.0205 25.19
209.0339 11.13
229.0487 10.15
245.043 9.944
285.0371 12.23
302.0425 22.3
317.0661 105.0

>collision 5-60
107.0136 17.72
151.0038 21.2
300.0259 95.78
315.0505 130.3

