>compound peonidin-3-o-beta-d-glucopyranoside_peonidin-3-o-beta-d-glucopyranoside
#instrument UPLC Q-Tof Premier, Waters
>formula C22H23O11
#smiles COc(c(O)4)cc(cc4)c([o+1]1)c(OC(O3)C(O)C(O)C(O)C(CO)3)cc(c(O)2)c(cc(O)c2)1
#RECORD LC-ESI-QTOF_train_data/PR100348.txt;LC-ESI-QTOF_train_data/PR100792.txt
>charge 1
>ionization [M]+
>parentmass 463.12401

>collision 5-60
258.0547 567.6
286.0496 1524.0
301.0717 5175.0
463.124 905.6

>collision 5-60
211.0415 105.3
227.0354 199.8
255.0306 222.5
283.025 400.7
284.033 240.5
298.0484 462.9
299.0562 894.1
461.1084 356.3

