>compound Vitexin-2''-O-rhamnoside_Vitexin-2''-O-rhamnoside
#instrument UPLC Q-Tof Premier, Waters
>formula C27H30O14
#smiles [C@H](O1)([C@@H]([C@H]([C@H]([C@@H]1O[C@H]([C@H]5O)[C@@H](O[C@@H]([C@H]5O)CO)c(c2O)c(O3)c(C(C=C(c(c4)ccc(O)c4)3)=O)c(c2)O)O)O)O)C
#RECORD LC-ESI-QTOF_train_data/PR100371.txt;LC-ESI-QTOF_train_data/PR100821.txt
>charge 1
>ionization [M+H]+
>parentmass 579.17135

>collision 5-60
283.0629 941.0
284.0703 400.6
313.0735 1632.0
337.0731 424.8
397.0945 570.8
415.105 673.4
433.1147 1599.0
579.1713 1786.0

>collision 5-60
175.005 346.8
283.0647 377.2
293.0482 6085.0
311.0603 854.9
413.091 2672.0
577.1558 3949.0

