>compound m-Hydroxycinnamic acid_m-Hydroxycinnamic acid
#instrument UPLC Q-Tof Premier, Waters
>formula C9H8O3
#smiles OC(=O)C=Cc(c1)cc(O)cc1
#RECORD LC-ESI-QTOF_train_data/PR100767.txt;LC-ESI-QTOF_train_data/PR100766.txt
>charge -1
>ionization [M-H]-
>parentmass 163.03954

>collision 30
145.8822 128.9
162.885 10.55

>collision 5-60
145.8744 219.9
162.8748 468.2

