>compound D-Carnitine_D-Carnitine
#instrument UPLC Q-Tof Premier, Waters
>formula C7H15NO3
#smiles [O-1]C(=O)C[C@H](O)C[N+1](C)(C)C
#RECORD LC-ESI-QTOF_train_data/PR100130.txt;LC-ESI-QTOF_train_data/PR100131.txt
>charge 1
>ionization [M+H]+
>parentmass 162.11299

>collision 5-60
103.0409 48.95
162.113 2838.0

>collision 30
103.0389 16.69
162.0686 9.586
162.113 191.4

