>compound Delphinidin-3-O-(6''-O-alpha-rhamnopyranosyl-beta-glucopyranoside)_Delphinidin-3-O-(6''-O-alpha-rhamnopyranosyl-beta-glucopyranoside)
#instrument UPLC Q-Tof Premier, Waters
>formula C27H31O16
#smiles C(C5O)(O)C(C)OC(C5O)OCC(O1)C(C(C(C1Oc(c3)c([o+1]c(c4)c(c(O)cc4O)3)c(c2)cc(c(c2O)O)O)O)O)O
#RECORD LC-ESI-QTOF_train_data/PR100919.txt;LC-ESI-QTOF_train_data/PR100460.txt;LC-ESI-QTOF_train_data/PR100920.txt
>charge -1
>ionization [M-2H]-
>parentmass 609.14558

>collision 5-60
125.0249 67.4
299.0208 62.14
300.029 454.9
301.0373 167.4
609.1456 640.0

>collision 5-60
229.0499 21.13
257.045 29.67
303.0501 1405.0
304.0557 19.19
465.1014 20.03
611.1612 359.7

>collision 30
125.0246 119.7
299.0199 40.14
300.0286 1113.0
301.0364 362.8
315.0518 63.73
609.1456 48.55

