>compound N-6-(delta-2-Isopentenyl)adenosine_N-6-(delta-2-Isopentenyl)adenosine
#instrument UPLC Q-Tof Premier, Waters
>formula C15H21N5O4
#smiles CC(C)=CCNc(n3)c(n2)c(nc3)n(c2)C(O1)C(O)C(O)C(CO)1
#RECORD LC-ESI-QTOF_train_data/PR100006.txt;LC-ESI-QTOF_train_data/PR100484.txt
>charge 1
>ionization [M+H]+
>parentmass 336.16715

>collision 5-60
69.0765 9967.0
119.044 10670.0
136.0659 30140.0
136.3563 13760.0
136.4155 13520.0
148.0702 24820.0
204.1277 14700.0
204.4835 6995.0
204.5621 8075.0
336.1671 6513.0

>collision 5-60
107.0363 92.66
133.0392 317.8
134.047 1010.0
202.1096 949.6
266.0897 162.6
334.1516 176.5

