>compound trans-Zeatin-riboside_trans-Zeatin-riboside
#instrument UPLC Q-Tof Premier, Waters
>formula C15H21N5O5
#smiles OCC(C)=CCNc(n3)c(n2)c(nc3)n(c2)C(O1)C(O)C(O)C(CO)1
#RECORD LC-ESI-QTOF_train_data/PR100614.txt;LC-ESI-QTOF_train_data/PR100209.txt
>charge -1
>ionization [M-H]-
>parentmass 350.14646

>collision 5-60
107.036 37.72
133.0396 45.3
134.0469 470.4
200.0946 30.01
218.1049 199.7
266.0894 138.5
350.1465 93.51

>collision 5-60
119.0397 949.3
136.0654 7420.0
148.0669 1916.0
185.0885 731.3
202.1146 1891.0
220.1222 5716.0
352.162 3007.0

