>compound (+-)-Baclofen_(+-)-Baclofen
#instrument UPLC Q-Tof Premier, Waters
>formula C10H12ClNO2
#smiles NCC(CC(O)=O)c(c1)ccc(Cl)c1
#RECORD LC-ESI-QTOF_train_data/PR100007.txt;LC-ESI-QTOF_train_data/PR100486.txt;LC-ESI-QTOF_train_data/PR100008.txt
>charge 1
>ionization [M+H]+
>parentmass 214.06345

>collision 5-60
151.0301 37.31
197.0357 42.32
214.0599 671.4

>collision 5-60
103.0551 8.856
139.032 78.66
151.0319 36.94
183.022 9.722
195.0203 5.674
195.817 8.023
197.8098 10.36
212.0479 100.8

>collision 30
151.027 71.28
179.022 12.8
196.0484 15.13
197.0356 22.39
213.9756 11.38
214.0545 130.8

