>compound Thiabendazole_Thiabendazole
#instrument UPLC Q-Tof Premier, Waters
>formula C10H7N3S
#smiles c(c3)cc(n1)c(c3)nc1c(n2)csc2
#RECORD LC-ESI-QTOF_train_data/PR100202.txt;LC-ESI-QTOF_train_data/PR100201.txt;LC-ESI-QTOF_train_data/PR100607.txt
>charge 1
>ionization [M+H]+
>parentmass 202.0439

>collision 30
65.0397 2239.0
92.0501 2910.0
104.0502 1520.0
131.0603 10100.0
143.0612 1166.0
175.0327 7645.0
202.0439 1663.0

>collision 5-60
65.0427 904.5
92.0543 1193.0
131.0662 4271.0
175.0384 6481.0
202.0439 9716.0
202.401 1307.0

>collision 5-60
141.044 11.47
172.0106 7.425
173.0156 75.26
200.0283 56.71

